108
#Comment!
LJ          -3.13027        -5.47888        -4.86025
LJ           4.03801         3.74614        -3.34996
LJ           3.53444         1.54113          -2.178
LJ           3.21224        -2.53605        -2.85538
LJ            1.5631         4.44853         4.30045
LJ          -2.66938        0.719312         5.89977
LJ          -0.14415       -0.763488        -5.78053
LJ          -5.24752         3.15709        0.529807
LJ           2.63927         2.32921         4.72955
LJ          -5.63971        -6.18629        -1.37453
LJ          -1.06728         1.75885         2.77928
LJ           2.81455         2.52632         3.21658
LJ           2.25777        -2.06855        -3.14229
LJ           1.14688        0.506499         4.92917
LJ          -1.53604        -2.47655        -4.66544
LJ           3.20853         3.94095        -2.56076
LJ           1.79677        -1.47167        -4.08847
LJ           2.61059       -0.585589        -5.04966
LJ           -1.8638         1.34478         1.69977
LJ          0.693742        -2.20527         3.04974
LJ         -0.256017        0.794199         3.51754
LJ          -5.93932        -1.19393         5.04881
LJ          -6.35498         4.06768        -5.78476
LJ         -0.872617        -3.00593         2.88067
LJ         -0.337642        0.233985         4.44259
LJ           1.22409         2.39531         2.47679
LJ           2.11248        -2.08641         6.27594
LJ           1.56589        -1.30912        -1.78195
LJ           6.31433         1.25943         5.18448
LJ           6.07552         -1.2301         5.53306
LJ          -3.65536        0.190067         2.04061
LJ         -0.795319        -5.34827        -5.89548
LJ           1.11267          3.4057        0.640842
LJ           4.85919         3.37363         4.15857
LJ          -3.14545        0.785785         2.85678
LJ          -3.37293         2.55682         4.70406
LJ           6.40709        -4.55107        -1.68994
LJ           4.94623         3.32169        -3.02327
LJ           2.98389         2.31944        -2.70443
LJ         -0.529305        -5.96667        -4.35624
LJ          -2.34774        -4.71095        -1.92617
LJ           1.35711         -4.5275         3.97845
LJ          -1.78235        -4.60277        -3.25849
LJ          -3.35655         5.32353         6.28125
LJ          0.580656        -2.99974         3.92102
LJ           3.28831        0.110006        -6.34576
LJ          0.940039        -1.74822        -3.43281
LJ            3.9339        0.159528        -2.02231
LJ         -0.763296         3.37485        -2.23871
LJ            4.2048         3.69865        -2.15363
LJ           -1.7302         -6.2091        -4.95419
LJ         -0.905034        -5.81319        -3.14683
LJ           4.43106        -3.90378         4.61254
LJ          -2.86467        -2.58623        -6.17877
LJ          -3.27236        -4.64928         5.30114
LJ           2.19595         -3.7981         5.13841
LJ           1.80965        -2.40636         3.64003
LJ           1.05184        -1.13977        -4.72116
LJ          0.291682          4.5502        -6.29396
LJ         -0.314674        -3.89798         3.87864
LJ           4.36898        -4.46948         -3.7721
LJ           4.12087          2.5863        -2.73477
LJ          -4.32196        -3.64412        -2.89096
LJ           6.06796       -0.573362         3.85161
LJ          -5.47091         1.05924         6.02666
LJ          -6.37447        -4.75038        -6.01335
LJ           4.39923         3.02467       -0.569794
LJ           5.27405       -0.478512          5.8863
LJ          -3.09978         3.74948       -0.243087
LJ          -3.71876        -5.80719         2.68075
LJ            6.1085         3.89715       -0.776043
LJ          -1.68976        -2.01503         -3.6489
LJ            5.9151         -3.4417        -1.53124
LJ          -4.04579         -5.9635        -2.19023
LJ           4.48738         4.82497        -3.48705
LJ          -2.41643        -5.64689        -5.77096
LJ           -1.3226        -2.79776        0.580939
LJ          -5.72304        -3.59395         2.76592
LJ           4.63029        -4.26656        -1.19458
LJ           1.98494         -2.3657        -1.82756
LJ           6.18523        -4.80179         4.72665
LJ          0.136178        -5.37087        0.416515
LJ          -1.23959         4.37428         2.31594
LJ            2.4477       -0.317484         3.71587
LJ           5.77816         4.92731        -2.23163
LJ          -5.72843         3.87325         4.91475
LJ             0.122          4.0944        -3.15838
LJ         -0.716177         6.07563        -3.05945
LJ           3.91809         -4.8461         4.46259
LJ          -5.51205        -3.74396         4.72301
LJ          -1.70709         1.19403         -5.8373
LJ           2.73553        0.953945         0.28459
LJ           4.18141        -4.70167         2.29673
LJ          -1.90143        -2.88637        -2.06177
LJ           -1.6253        -5.85422         4.76714
LJ           5.37589       0.0756121        -3.84756
LJ          -6.30547         4.75338        -2.94866
LJ           -3.8038         1.42921        -4.41888
LJ          -2.87726         5.74421         5.02085
LJ          -2.28796           4.088       -0.726427
LJ           6.01696        -5.74842          5.1147
LJ           4.92877        -2.69321         4.63827
LJ           5.16154         5.49158          5.9113
LJ          -5.75318      0.00349907         5.54866
LJ            5.0367        -5.15395         3.61605
LJ          -2.86859        -3.89549       -0.471325
LJ           -6.2473        -5.01849         3.00637
LJ           5.31051          1.0472         4.62414
