108
#Comment!
LJ           -6.3206       -0.676634         5.79189
LJ          -5.48061         2.43868         6.37891
LJ          -2.09627         -1.9684         -6.3389
LJ          -4.51849         1.98834        -2.07815
LJ           3.10249         3.82029        0.566376
LJ          -4.32162        -2.16679         5.47462
LJ         -0.801333       -0.264213         -3.3534
LJ         0.0347656        -4.67603        -1.70786
LJ           4.20916         6.16552        -2.91524
LJ          -3.49113         -3.9749        -3.19182
LJ           5.06443       0.0808908        -1.64174
LJ          -2.88866       -0.594304         3.31908
LJ           4.66422       0.0464148         3.08025
LJ          -5.97303         6.29009         2.83785
LJ           0.11988         4.83419        -1.83554
LJ          -1.44293        -2.83082         4.26806
LJ         -0.348536         2.20364        -5.69092
LJ           5.63696        -3.01719        -0.51114
LJ        -0.0108874        -5.35098        -2.86736
LJ          -4.90344       -0.482273        -1.91378
LJ           1.88072         5.96131         3.08016
LJ           1.32884        -5.05281         1.57638
LJ          -3.07084         5.10887         4.57018
LJ           -6.2813         1.12643        -2.50249
LJ          -5.00033        -4.47023        -1.22983
LJ           1.63317        -2.50032         5.33913
LJ          -1.03022        -1.46702        -3.43472
LJ           2.44414        -2.11478         2.22348
LJ           5.25764        -5.02152        -6.34565
LJ           -5.4105        -4.35833        -2.17673
LJ           1.90081         5.93827        -4.50776
LJ           5.52388         4.82005         3.94019
LJ           6.32262        -4.02079         3.62247
LJ          -2.78126         2.82313       0.0434884
LJ            3.4714          5.7028         4.32467
LJ           4.49708        -4.90781         3.08482
LJ          -3.09467        -2.43588         2.54874
LJ          -1.99064         0.40174         3.12396
LJ          -2.90332        -2.34299        -1.80865
LJ          -5.64223         3.25705        -1.61919
LJ          0.338082          1.5831         3.48085
LJ          -2.02147       -0.596874        -3.69249
LJ           1.32484       -0.946893         1.07574
LJ          -5.92027          3.7434         2.18341
LJ           3.29484        0.185237         4.97578
LJ         -0.652583       0.0152181         3.39136
LJ           2.96056         4.73424        -5.21918
LJ           4.35604        -5.89718         4.33733
LJ          -5.60682         -5.6891        -1.49603
LJ          -5.22659         6.25003         3.69113
LJ          -2.43149        -5.70701        -2.56223
LJ           4.05826         3.50711       -0.747195
LJ            1.0413         3.79567         4.72464
LJ          -2.41583         5.71295        -2.08631
LJ          -5.69113        -3.28778         4.15821
LJ          -3.75546        -1.21333         5.59499
LJ          -5.29063        -1.17868        -5.60857
LJ          -1.50321        0.538845        -4.01159
LJ          -5.09897         2.31028        -1.13997
LJ          -5.84812        0.469026        -3.42203
LJ          0.339751        -1.85713       -0.247632
LJ           2.35594        -4.58665          1.9937
LJ          -1.10565         1.27164         -2.4296
LJ          -4.51689         4.84371        -2.60784
LJ            6.2677       -0.841907        -2.83833
LJ          0.935301         2.29625         -4.6298
LJ          -1.22174        -4.82362        -4.53957
LJ          -3.21116       -0.842107        -2.78054
LJ           3.07914         5.64441        -3.49339
LJ          -4.46443        -1.61358       -0.238974
LJ          -6.22528        0.354558        -4.99435
LJ           4.11039        -1.19135         3.17928
LJ          0.308627         5.52319         -6.3501
LJ           4.11299         1.64544         1.57114
LJ          -1.42831         1.48448        -3.50476
LJ           2.74478         6.46265          3.3334
LJ           3.58995        -3.90011         4.14028
LJ          0.996072         2.93392         3.98955
LJ           3.00149         3.44002       -0.799085
LJ           1.31101        -4.52281        -5.35469
LJ          -2.86441         3.60476        -3.12729
LJ          -4.12406         4.77703         3.58561
LJ          -2.08956        -1.58847         -3.0984
LJ         0.0226354        0.463219         5.64169
LJ         -0.342049        -1.83367        -1.41183
LJ         -0.227012         2.56602        -2.19743
LJ            5.8529           5.195        -4.02481
LJ          -4.34633         3.90966        -4.21723
LJ          -3.06862         1.30112         6.36726
LJ          -4.56045        -5.55508          4.1533
LJ         -0.495685         1.55848         2.36109
LJ           5.11472         1.45645         -1.4985
LJ           4.22382        -4.66104        -6.42394
LJ          -1.79013        -2.51596         3.09315
LJ          -5.69042        -5.50394         3.20207
LJ          0.794334        -0.34867        0.498218
LJ         -0.129775         4.22817         6.34534
LJ          0.160268         2.95824        -4.23243
LJ          -5.65299         1.62976        -3.39187
LJ           1.35838        -1.31372        -5.76974
LJ          -1.60047        -3.02528         6.00098
LJ         -0.810489         5.33703         2.44703
LJ           2.94093        -3.03094         -1.3946
LJ          -6.31307         4.27815          4.8765
LJ          -4.82406         1.45127        -6.06459
LJ         -0.395286        0.506429      0.00998682
LJ           6.06903         2.94286        -2.78047
LJ          -2.48895        -4.83229         2.03725
