108
#Comment!
LJ          -1.70424       -0.341031          1.7948
LJ          -1.55336         5.59317        -1.13874
LJ          -3.91064         5.87934         5.73654
LJ          -3.70343         2.81509         6.42154
LJ          -4.81462         4.22915         4.31015
LJ         -0.238083        -2.29048         6.09616
LJ           4.80108        -4.86892         5.61027
LJ           1.88802       -0.874938         -5.5912
LJ          -1.57929         5.07896        -4.10719
LJ            6.3803        0.517251         6.21331
LJ           2.87617        -1.78165         4.88387
LJ          0.841167        -1.33742        -1.30546
LJ          -3.29657       -0.975722        -3.73115
LJ          -2.02036           -6.13         -5.8555
LJ          -5.74785         1.50261        -2.65872
LJ          -4.29732         1.64108        -2.16335
LJ           2.93686        -3.81239          2.3644
LJ          -5.66279        -4.58054         1.77244
LJ          -3.12052        -4.81944         1.14753
LJ           1.38419        -4.13619        -1.51791
LJ          -5.02126       -0.188365         3.84602
LJ          -3.32717         2.37998         1.16801
LJ          -2.77932         3.25131        -4.65689
LJ          -2.52114         2.91275        -5.65446
LJ          -1.17538        -1.46843         1.85799
LJ            4.8587        -2.40716         3.64905
LJ          -2.89368        0.101017         5.63215
LJ           3.15561        -2.94248         6.15558
LJ           5.07343        -1.20196         -2.8279
LJ           3.62087         4.78717         3.85762
LJ           6.04795         3.14217         6.30604
LJ           6.38138        0.830276        -5.17545
LJ           1.95511       0.0586222         1.89744
LJ           1.22007         3.33705        -4.68907
LJ          0.749055       -0.333095         1.79682
LJ           6.26365        -5.90784        -2.16953
LJ          0.782819         1.41591        -2.46141
LJ           2.73778        -4.19507         4.76438
LJ          -6.16229        -1.62532         2.25485
LJ          -1.75865       -0.912583        -3.09751
LJ           4.07234       -0.375019        0.860456
LJ          -1.89547         1.67638         -2.1102
LJ           -2.9762        -1.99367         4.33242
LJ           6.05725         2.01075         5.93509
LJ           1.96844       -0.450688        -4.32179
LJ           5.24903        -4.77138         1.82213
LJ          -5.86857        -3.56686        -3.24989
LJ           5.75636         -2.1041        -1.67181
LJ          -2.80159         5.95278        -2.24196
LJ           5.62592         6.36147        -6.10534
LJ           6.18121       -0.756066        -1.66993
LJ         -0.665204         2.76385          2.2657
LJ          -2.66897        -1.40195        -5.23595
LJ           6.26491         2.96934        -4.37711
LJ           6.36865         4.03687         4.23419
LJ          -6.22364         5.95939            4.94
LJ           6.07248        -3.38223         4.29844
LJ          -1.73416        -5.90283        -2.63215
LJ          -1.51138         -1.2536        -1.66846
LJ         -0.161294         1.19632        -3.01044
LJ          -1.01012          4.8412        -5.18873
LJ          -3.09485         5.77565         1.92436
LJ           2.52012        -2.15682        -5.51479
LJ          -3.91988         3.93809        0.972365
LJ           0.74321         3.34317        -1.06389
LJ          0.785748         5.66023        -5.66295
LJ            -1.925         4.94321       -0.329398
LJ           -2.4245        -1.57517        -4.18734
LJ           6.35648        -0.37971        -4.52749
LJ           5.67033         5.18629         4.90728
LJ           0.13559      -0.0667362         4.26119
LJ          -5.83803         4.05537         4.90823
LJ           4.25064         4.25704         6.19202
LJ          -5.47023          6.4474       -0.447645
LJ          -4.68044         6.01639        -2.22645
LJ          -6.15354         5.69913         3.97943
LJ           6.25413         -3.4049         -2.0984
LJ          -1.13699          4.7607         3.58127
LJ           6.06078         2.42211        -2.97585
LJ          -3.37202         1.27687         2.57548
LJ          -2.55276        -3.69365        -3.24405
LJ           5.28268        0.684518      -0.0240197
LJ         -0.326825        -6.05752         1.78043
LJ          -3.77227         5.07456         4.62803
LJ         0.0836545         4.80169        -6.37021
LJ           2.35705         5.00955         4.36393
LJ           4.11359         4.19817       -0.751794
LJ           6.19248         -4.3544        0.512924
LJ          -1.78269       -0.774055        -4.68249
LJ          -1.15432          6.2915         5.18958
LJ           2.76431      -0.0212815        -1.48137
LJ          -0.80629       -0.168682         -2.9141
LJ          -5.28526        -2.19584        -5.96964
LJ           2.58486       0.0174398        -3.45785
LJ          -4.51768        -6.05651        -5.65143
LJ           3.66147        -5.01004         1.97443
LJ           2.72885         5.01651        -6.30291
LJ          -4.65747         6.25678        0.469244
LJ          -4.27502        -5.87757        -1.30431
LJ           5.11548        -4.44253         3.80739
LJ          -2.71174         6.35038        0.722397
LJ            5.9662        -6.10816         2.34114
LJ          -1.20739        0.846361         1.17257
LJ          -5.47472         5.32546        -5.03842
LJ          -3.64332         1.97415        -1.34164
LJ           4.12321        -4.07117        -3.59927
LJ           3.81791        0.611873         1.15718
LJ          -4.76184        -5.80796        -2.65662
