108
#Comment!
LJ           1.48378         6.36829        -3.50153
LJ          -3.49344        -3.85529        -4.89411
LJ          -5.05157        0.675646         1.40944
LJ             2.681        -3.97561        -3.94335
LJ          -1.96903         3.50511         3.70431
LJ          -4.48136       -0.521981         6.12513
LJ           2.57705         -2.5495          4.8777
LJ          -2.12929         1.99898        -2.65663
LJ          -2.65633        -6.00899         6.17872
LJ           4.94724        -2.38696         -2.4896
LJ          -1.33635         4.48409        -1.50946
LJ         -0.707594        -3.65334        -1.04545
LJ          -3.71434        -5.91369        0.854689
LJ           2.95995         4.36385        -4.14763
LJ          -4.27454        -5.03484         1.81845
LJ          0.429775         2.29052      -0.0596025
LJ         -0.882696        -1.44818        -3.24561
LJ          -3.56879       -0.591995        0.637459
LJ          -4.69533       -0.225731         2.47071
LJ          -6.11682        -2.33167        -6.24373
LJ          -1.30038         3.74131          5.1803
LJ           5.11744         4.61729        -1.03779
LJ           1.63469         2.44835         1.35501
LJ         -0.530681        -3.99681         2.64649
LJ          0.533415        -5.74709        0.890199
LJ          0.628412        -2.17715         1.64053
LJ           5.41028        -1.67455        -6.42039
LJ         -0.383189        0.908719         5.61431
LJ           1.32937        -5.15506         4.56496
LJ          -1.09794          1.1142         3.01428
LJ          -1.03246       -0.226243         6.24746
LJ           1.55667         -4.6706        -2.82901
LJ          0.576985           5.836        -4.85888
LJ          0.141956        -5.09431         6.01816
LJ           5.36178         -5.3411         6.14728
LJ           6.14429         2.87194         5.40525
LJ          -4.30811        0.739947         6.37151
LJ          -1.25734       -0.531466         1.32024
LJ          -4.16724        -6.36645        -2.74507
LJ          0.243651        -6.24275        -6.25762
LJ           3.11901       -0.805773         2.58283
LJ          -1.53311         -3.7409         3.24701
LJ          -4.72451         4.84061        -3.17396
LJ           1.64282         -1.8095         3.19602
LJ          -2.24707         2.62383        -5.64809
LJ          -2.49509         1.62591        -5.60339
LJ          -2.13436         4.51695          6.4379
LJ           4.70326        -3.32327         5.69211
LJ          -4.26139        -3.68213        0.324269
LJ          -4.66431        -2.76013         2.25633
LJ           -5.8643        -4.85901        -6.00572
LJ          -2.72484         5.01965         4.61071
LJ         -0.176236         2.41079        -3.43469
LJ        -0.0541191         5.09788        -1.80405
LJ           0.21593       0.0811012         3.34697
LJ          -5.17357        0.085833       -0.900701
LJ          -4.26489        -6.00862          5.4793
LJ          0.443538       -0.293463        -4.48427
LJ           1.35749         1.14532        0.870189
LJ          -3.04198        -4.60752         3.37716
LJ          -6.07543        -2.34144       -0.108766
LJ           1.92972        -1.08729        -2.39977
LJ           6.29308         4.27347        -3.21861
LJ          -1.08109         1.84027        -2.12753
LJ         0.0970407        -3.84783        -1.66669
LJ           5.58361         3.15893        -6.31443
LJ          -5.89294       -0.810972        -3.38247
LJ           4.66719        -3.89552        -5.18464
LJ          0.716309        -4.35409         4.87321
LJ           1.98953        -3.53921         6.38817
LJ        -0.0654755        -1.73327        -1.80353
LJ          -5.28874        -1.72859        -2.11183
LJ          -4.56649        -6.09531        0.286663
LJ           1.85908         -5.4806       -0.627968
LJ          -4.59401        -5.09262         6.00098
LJ            4.9812        -4.95081        -2.14634
LJ          -4.84165        -5.46097        -3.24438
LJ            5.4884        -3.47009        -1.35579
LJ           5.23925         4.89167        -2.78642
LJ           4.56409       -0.269035         4.52602
LJ          -2.45668         5.72671        -5.62171
LJ           4.50087        -0.82695         6.07464
LJ           -3.9104        -3.77708         1.65396
LJ          -1.28018          -2.961        -1.91979
LJ          -5.98502         4.98137        -5.04188
LJ           5.60765         5.65729         -3.4401
LJ         -0.266136      -0.0444916        0.401319
LJ            4.4832          5.4878        0.386264
LJ           1.55873        -3.69765        -2.57176
LJ          -1.15558        -2.25661         5.85711
LJ          -5.21168         2.08846           -2.85
LJ           -2.9741        -6.19991         -5.0714
LJ          -2.02497       -0.374197         2.24297
LJ           3.89258        -2.92807         5.27904
LJ           2.27964        0.588751         6.33435
LJ         -0.377343        -4.62802       -0.113672
LJ            1.6048       -0.820098        0.851351
LJ           3.10034          2.7419        -1.96913
LJ           1.61528        0.317641        -4.66634
LJ          -2.48597          2.5205         2.20318
LJ          -5.64926        0.171631        -1.78472
LJ         -0.996157        -4.53422        -5.98222
LJ          -5.86744       -0.330553       -0.181065
LJ          -2.30488         5.65146       -0.473117
LJ           5.90663         4.67584       -0.115671
LJ          0.631855        -3.45247         0.66022
LJ          -3.18654         -3.2384         1.08893
LJ           1.97975       -0.369694        -5.33641
