108
#Comment!
LJ          -5.77642        0.926108         5.35884
LJ          -6.12492          1.7786         5.71327
LJ          -2.93122        -3.09517         5.93588
LJ          -5.94172        0.977775        -2.06144
LJ           3.09288         3.88692         1.69947
LJ          -5.57691        -2.34465         5.91889
LJ         -0.864394       0.0538121        -1.50573
LJ          0.640131        -3.21828         -2.5867
LJ           3.88504         6.29518        -4.24952
LJ          -4.25663        -4.66404       -0.780831
LJ           6.12518       -0.428715         -2.0703
LJ          -4.38206       -0.713113         2.36714
LJ           5.06477         1.02268          4.5812
LJ            4.9983         4.47468         2.67514
LJ         -0.413399         5.02998        -1.56335
LJ          -4.17962       -0.884766         4.22024
LJ          0.201452         1.19519        -4.57552
LJ           5.86057         -3.4002        -2.25363
LJ           1.83605        -2.99343        -4.74642
LJ          -5.50096        -1.56821        -1.93967
LJ           2.46396         5.85323         3.42186
LJ          0.916228        -4.07176           2.181
LJ           -3.1124         5.14264         5.31803
LJ           4.93422         3.43039        -3.14485
LJ          -4.47979        -6.08696       -0.573235
LJ           2.59584        -2.67776         3.56721
LJ         -0.447034        -1.16723         -2.3365
LJ           2.57841        -2.92075         2.61083
LJ           5.77885        -5.95525        -5.99044
LJ          -6.31135        -4.30106        -1.16492
LJ           2.86731         5.27338        -6.30369
LJ           5.25842         2.83485         5.18387
LJ           5.54654        -3.33908         4.54116
LJ          -3.31693         4.21459       -0.635068
LJ           2.95777         5.72597         5.58651
LJ           5.39693        -5.65238          3.8703
LJ          -2.97062        -2.38573         2.05427
LJ        -0.0919039        0.322928         1.36552
LJ          -3.79661        -2.00699        -1.21419
LJ          -5.23035         1.98092        -1.47374
LJ            1.3403         2.74008         2.20174
LJ         -0.709961       -0.162849        -2.72427
LJ          0.891824       -0.965475         1.21703
LJ          -5.63027         4.07123           3.418
LJ           3.35341       -0.508532         4.23892
LJ          0.347792       -0.568586         2.62878
LJ           3.56453         3.94985        -5.86431
LJ            4.2314        -5.62012          3.2232
LJ          -3.90928         5.71904         -2.2057
LJ           5.43656         5.07599         3.72387
LJ          -2.41915         6.18472        -2.30536
LJ             3.351         2.94979       -0.366567
LJ          0.219513          2.9204          5.8563
LJ          -3.33228         5.09459        -2.99557
LJ          -6.18769        -3.12904           3.408
LJ          -3.57928        -1.24635         5.51138
LJ          -6.14623        -1.31246         6.20536
LJ          -1.61817          1.3159        -1.10703
LJ            -4.422         1.36456         -1.1556
LJ          -6.23223         2.37506        -2.87781
LJ         0.0945917        -1.98676        0.100044
LJ           1.72124        -4.47609         2.81512
LJ          -1.52713          2.3915        -2.26563
LJ           -4.6443         5.17473        -2.98214
LJ          -5.44132       -0.227903        -2.71144
LJ           1.76474         2.31848        -5.25216
LJ          -2.38791        -4.62446        -5.48536
LJ          -2.26514         1.14235        -2.78671
LJ           2.77274         6.35981        -3.03603
LJ          -3.63786        -2.73901        0.603697
LJ           6.23067       -0.740934        -6.04634
LJ           4.16988        0.327379         3.66374
LJ          0.786401        -5.72369         5.30709
LJ           4.57173         1.86461         3.76235
LJ          -2.26333         2.45125        -3.25469
LJ           4.03706         5.78206         2.63454
LJ           1.77902        -3.69104         5.25693
LJ          0.885374         3.10907         3.71577
LJ           1.58186         3.78418       -0.759622
LJ           1.02884        -3.07248        -6.18065
LJ          -2.88311         4.11288        -1.55751
LJ          -2.38551         3.83571         3.25858
LJ          -3.16144        -3.27154        -4.77861
LJ         -0.429834         3.01587         4.63896
LJ          0.800556        -1.26449        -2.42392
LJ          0.142109        0.475257       -0.225508
LJ           3.99093          4.9092        -2.83677
LJ          -2.01628          4.2198        -3.75072
LJ          -3.38606         1.15951        -6.15739
LJ          -3.31222        -5.78022         4.37886
LJ          0.210753        0.661196         2.55918
LJ           4.99647        -0.23046       -0.996414
LJ            4.3553        -6.11558         5.95007
LJ         -0.981357        -2.35147         1.85903
LJ          -5.36351        -5.42967         3.88124
LJ           1.10408      0.00878843       -0.691228
LJ          0.383601         4.72931        -5.69478
LJ         -0.717907           3.076        -4.42766
LJ           5.72867         2.68695        -3.44303
LJ           1.47455        -1.85306         6.44753
LJ           -1.5858          -3.565         5.42182
LJ         -0.558315         5.58543           3.195
LJ           4.52467        -2.90652        -2.91511
LJ          -5.93003         2.70372          3.3362
LJ          -4.30013         1.44894          6.0288
LJ          0.866687         0.54863         1.82198
LJ           5.98463         4.52198         -2.4005
LJ          -2.04199        -3.90319        0.635255
