108
#Comment!
LJ          -4.99924        0.888633         4.83636
LJ            6.1005         2.27713          5.6772
LJ          -3.08304         -3.8396         5.44218
LJ           -5.8964         1.21329        -2.60497
LJ            3.1038         3.91782         2.31182
LJ          -6.12253        -2.63586         6.26345
LJ         -0.947423        0.176707        -0.94828
LJ          0.974289        -2.25202        -2.93028
LJ           3.46973         5.99863        -4.73465
LJ           -4.7565        -5.32987        0.604519
LJ           5.85589        -1.84723        -2.20366
LJ           -5.3609       -0.964959         1.93369
LJ           5.90904         1.10651         5.06131
LJ           3.93947         3.54523          2.6734
LJ         -0.736892         5.12862        -1.42674
LJ          -5.68015        0.184469         3.92054
LJ          0.297207         0.67399        -3.98511
LJ           5.99058        -3.71743        -3.17828
LJ           2.96734        -1.79392        -5.09178
LJ          -5.82252        -2.14435         -1.8708
LJ           3.01769         5.83105         3.59734
LJ          0.782774        -3.48095         2.55486
LJ          -3.14952         5.15834         5.67134
LJ           4.14383         4.43521        -3.56961
LJ          -4.12136         6.31284       -0.303884
LJ           3.09348        -2.27157         3.65829
LJ         -0.246573        -0.89634        -1.57994
LJ           2.84353        -4.15279         2.04164
LJ           5.85599         6.45584        -5.89752
LJ           6.08595        -4.20445       -0.653266
LJ           3.33655         4.46952        -6.31687
LJ           5.10769         1.72463         5.84088
LJ           5.28677        -2.95991         4.89091
LJ          -4.00187         5.08844        -0.13653
LJ            2.7304         6.37667         5.31824
LJ           5.57581        -6.12634         4.20519
LJ          -2.88239        -2.38912          1.6282
LJ           1.48742        0.656864         1.04893
LJ          -4.36351        -1.82535       -0.856449
LJ          -4.84634          1.5149        -1.22501
LJ           1.79587         3.32755         1.59887
LJ          0.073537        0.303289         -1.6052
LJ          0.211509       -0.389619         1.56831
LJ          -5.52733         4.23784         4.10448
LJ           3.09242        -1.03953         3.88414
LJ           1.15022       -0.962653         1.98195
LJ           3.99312         3.40523        -6.27738
LJ           4.59687        -5.33143         2.87727
LJ          -3.49884         4.89847        -2.05146
LJ           4.02953          4.5697         3.51986
LJ          -1.83373         5.57076        -2.30408
LJ           2.81717         2.68954       -0.140795
LJ         -0.400173         2.35587         6.18259
LJ          -3.63612         4.69329        -3.44061
LJ           6.30193        -3.08518         3.16202
LJ          -3.56217        -1.32261         5.74031
LJ           6.33561        -1.22589         5.29057
LJ           -1.3274         1.80179        0.320244
LJ          -4.02777        0.697768        -1.27689
LJ           6.13591         3.55502        -2.72722
LJ         -0.118012        -2.34637        0.316868
LJ           1.37243        -4.35062         3.25398
LJ          -1.84487         2.85378        -1.98378
LJ          -4.93018         5.02605        -3.54356
LJ          -4.89301         0.42272        -2.66047
LJ           2.34845         2.41976        -5.50216
LJ          -2.83303        -4.61753        -6.15335
LJ          -1.66544         2.17608        -2.99066
LJ           1.94857        -5.44518        -2.95517
LJ          -3.04006        -3.33041          1.1462
LJ           5.87297        -1.20684         6.39959
LJ            4.3334         1.36997         4.31568
LJ           1.06961           -4.78         4.60787
LJ           4.61197         2.35001         4.96955
LJ          -2.81185          2.8891        -3.13128
LJ           4.56021         5.02659         2.32753
LJ          0.848451        -3.79716         5.94182
LJ          0.732405         3.22833         3.59922
LJ           0.92157          3.9467       -0.698755
LJ          0.412447        -2.58469         5.33113
LJ          -2.51272         4.54236        -1.81022
LJ          -1.39281         3.34617         3.13964
LJ          -3.93344        -4.02999        -5.62468
LJ         -0.386112         4.51758          4.2146
LJ           1.38714       -0.926057        -2.87693
LJ          0.503158       -0.935457       -0.108027
LJ           3.93026         4.27134        -2.31889
LJ         -0.749987         4.35083        -3.36208
LJ          -3.54345         1.07167        -5.95107
LJ          -2.68335        -5.91911         4.48754
LJ        0.00979139        0.291378         2.82022
LJ           4.85848        -1.07132       -0.673607
LJ           4.55002         5.94069          5.7064
LJ         -0.612522        -2.23411         1.16771
LJ          -5.16798        -5.42292         4.29551
LJ           1.12506        0.597734        -1.12226
LJ          0.689754         4.98326        -5.23028
LJ          -1.21453         3.07074        -4.52613
LJ           5.04655         3.14639        -2.91856
LJ           1.87189        -1.74531         6.09426
LJ          -1.93534        -3.71353         5.24949
LJ         -0.417461         5.70206         3.62376
LJ           5.53333        -2.83601        -3.71057
LJ          -5.80205         1.90964         2.52262
LJ          -4.32195         1.43029         5.45135
LJ           1.71005        0.204556         2.21859
LJ           5.99289         5.56912        -2.22221
LJ          -1.84628        -3.31843       -0.103709
