108
#Comment!
LJ         -0.425216         5.95507         6.46248
LJ          -3.84279        -5.77974         -2.7003
LJ          -3.50676       -0.795298         -1.1926
LJ           4.40289        -3.05174        -4.72145
LJ         -0.242882         4.22435         4.98404
LJ          -4.08206        -1.35582        -6.41106
LJ         0.0274217        -2.41088         5.34388
LJ          -3.98992         1.13027         2.19779
LJ         -0.172282        -5.50062         6.46184
LJ            2.2997        -2.54264         2.50479
LJ          -0.86247        -5.77661        -2.73091
LJ        -0.0974647        -1.75087          2.5591
LJ          -4.17372        -1.89297         3.92318
LJ        -0.0959558         3.61895        -5.58754
LJ          -6.21016        -2.37099         1.04507
LJ          -1.72575         5.42614         2.80841
LJ           2.01218        -0.76457       -0.212521
LJ          -4.07538       -0.743851        -3.59299
LJ           5.25522        0.252795         1.82936
LJ          -3.39161        -3.77995         2.56447
LJ          -2.92395         4.86274         6.00209
LJ          -5.49488         5.82026        -1.91304
LJ           1.35908         3.49876         4.15071
LJ          -4.55708        -5.31892       -0.680072
LJ         -0.524368        0.828103        -1.47251
LJ          -2.64894        -4.75734      -0.0160069
LJ           2.60917        -5.37435         4.20352
LJ           5.75437         1.47349         3.67737
LJ          0.546368        -3.07178         4.07847
LJ            1.2735         2.95115       -0.108893
LJ          -2.03535        0.438836        -5.57778
LJ          0.733583         5.36122        -5.55508
LJ          0.507714         4.68957         6.36837
LJ           1.93412         -3.5619         6.02381
LJ          -2.96038          5.6062        -5.44975
LJ           5.15729         5.13639          4.5024
LJ           4.32794        -3.80482        -2.54998
LJ          -0.50651       -0.448248         1.42547
LJ          -3.62717        -6.16094        -1.56869
LJ         -0.853197        -4.38194        -5.12464
LJ           4.80561         3.29805         4.01365
LJ         -0.533843         4.72615         2.96775
LJ          -6.33915         5.67878        -3.22705
LJ           1.34686         -1.8846         2.47152
LJ          -3.01686         5.62067        -4.41393
LJ          -2.11531         3.71474         -4.7126
LJ           5.40971        0.111408         3.82003
LJ           6.10918       -0.996408         5.59029
LJ            1.1898         -1.8657        -2.66704
LJ            -4.022       -0.104726         2.37093
LJ            6.2765        -5.98097        -4.63681
LJ          0.469933         2.90154         3.92452
LJ          -2.76701         1.96103        -4.31811
LJ         -0.293622        -5.36727        -3.60206
LJ          0.664417        -3.39567         5.87961
LJ          -4.06963        -3.83154        0.115526
LJ          -6.13563          4.4371        -3.57063
LJ          -3.27782        -2.20774        -4.99198
LJ           3.07692       0.0294681         1.64883
LJ          -5.36077        -4.82183         2.98793
LJ           5.78915        -6.05869         2.57877
LJ           2.28156         5.40098         2.51308
LJ           5.75847        0.104133        -3.70454
LJ          -1.07643         1.70184        -1.34162
LJ          0.800296         1.24718        -1.03459
LJ           4.06785         6.25966        -6.45044
LJ          -5.46053         3.79225        -6.45449
LJ           2.68886         -4.2663        -3.89454
LJ           1.45921        -3.90244         3.74886
LJ           3.47401        -5.87868         5.28904
LJ          0.975779       -0.422971         1.37367
LJ          -5.24028        -2.43218       -0.604922
LJ          -1.17679         5.16271        0.278115
LJ           4.24166        -6.27234        -1.10311
LJ          -1.93133        -1.01715        -5.40855
LJ         -0.126052         6.00914        -4.02613
LJ          -3.06331        -6.44127       -0.714054
LJ           -6.3588       -0.457879        -3.94094
LJ          -5.12803          5.1736        -1.01842
LJ           5.03864        -3.06257        -6.29716
LJ          -3.88338        -3.68384         -2.1856
LJ           3.62877         2.36397         5.72788
LJ           5.73938          5.8493         -1.3204
LJ          -4.44006         -4.6122        -3.25112
LJ           5.70145         4.92867         5.90978
LJ           4.03485        -6.39827        -3.78493
LJ          -5.81843         2.69536         3.69477
LJ           2.70926        0.074843         -1.4365
LJ           4.54436        -2.51584      -0.0389629
LJ          0.631929        -2.01512         4.52558
LJ          -3.26137         1.80896       -0.115233
LJ           -1.4074        -6.33905         5.40631
LJ         0.0485215        -2.78536         1.99762
LJ           1.53371        -5.18281         4.13133
LJ          -1.35001        0.732779         4.76276
LJ           1.48799        -1.18934        -3.51891
LJ           1.39252         6.21233         2.10431
LJ         -0.549833         3.01445        -3.56127
LJ           4.57321         2.21202          6.2645
LJ          -3.14665         3.17694         2.51879
LJ          -3.66364        -2.90967        -1.52561
LJ         -0.784104         1.00596        -6.27319
LJ           5.20981        -4.99127         -2.2739
LJ           4.32995         0.76838         0.37872
LJ            5.4499        -5.94386        -2.54556
LJ           2.62529         5.09016       -0.102571
LJ          -4.22757          -5.724          1.6933
LJ          -1.17728       -0.499034        -6.10778
