108
#Comment!
LJ           3.20652         3.55159        0.510676
LJ           4.38769        0.767337        -3.17092
LJ          -4.77665         5.50697        -1.09053
LJ           4.70945         1.56441        -6.35582
LJ          -4.16093         2.45149         4.19782
LJ          -5.66697        -1.59833         5.85984
LJ          -2.14239        -4.79238        -5.88701
LJ          0.360492         2.94802         6.32241
LJ         -0.124846         3.93004        -5.43709
LJ           5.23605        -1.78868        -6.26793
LJ          -0.24437        0.820862         1.16826
LJ           -1.4601         3.37022        -3.66156
LJ           5.50565         2.52753          1.3417
LJ          -5.59875         4.51454        -3.51435
LJ           1.04373         -1.4478         6.11983
LJ          -4.21926         3.20153        -5.80687
LJ          -5.99521        -3.60499        -5.39243
LJ          -2.93582         2.67362         0.92777
LJ          -0.76395         1.92594         2.89958
LJ          -2.56756        -2.39699        -1.59832
LJ          -1.59921        -5.70085         3.21555
LJ          -5.69487         3.96735         0.52308
LJ         -0.124505       -0.300559        -3.53598
LJ          -6.44424        -6.05238        -3.99314
LJ          -2.78633        -6.37809          4.7476
LJ           2.94139        -1.72403         -3.4516
LJ           5.92953       -0.208943         0.38272
LJ         -0.963603         2.69568         1.64346
LJ           3.01827         -3.9849        -6.41509
LJ          -6.42153         1.42749        -4.11255
LJ          -2.39997         5.62269         5.72882
LJ             4.761        -2.60443        -3.68024
LJ           1.02139         2.54683        0.302331
LJ          -1.24001         3.03038        -5.95232
LJ            1.5141         4.05898         6.04754
LJ          -5.05286        -1.89092         3.52928
LJ           4.60873         3.12357        0.989085
LJ           -3.0031          2.2621         2.96297
LJ          -4.90655        -4.37944         4.75278
LJ          -2.39847         3.41516        -5.29357
LJ           3.70971        -1.45599        0.761836
LJ           -4.2161         2.38713         2.47589
LJ          -3.94789        -4.34296        -4.66321
LJ           3.42139       0.0524589         4.48741
LJ         -0.129633         2.76714         4.99644
LJ          -0.35053         3.82512        -1.36731
LJ          -2.55836        -3.36914         1.55941
LJ          -6.35688       -0.861693         2.16391
LJ          0.967168         5.29261         3.67222
LJ           -5.2942        -3.68069         5.52075
LJ         -0.695634        -3.34733        -4.00474
LJ          -2.83102          4.2356         3.00699
LJ         -0.550588        -2.08272        -4.00947
LJ           -4.2812         1.29769         4.12201
LJ            4.8226         2.86332         2.45417
LJ           5.44257         4.91227         1.86514
LJ           6.43452        -5.31683        -3.27986
LJ          -1.52995        -2.48131        -5.17806
LJ           1.57292        0.518694         1.11748
LJ           0.12384        -6.34562        -4.99293
LJ          -4.80069         3.86143        -1.47168
LJ          -1.31903        -4.59629        -3.27968
LJ           6.24493         6.31197        -2.94432
LJ           2.17934         4.53852        -1.10957
LJ           3.38997         4.37205        -2.69789
LJ          -3.33168        -1.78414         6.36989
LJ          -3.93191         3.81956        -3.08445
LJ          0.249434        -1.94425         1.45224
LJ           2.95991         3.27069         5.99203
LJ         -0.136684        -0.19238         4.70234
LJ          -5.55129        -2.00316        -5.22534
LJ          -6.31767         3.57563        -3.86799
LJ          -5.40997        -4.10046        -4.68578
LJ          -1.08328        -5.92748        -1.38785
LJ          -4.55415        -5.45017           1.972
LJ          -2.20817       -0.929436         1.73932
LJ           6.38684        -4.38555        -2.86753
LJ           4.31288         5.24401          1.3416
LJ           3.73633         5.33169        -3.02212
LJ           6.37391        0.288504         3.50759
LJ          -4.57484         -4.8617        -5.73595
LJ           3.77582        0.134763        0.906779
LJ         -0.166021        -4.31416         1.57437
LJ           5.57076        0.838911         1.75927
LJ          -4.18959         5.01254        -5.44618
LJ           4.31026          4.8651         0.35011
LJ           5.24789          1.8516        0.330435
LJ           -4.3472        0.489807         3.47041
LJ         -0.761229        -1.45156        -3.03857
LJ          -0.86351        -5.85748         6.21968
LJ           5.91764        0.991741        -1.02688
LJ         -0.144204          4.2824         4.82594
LJ          -3.32685        -2.44066        -2.93133
LJ           4.83033         5.51842        -5.49893
LJ          -5.44759        -2.44496        -6.28968
LJ          -3.29629         5.69388         2.73347
LJ           1.81041         2.05891        0.791957
LJ          -5.33541         5.31561        -2.91115
LJ           1.89883         2.47374         1.87172
LJ          -4.58332          4.0799         1.34075
LJ          -6.01825         3.38988       -0.744711
LJ          -2.08174         3.98646         4.25399
LJ          -5.47608         3.00031        -2.63882
LJ           6.08867       -0.912585        -2.89906
LJ           2.59506         2.00071        -1.53406
LJ          -3.57805         1.22436        -2.28352
LJ          -1.14765        -3.98297        0.700585
LJ         -0.371298      0.00764471        -2.16377
