108
#Comment!
LJ          -5.48419        0.893266         5.13486
LJ          -6.38423         1.99681         5.72791
LJ          -3.03781        -3.38356         5.73992
LJ          -5.81884         1.21301        -2.13666
LJ           3.09324         3.89651         1.93707
LJ          -5.83023        -2.38685         6.05987
LJ         -0.906448        0.117407        -1.28694
LJ          0.771579        -2.85054        -2.72573
LJ           3.72129         6.17833         -4.4459
LJ          -4.45961        -4.89625       -0.219271
LJ            5.9955       -0.986226        -2.13603
LJ          -4.77449       -0.813729         2.18782
LJ           5.28626         1.21913         4.74492
LJ           4.62026         4.15293         2.78611
LJ         -0.536518         5.07071        -1.50495
LJ           -4.7797       -0.468295         4.08751
LJ          0.240444        0.985484        -4.34124
LJ           5.91347        -3.51283        -2.63531
LJ           2.29253        -2.51484        -4.87847
LJ          -5.61183        -1.81573        -1.90951
LJ           2.67523         5.84664         3.49175
LJ           0.86447        -3.83601         2.33379
LJ          -3.12758         5.14679          5.4611
LJ           4.58991         3.85361        -3.32128
LJ          -4.33613        -6.32376       -0.470392
LJ           2.79514        -2.52576         3.58182
LJ         -0.389673        -1.08254        -2.05117
LJ            2.7023        -3.40231         2.39458
LJ           5.81843        -6.15937         -5.9467
LJ           6.40342         -4.2656       -0.954335
LJ            3.0384         5.02742        -6.40575
LJ           5.24018         2.35832         5.43485
LJ           5.43384        -3.18935          4.6876
LJ          -3.60389         4.55827       -0.407503
LJ           2.85158         5.93316         5.57135
LJ           5.49074        -5.84668         4.02054
LJ           -2.9251        -2.37427         1.91592
LJ          0.484788        0.447995         1.01549
LJ          -4.01444        -1.93398        -1.06809
LJ          -5.20376         1.68461        -1.49341
LJ           1.51535         2.97009         1.95226
LJ         -0.409459       0.0222079        -2.26769
LJ          0.596228       -0.747687         1.13564
LJ          -5.58615         4.14561         3.69455
LJ           3.24403       -0.718607          4.1027
LJ          0.668269       -0.801778         2.43315
LJ           3.75275         3.70425        -6.02257
LJ           4.35746        -5.49198         3.06712
LJ          -3.38854         5.51914        -2.17411
LJ           4.85729         4.77205         3.57612
LJ          -2.49404         5.84975        -2.27057
LJ           3.14084         2.84354         -0.2772
LJ        -0.0259219         2.68929         5.99542
LJ          -3.61176         4.95868        -3.19253
LJ          -6.35615         -3.1108         3.30051
LJ          -3.56877        -1.27626          5.6061
LJ          -6.25506        -1.37884         5.78742
LJ          -1.50805         1.52001       -0.521928
LJ          -4.25698         1.09941         -1.1998
LJ          -6.41189         2.85544        -2.80576
LJ        0.00555199        -2.14197        0.183236
LJ           1.56247        -4.43816         2.98864
LJ          -1.61726          2.5493        -2.15329
LJ          -4.64532          5.0914        -3.21831
LJ          -5.19749     -0.00107613        -2.71632
LJ           1.99823         2.35754         -5.3514
LJ          -2.66081        -4.55015        -5.68884
LJ          -2.06786         1.63003        -2.85362
LJ           2.43934          -6.116        -3.00018
LJ          -3.42541        -2.98308        0.799196
LJ            6.0526       -0.902063        -6.18397
LJ           4.22236        0.788559         3.92225
LJ          0.895844         -5.3581         5.02666
LJ           4.64132          1.8899         4.26495
LJ          -2.48343         2.57023        -3.22399
LJ           4.23882          5.5301          2.4659
LJ           1.38964        -3.68746         5.53118
LJ          0.839814         3.15022          3.6653
LJ           1.31642         3.85017       -0.735835
LJ          0.890924        -2.77301         6.18203
LJ          -2.73505         4.25393        -1.65874
LJ          -1.99402         3.63802         3.20664
LJ          -3.37569        -3.65297        -5.16638
LJ          -0.42925         3.62437         4.47772
LJ           1.06882        -1.12033        -2.61609
LJ          0.306219      -0.0658707        0.173225
LJ            3.9526         4.66959        -2.62613
LJ            -1.508         4.28957        -3.59228
LJ          -3.42385         1.11512        -6.04412
LJ          -3.05911        -5.83492         4.42068
LJ         0.0971341        0.549142         2.69417
LJ           4.93176       -0.563225       -0.856244
LJ            4.4403        -6.45964         5.85047
LJ          -0.83328        -2.31002         1.58274
LJ          -5.28405        -5.42673         4.04662
LJ           1.15429        0.257112       -0.889875
LJ          0.506139         4.83269        -5.50899
LJ          -0.90849         3.06225         -4.4822
LJ           5.44344         2.82488        -3.24925
LJ           1.54023        -1.94802         6.30491
LJ          -1.67861        -3.62931         5.33845
LJ         -0.501993         5.63799         3.36345
LJ           4.92272        -2.89413        -3.23039
LJ          -5.87907         2.37936          3.0061
LJ          -4.29623         1.46922         5.78863
LJ           1.28458        0.457704         2.03234
LJ             5.993         4.94809        -2.32454
LJ          -1.95153        -3.67918        0.330299
