108
#Comment!
LJ        0.00501193        -5.50648         5.29407
LJ           -2.0333         5.90385        -5.27562
LJ          -3.54108       -0.415546        -1.62472
LJ          -3.64589         5.10506        -3.75404
LJ            3.7856         3.95231        -3.08531
LJ          -3.34744       -0.547162         6.28569
LJ           6.14932         3.95131         1.53819
LJ          -5.09933        0.108994         2.78936
LJ         -0.821616        -4.79713        -6.02556
LJ           1.39138        -1.42523          5.2661
LJ          -1.23334        -1.88313        -2.80892
LJ           3.83461        -5.67279          4.2952
LJ          -4.73998         5.19957         3.94216
LJ          -6.00134         3.75276         5.81072
LJ          -5.19016         2.20962        -3.61941
LJ           2.29144        0.141556        -1.44531
LJ           3.81945        -2.06987         4.26528
LJ           2.90897         -4.7577         -4.2065
LJ          -6.15721        -2.44628        0.381987
LJ          -2.88332         0.68018        -5.39129
LJ          -1.04342        -3.78435        -4.21606
LJ          0.517973         5.92692        -5.80355
LJ           1.12143        -5.98579         1.74671
LJ          -1.82351       -0.631773        -1.95954
LJ           1.40936         4.34626       -0.528084
LJ           1.78545         -2.7977         3.97918
LJ        -0.0839045        -2.32641         4.90942
LJ          -1.96015         4.25112        -2.96611
LJ         -0.146614        -2.36621        -2.36414
LJ            6.3986        -4.01189      -0.0456064
LJ          -2.54979       -0.285035        -1.30807
LJ           5.06542       -0.563544         1.34701
LJ           0.10585        -2.54811         3.27904
LJ          -3.52548        -4.05705          5.9208
LJ           4.55027        -2.38553        -4.69306
LJ           5.27649         3.90452         5.53383
LJ         0.0459162        -2.77081        -3.44488
LJ           3.16273         2.18409         4.77496
LJ           5.70563        0.739064         1.87752
LJ           6.11228        -3.29347        -2.65711
LJ           5.99458         -1.0498         5.39962
LJ           6.00784        -5.23022         3.42774
LJ           2.93405         4.22094        0.622377
LJ           5.06045        -1.18893         4.85462
LJ           1.36811        -6.11174        -3.98518
LJ           1.96043         3.01022         4.48127
LJ          -1.01409        -5.33127         5.90142
LJ           4.35958         1.71357        0.831203
LJ           5.95745         5.49289        -1.04533
LJ          -1.89887         6.18956          1.2719
LJ          -5.33451        -2.39441         5.52447
LJ           2.36017          5.2314        -4.71078
LJ          -3.85745           1.588        0.775979
LJ          -4.42004        -1.46828        -3.62743
LJ          0.918813        -5.39565        -5.98056
LJ            4.8422        -2.65481          1.8023
LJ         -0.858002          6.0864        -5.99845
LJ           4.42704       -0.390245        -2.81891
LJ           3.27891         2.89701         -1.9116
LJ           5.71958         6.19173          2.6818
LJ          0.665526         1.21818        -1.38153
LJ            2.6883        -1.65306        -4.45533
LJ           0.23422        -5.90079        -5.22599
LJ          -5.28572         2.17386      -0.0989197
LJ           2.05138        -2.73023         2.70324
LJ        -0.0148486        -6.00919        -1.54496
LJ          -4.71326        -2.55741        -3.61021
LJ          -3.01249        -1.56561         5.05181
LJ          -4.58386        -1.64845        0.720877
LJ           4.44179        -5.64069         2.94505
LJ           2.29009        -5.55631         4.51994
LJ          -5.79445        -3.72453         4.46015
LJ          -5.70696         1.36549        -6.35587
LJ          -3.92968         3.22141        0.716245
LJ           5.71171        -1.97917        0.617316
LJ          -5.26232        -1.58838         1.99287
LJ          -2.62875         3.35514         5.33643
LJ          -2.72042        0.513604         3.88986
LJ          -3.26441            1.02        -3.96282
LJ           2.63544         2.73913        -3.51484
LJ          -1.85458        0.425452        -2.51682
LJ         -0.744944         2.94293         4.47638
LJ           2.26264        -2.65836         1.35441
LJ           4.28227         4.81289       -0.576492
LJ           4.72012        0.954188       -0.609596
LJ         -0.887788        -4.81712        -4.47374
LJ           5.40195       -0.878658        -2.46223
LJ           6.20348         3.18719        -5.79182
LJ         -0.630066          1.7085         4.22403
LJ          -5.83177       0.0641199        -4.48243
LJ         -0.678968       -0.163745         5.03662
LJ          -3.19023           3.142        -4.16185
LJ         0.0583632        -5.87298        -3.66282
LJ           5.29413          6.1696          1.3082
LJ         -0.793152         4.89758         3.23122
LJ           6.20381         3.94569         4.76367
LJ           2.93171       -0.947808        -2.97819
LJ           3.63052        -5.48617         5.81874
LJ           3.27771         4.08331         6.41533
LJ         -0.628317          1.7917         2.23817
LJ          -3.84969        -0.03888        -5.71076
LJ          -2.31354       -0.335016          2.5477
LJ          0.670486         4.85017         4.33012
LJ           2.60087        -1.28488        -0.95948
LJ         -0.179246        -2.78928       -0.444252
LJ           1.81606         5.02675         -6.1206
LJ           6.40957       -0.780904          1.5965
LJ           2.76446        0.100833        0.685806
