108
#Comment!
LJ          0.819774        -6.35453         3.78922
LJ            -4.398         5.30347        -2.84524
LJ          -2.75031        0.866418        -2.89845
LJ           5.55546         -2.2423        -3.32431
LJ           3.22865         4.42412         5.35596
LJ          -3.74546       -0.770298         6.38906
LJ          -3.09977         -5.8148         3.54625
LJ          -5.27392         1.38729        -3.58604
LJ         -0.800808         -4.2512         4.98789
LJ           1.53318        -1.65342        -4.39586
LJ          0.637939        -3.75733        -4.23102
LJ          -2.99166        -2.76416         2.79772
LJ          -6.43354         1.41358        -5.96235
LJ          -2.41025        -4.77529         6.11022
LJ          -3.56701         6.37646        -1.01199
LJ          -1.56506        -4.10927        -5.70689
LJ           2.38407        -2.15416         2.74507
LJ           5.76372       -0.920606         -6.4117
LJ         -0.457032       -0.743938        0.660864
LJ           1.54274         5.81393         1.94623
LJ          -2.68036        -6.08231        -5.85011
LJ          -3.06755         5.53088         -3.2306
LJ          0.926705         6.23825         5.24321
LJ           4.25095        -4.92436         -1.6845
LJ         -0.383322         3.87732        -5.40808
LJ           -1.5308         -5.0535      -0.0215748
LJ         -0.297128        -4.14512         3.85423
LJ          -2.90611         1.23491         1.49248
LJ        -0.0172185        -3.77376        -5.26564
LJ           4.25737         5.19979        -3.79415
LJ          -3.46628        0.768594        -1.85101
LJ           4.18141        0.504043         -3.3644
LJ          0.289505        0.418739         3.86638
LJ          0.587791        -3.35258        -6.32874
LJ           2.24055         2.99571        -5.34121
LJ           4.31939         3.87898         6.03016
LJ         -0.800033        -5.49914        -2.46087
LJ           1.83494         1.41695         3.18815
LJ          -4.06237         4.68267         1.23728
LJ          -3.27569        -4.11253        -4.31267
LJ           3.78615         5.60975         4.45037
LJ          0.586685          4.1224         2.74316
LJ          -2.92183         4.41793         6.14211
LJ           2.70696        -2.12725         3.90864
LJ          -2.62774        -5.08383        -4.01661
LJ           5.12727         5.23087         6.39562
LJ           3.44627        -1.04535         5.63207
LJ           3.97391         1.50083         4.05311
LJ           6.07454         1.68147        -5.10587
LJ           -3.3246        0.829046        0.290362
LJ          -5.74416         3.78781        -4.79686
LJ            2.2362        -2.30741         5.88407
LJ           -3.0842         1.57883         6.44795
LJ         -0.367221        -4.04192         -3.9002
LJ           1.64239        -4.00838         6.17432
LJ          -2.06149        -6.28057       -0.586334
LJ           3.39745         5.84502         1.85727
LJ           -5.8356        -1.69472         3.94895
LJ          -4.38876        -3.82664       -0.566982
LJ           6.44441        -5.05866         3.03159
LJ          -3.70964        -5.09851       -0.175552
LJ            2.1431         3.01911         5.00552
LJ           3.16157        -3.13531        -3.84199
LJ          -4.11516         -6.3411        0.697237
LJ           2.09048         5.27253        0.794437
LJ           2.67396         -3.4381         3.84632
LJ          -5.79302        -5.38777          1.8386
LJ          -0.18404        -3.54344        -2.56927
LJ           4.43232        -1.99105         1.45452
LJ            5.1192        -3.27366           6.282
LJ           1.19379       -0.160762         4.10216
LJ           -4.9995        -2.03964         2.07017
LJ           1.63464         4.08549        -2.32214
LJ          -5.45206         5.18746        -2.15953
LJ          0.215742         4.22514        -1.00218
LJ          -6.08598         5.06438         5.08387
LJ          -1.82601         -4.1113         2.59295
LJ          -3.01421       -0.422381         5.48167
LJ          -1.94402         3.75444        -1.84758
LJ           4.19374         4.42166        -4.67457
LJ            3.3722        -2.48282        -2.04292
LJ           5.65774         4.21163         5.83593
LJ         0.0466104         2.95503        -2.59287
LJ           6.30899        -5.09494        -2.62525
LJ           5.05227         3.59863        -6.15356
LJ           2.78165        -5.68209        -3.60582
LJ          -1.91017          6.0235        -4.14545
LJ           4.84013        -2.40647        -5.87837
LJ          -3.61795        0.472931         1.96578
LJ           4.45245        -1.86073         5.20111
LJ           1.67552         1.09291          2.2024
LJ          -2.94597         5.45575          1.5633
LJ          0.292233        -3.11652         4.54178
LJ          0.171707        -5.78868         3.12863
LJ           -5.4012        0.471971         2.40794
LJ           3.17232         1.34125         -6.2897
LJ           1.20114         2.32709         3.87794
LJ          -2.69167         4.21096        -5.08016
LJ           6.07843         4.40864         4.66355
LJ          -4.10184         2.42333         2.60971
LJ          -3.35592        -4.33565       -0.860867
LJ          -2.55238         1.88583        -4.11054
LJ           3.23062         5.52471        -1.27702
LJ           6.03133        0.262009         1.23765
LJ           1.00027        -5.10557        -3.34106
LJ           2.89413       -0.264964        -2.63038
LJ          -3.86491         1.06875         2.98606
LJ          -4.53041         1.64623         4.13235
