108
#Comment!
LJ           3.11827         4.99746       -0.255719
LJ          -6.31077       -0.479989        -4.02272
LJ          -4.72824         5.48266         2.79249
LJ           2.56137         2.45714        -6.31407
LJ          -3.24403         3.59181         4.38912
LJ          -5.73373        -1.35973         6.05972
LJ         -0.982302        -4.75669         5.22471
LJ         -0.883663         2.84314         6.13609
LJ          0.283139         3.84594        -6.27602
LJ           6.00606        -2.35491        -6.05527
LJ          -0.78855         1.79522         0.21646
LJ          -1.90344         5.16811        -4.53338
LJ           5.59121         4.34172        0.433471
LJ           5.83344         4.49778        -3.65284
LJ         -0.533849        -2.39431         4.74339
LJ           5.57129         2.64018        -4.46086
LJ          -4.33826         -3.6615        -5.03873
LJ          -3.01786         5.89297         1.01437
LJ           -1.2567         3.49263         3.57589
LJ          -3.85332        -3.03629        -2.63258
LJ          -0.73006          5.1727         3.39836
LJ           5.36478         2.86436        0.100564
LJ          0.687328       0.0574323        -1.97498
LJ           4.61582        -5.38702        -5.76041
LJ          -2.33988         5.16975         5.69788
LJ           2.28682        -1.39872        -1.70495
LJ            5.6336        -1.06642        -1.96913
LJ          -2.15916         3.01226         3.02435
LJ           2.27453        -4.64115         5.90866
LJ          -5.08039        0.901601        -6.25849
LJ          -2.05005        -5.03978         6.44985
LJ           3.98161        -3.50351         -3.2501
LJ           1.41271         3.51097        -1.50977
LJ           -1.3288         4.02574         6.18362
LJ           2.97422         5.44785         6.32825
LJ          -5.03404       -0.275398         4.28841
LJ           1.59254         3.73065         3.20724
LJ          -3.40464        0.575019         2.43226
LJ          -4.98692        -5.50584         6.02985
LJ          -2.15481         5.25867        -5.93627
LJ           3.20795        -1.70352         1.47247
LJ          -2.79478         1.60947         1.94489
LJ           -4.7269         6.21275        -4.14849
LJ           2.70449        -0.52568         4.20662
LJ         -0.969955         3.04824         4.65628
LJ          -2.14268         2.57613         1.44619
LJ          -1.37347        -4.41006       -0.690623
LJ           5.85573        -1.50946         3.45929
LJ           3.35155         -6.3684         3.03102
LJ          -5.15748        -3.35929         4.33595
LJ           1.26633        -4.39567         -5.1424
LJ          -3.63807         4.52305         3.94259
LJ         -0.160918       -0.393418        -3.55639
LJ          -1.67345         1.87863         2.85436
LJ           3.03779         2.65521         2.74114
LJ           -6.1763         3.84078        0.324937
LJ          -6.15549          6.4489       -0.721852
LJ         -0.917783        -1.76766         -5.0979
LJ           1.59902        0.966708         1.37162
LJ          0.424929        -4.94904         -6.0004
LJ          -4.58505          2.1241       -0.419937
LJ         0.0906784        -4.63582        -2.88182
LJ          -5.53768         5.76578        -3.38566
LJ          0.287454         3.95725        -1.61476
LJ           2.53275          5.3432        -2.28831
LJ          -4.95546       -0.371257         6.40963
LJ          -4.63273         5.93441        -5.69402
LJ           3.05401        -3.02034       -0.638073
LJ            1.7191         4.80259         5.58682
LJ           2.23346        0.966356         5.97856
LJ          -3.48781        -2.05048        -4.70706
LJ          -5.78894         2.25041        -3.51384
LJ          -4.98511        -5.25187        -3.15535
LJ          0.709679        -5.49336        -2.03108
LJ          -4.53307        -5.31835          3.2038
LJ          -3.88084        -2.11128        0.509636
LJ          -6.03012        -4.01027        -3.06833
LJ           3.69197         5.82406       -0.125412
LJ           3.44773         6.14131        -2.24202
LJ           5.16291       -0.180105          4.1159
LJ          -4.16001        -5.55138        -5.39404
LJ           4.03925        0.376914         2.37746
LJ          -1.33779        -3.68146         1.00778
LJ           3.70684         -1.1581        0.741022
LJ          -4.84651         4.62386        -5.17635
LJ           5.74422         6.21198       -0.725432
LJ           5.57307         1.06366         0.63055
LJ          -5.57969        -1.83825         2.26616
LJ         -0.590049        -2.16248        -2.74702
LJ         -0.947841        -5.10288        -6.29763
LJ          -6.22892        0.889536        -1.70723
LJ         -0.422089         4.68265        -6.36436
LJ           -3.1494        -1.01708        -1.50291
LJ           4.99178         3.12797        -6.15716
LJ           5.64274       -0.891122        -5.76411
LJ          -1.66986         4.57751         2.67043
LJ           1.72258         1.36921        0.371806
LJ          -6.12073         4.88467         -1.4745
LJ           4.27322         1.64563        0.412048
LJ          -4.10192         2.62685        0.630841
LJ          -5.89299         3.20276        -1.26176
LJ           -1.3181        -5.83608         5.69507
LJ           6.33676          2.3176        -1.58867
LJ           5.55929        -2.52619        -1.87549
LJ           3.96707         2.30777        -1.26856
LJ          -2.25043       -0.136929        -1.30047
LJ          -1.70585         -4.6478         1.36365
LJ          0.503529        0.781035         -3.4477
