108
#Comment!
LJ           2.29099         6.25534        -1.95883
LJ          -3.48483        -2.21645        -5.14474
LJ          -5.07117           3.502         3.29738
LJ           2.18481        -5.74773        -4.41248
LJ           -2.4587         4.00375         4.22847
LJ          -4.42669       -0.236755         6.10873
LJ           1.65523        -2.76845         3.68876
LJ          -1.66013         2.32538        -4.62559
LJ          -1.19921         5.32382          6.2366
LJ           5.84822           -2.59        -4.29676
LJ          -1.45365         3.22903       -0.856182
LJ          -1.73133        -5.50668        -2.67097
LJ            -5.059          5.8187       -0.580421
LJ           4.31623         4.61936        -3.70076
LJ          -2.44476        -3.78106         3.03962
LJ           1.82672         2.03196        -2.27012
LJ           -2.2149        -2.57567         -3.8997
LJ          -3.62906        -2.46641        0.843554
LJ          -2.67106         1.38662         2.75547
LJ          -5.19367        -2.72063        -4.63547
LJ        -0.0870267         3.22128         3.83044
LJ           4.74419          3.9182       -0.252511
LJ           1.40311         1.81411       -0.185622
LJ           1.92261        -4.55374          4.7938
LJ          -0.62395         5.56006         3.14093
LJ           1.75529        -1.49183        0.760309
LJ           5.34491        -1.08997         -4.5146
LJ           -1.2857         2.08416         4.98396
LJ           1.47591        -5.38662         5.29359
LJ          -2.83366        0.467985         4.39185
LJ           -2.5916        -2.22539        -5.53818
LJ           2.74137        -4.85938        -2.55172
LJ          0.273687         5.39428        -3.77573
LJ         -0.455648         6.40227          5.6004
LJ           4.31071        -6.37201         6.16985
LJ          -5.81022         1.57863          5.0026
LJ          -2.16084         3.00615         5.07332
LJ          -2.22606        0.249651         1.67889
LJ          -4.68817        -5.89815        -4.55799
LJ         -0.499025         5.97972        -6.19695
LJ           2.38971        -2.06616         2.57549
LJ          -1.76718        -1.44078         2.74523
LJ          -4.77013         5.47147        -3.87067
LJ           1.93876        -1.16628         3.90897
LJ          -1.63412         2.59162          6.3817
LJ          -3.39115         1.44724          5.1325
LJ         -0.612408         -6.4473        -3.97608
LJ           5.26852        -2.64354         4.67167
LJ           6.39561        -4.73369         2.12883
LJ          -4.94231        -3.23061         2.88294
LJ           4.53661        -4.60453        -5.55754
LJ          -3.06199         4.87142         4.78632
LJ          0.371167         1.54027        -2.60507
LJ         -0.404074         3.78551        0.359357
LJ          0.649001         2.13183          3.3861
LJ          -5.39571         2.04444       -0.397476
LJ          -5.09553        -6.25897         2.72406
LJ        -0.0972787       -0.848217        -4.77028
LJ            1.1492         1.04536        0.988044
LJ          -1.29542        -4.62196         4.70373
LJ          -5.27371       -0.417965        -0.93168
LJ           1.44474        -3.79587        -3.32802
LJ          -5.68147         5.32535        -2.62222
LJ         -0.245539         2.45155        -2.04213
LJ          0.864024        -5.77486        -1.70559
LJ           6.02439         1.56922        -6.40588
LJ          -5.93178        -4.32762        -5.50894
LJ            4.3901        -3.71496        -3.29197
LJ          0.383202        -5.63898         5.54558
LJ           2.65047        -1.31963         5.80057
LJ          -1.15285        -2.31784         -3.5526
LJ          -5.44478       -0.338649        -2.52146
LJ          -5.12991         6.34833         -1.5256
LJ           2.41586        -5.46765        -1.77463
LJ          -4.53999        -5.17532         4.81861
LJ          -6.02024          -3.637        -1.04782
LJ          -5.12287         -4.6865         -3.2581
LJ            4.4442        -4.99752        -1.00401
LJ           3.73444         5.67189        -2.53027
LJ            3.6936       -0.274716         5.30394
LJ          -3.43161          5.8079        -6.15268
LJ           4.94081       -0.340557         4.28465
LJ          -2.93323        -3.55876         1.14913
LJ             1.101        -2.61813       -0.843317
LJ          -5.51301         4.90378        -4.47509
LJ           5.99536        -6.27667         -2.0701
LJ          -3.97733       -0.422289        0.601873
LJ           5.61957        -4.90355        0.917628
LJ        -0.0793936         -2.6113        -2.95024
LJ          -1.25434        -3.13552         6.35225
LJ          -5.51784          1.8311        -2.64183
LJ          -1.79418         5.49682         -5.2511
LJ          -2.72793         0.39072        0.682034
LJ           4.71991       -0.204368         6.03679
LJ           3.68142      -0.0963737         6.36194
LJ         -0.978782        -6.25244         1.04669
LJ           1.67759        0.360689        0.333471
LJ           4.87135         3.47545          -1.858
LJ           2.85969        0.820605        -2.28967
LJ           -2.9907         1.65576         1.30142
LJ          -5.86368         1.78428        -1.50832
LJ         -0.547945        -5.81129        -6.37673
LJ           6.06549        0.751908       -0.523622
LJ          -5.25302        -5.35299        -1.01672
LJ           5.46831         3.16439       -0.383724
LJ         -0.673535        -2.02091      -0.0878627
LJ          -2.13558        -4.23447         1.60354
LJ           1.56139        0.119193         -4.6879
