108
#Comment!
LJ          -2.87076        -5.34709        -4.49349
LJ           4.54648          3.4182        -2.98886
LJ           3.91648         1.16199        -2.23034
LJ           3.39348        -2.51994        -4.10693
LJ           1.28396         5.08151         3.72548
LJ          -2.02875        0.581703         5.87252
LJ         -0.158894       -0.617494        -5.30909
LJ          -6.01811         2.79027        0.425496
LJ           2.34407         2.20346         5.44896
LJ          -5.51311         6.32526        -1.92802
LJ         -0.598368         1.08741         3.27752
LJ           2.52121         2.93328         3.00479
LJ           2.59851        -1.56238        -3.06523
LJ          0.655158        0.569088         4.73998
LJ          -2.30483        -3.12665         -4.6162
LJ           3.61872         3.44102        -2.00331
LJ           2.46064        -2.31068        -5.24935
LJ           1.95516        -0.67736        -5.17008
LJ          -1.92764        0.977386         2.87059
LJ           1.15277        -2.33748         2.82449
LJ          0.473305         1.11921         3.36212
LJ          -6.35009        -1.30439         4.90626
LJ          -5.53118         3.58164        -5.27994
LJ         -0.282174        -3.43666          1.9844
LJ          -0.30206         1.10503         4.91449
LJ           2.14405         3.33365         2.04094
LJ            1.1006        -2.03924        -6.37413
LJ           1.27494         -1.3877        -1.86803
LJ          -5.83717         1.48735         4.26092
LJ            5.0864        -0.84053         5.23417
LJ          -3.58407        0.410661         2.06452
LJ         -0.545549        -4.79659         6.38105
LJ           1.25643          2.3285        0.382343
LJ           5.40827         3.29373         4.67945
LJ           -3.3243      -0.0472181         3.27081
LJ          -2.89441         2.42799         5.05817
LJ          -6.25955        -4.45367       -0.454853
LJ           5.59536         2.93629        -2.93395
LJ           3.57612         2.28795        -2.42908
LJ         -0.298382        -5.75653        -4.25366
LJ          -1.84473        -4.34474         -1.5654
LJ          0.626402        -4.12039         2.62735
LJ          -1.69238        -4.99096        -2.41365
LJ          -4.39721         6.07272         6.01684
LJ          0.146239        -2.98272         2.79187
LJ           4.29132        0.213008         5.60335
LJ           1.81398        -1.91754        -4.12889
LJ           4.06728        -1.20083        -2.39314
LJ          -1.22706         4.12909        -2.34044
LJ           4.78219         3.04577         -1.9798
LJ          -2.16395        -6.46172        -4.57102
LJ          -1.22382        -5.68017        -3.36935
LJ           4.41898        -3.15934         4.51845
LJ          -2.57884        -2.66262        -5.50305
LJ          -3.24059        -4.20374         4.59666
LJ            1.8535          -3.509         5.19556
LJ           1.73852        -1.93793         3.82148
LJ           1.03202        -1.13285        -5.38207
LJ          0.776656         4.25481         6.32497
LJ         -0.394631        -3.86684         3.47976
LJ           4.59611        -5.05518        -2.54828
LJ           4.16184         2.41352        -3.49952
LJ          -4.52454         -4.1978        -2.47086
LJ           5.19015        0.663709           3.475
LJ          -5.12474         1.39004         5.30626
LJ           5.92673        -5.56335        -5.94865
LJ           5.11062         2.37174       -0.508777
LJ           5.28903       -0.123376         6.41367
LJ          -4.63729         4.55608       -0.670344
LJ           -2.8016         6.00938         3.26233
LJ           6.14579         2.61814      -0.0809771
LJ          -1.46529        -1.47683        -3.76584
LJ           5.88753        -3.32847       -0.249851
LJ          -4.51507         6.29341        -2.06823
LJ           4.93868          4.4758        -3.21495
LJ          -2.21155        -5.82012        -5.49809
LJ          -1.10218        -1.42335       -0.404813
LJ           5.54837        -4.66238         2.65116
LJ           4.52446        -3.80136        -1.37264
LJ           1.85591         -2.2667        -2.23549
LJ           5.05855        -3.90454         4.92533
LJ         0.0505794        -5.09221        0.141297
LJ          -2.28155         3.16617         3.11342
LJ           1.65263       -0.527914         2.97564
LJ           6.24257          4.6924         -1.6972
LJ          -6.06806         4.27504        -6.35718
LJ         -0.109999         4.59445         -2.6111
LJ         -0.667891         6.22528        -2.86429
LJ           3.99172        -4.30767         4.67724
LJ          -5.85603         -3.8006         4.14866
LJ           -1.7698         2.48843        -6.18408
LJ           2.13356        0.422007       -0.342903
LJ            3.7927        -4.44412         1.14351
LJ          -1.63347        -2.48912         -2.3144
LJ          -1.79279        -5.01433         5.17582
LJ           5.89278        0.859799        -4.91615
LJ          -5.62304          4.3731        -1.99773
LJ          -2.77044         1.85773        -4.88086
LJ          -2.71846         5.84968         5.93467
LJ          -1.93575         4.47058       -0.391518
LJ           5.52474        -6.23425         5.85622
LJ           4.23463        -1.89936         4.19745
LJ           4.95269         5.31312         5.10303
LJ          -6.08763       0.0861897         5.65073
LJ           4.76456        -4.93779         4.22372
LJ           -3.1698         -4.7054       -0.572397
LJ          -5.28316        -5.66066         3.42738
LJ           5.40975         1.08962         5.80328
