108
#Comment!
LJ           -2.4272        -5.33858        -4.29698
LJ           4.78221         3.07971        -2.77016
LJ           4.15389         1.09317        -2.35545
LJ           3.51016        -2.41884        -5.03902
LJ           1.06403          5.5781         3.26411
LJ          -1.48645        0.523761         5.85382
LJ          0.112238       -0.635208        -4.89688
LJ          -5.49109          2.7664         1.08981
LJ           2.10153         2.09965         6.00593
LJ          -5.99994          5.9453        -2.25594
LJ         -0.378031        0.485316         3.73302
LJ           2.21121         3.28631         2.75349
LJ           3.10025         -1.2158        -3.21124
LJ          0.386367        0.498159         5.20099
LJ          -2.84172        -3.78888        -4.23087
LJ           4.20117         3.14081        -1.77978
LJ           2.76179        -2.77251        -5.87358
LJ           1.65803       -0.870225        -5.09633
LJ          -1.31199         1.00428         3.57903
LJ           1.27016        -2.56922         2.74228
LJ          0.681125         1.58272         2.69005
LJ            6.1166        -1.20346         4.89135
LJ          -4.96355         3.30221        -5.03034
LJ         -0.452985        -3.68615        0.521717
LJ        -0.0949716         1.72609         5.09152
LJ           2.93561          4.0478          1.7693
LJ          0.274431        -2.27814        -6.26403
LJ           1.04817        -1.41844        -1.96658
LJ          -5.22063         1.57005         3.57398
LJ           4.49519       -0.905818         5.04383
LJ          -3.43694        0.540509         2.28642
LJ         -0.429361        -4.37624          5.8388
LJ           1.38802         1.45716        0.198049
LJ           5.85039         3.23247         5.10585
LJ          -3.99469       -0.930521         3.72627
LJ          -2.48847         2.31614         5.34798
LJ          -6.12535         -4.2963        0.546485
LJ           5.76423         2.69726         -3.0269
LJ           4.57979          2.0562        -2.47685
LJ          -0.30805        -5.62162        -3.94452
LJ          -1.51477        -3.99967        -1.17074
LJ          0.476356        -3.95408           2.153
LJ          -1.56624        -5.41138        -1.93759
LJ          -5.27097        -6.28265         5.90118
LJ          0.234986        -2.78977         2.27286
LJ           5.37484        0.781277         5.15565
LJ           2.45381        -1.88624        -5.04501
LJ            4.0538        -2.26944        -2.74438
LJ          -1.53415         4.81496        -2.49452
LJ           5.08374         2.32686        -1.57092
LJ          -2.50546         6.39009        -4.21294
LJ          -1.40917        -5.82589        -3.59711
LJ           4.17532        -2.42563         4.28778
LJ          -2.39936        -2.54618        -5.24052
LJ          -3.16554         -3.8819         4.05386
LJ           1.58357        -3.24831         5.22389
LJ           1.62607         -1.5929         3.84326
LJ           0.66854        -0.94651        -5.79181
LJ           1.16548         4.01501         6.07456
LJ         -0.358141        -3.70692         2.92069
LJ           4.77468        -5.47009        -1.52701
LJ           4.22258          2.3902        -3.51261
LJ          -4.67635        -4.65624        -2.12335
LJ           4.50155         1.65268         3.23387
LJ          -4.94375         1.70362            4.77
LJ           5.52153        -6.07926        -5.70467
LJ           4.80992         1.64042       -0.822262
LJ           5.11786      -0.0936375         6.38714
LJ          -5.86338         5.41882       -0.855896
LJ          -2.06931         5.12357          3.7355
LJ           5.84162         1.56664      -0.0385184
LJ          -1.29835        -1.14729        -3.87106
LJ           6.26451        -3.17544         0.80301
LJ          -4.32658          5.7308        -2.05174
LJ           5.37749         4.15248        -2.90384
LJ          -2.10206        -5.92652        -5.14539
LJ         -0.924991       -0.333453        -1.20443
LJ           4.22273        -5.55481         2.64034
LJ           4.11866        -3.62723        -1.60236
LJ           1.79804        -2.28635        -2.50942
LJ           4.86855        -3.52438          5.1668
LJ        -0.0269086        -4.85128      -0.0684531
LJ          -3.11057         2.17526         3.77559
LJ          0.988281       -0.794313         2.44855
LJ          -6.19808         4.46967         -1.3174
LJ          -6.25688         4.48957        -4.88468
LJ         -0.389443         5.00243        -2.09674
LJ         -0.725485        -6.32805        -2.86432
LJ           3.32385        -3.60985         4.82279
LJ          -6.17899        -3.87945         3.68069
LJ          -1.88013         3.45658         6.46258
LJ           1.64744      0.00648809       -0.848243
LJ           3.49357        -4.23668        0.227858
LJ          -1.41435        -2.16666        -2.56412
LJ          -1.92399        -4.31499         5.53699
LJ           6.33482         1.49267        -5.78388
LJ          -5.21146         3.92438        -1.41328
LJ          -1.90988         2.22765        -5.30803
LJ          -2.53612         5.99959        -6.33072
LJ          -1.67478         4.77142       -0.142911
LJ           4.99678         6.14161         6.18811
LJ           3.70696        -1.45192         3.94744
LJ            4.8265         5.22955         4.48405
LJ           6.37699       0.0639633         5.62228
LJ           4.88046        -4.59683         4.73236
LJ          -3.33976        -5.34787       -0.739482
LJ          -4.53898        -6.11213         3.76885
LJ           5.50704         1.15382        -6.30332
