108
#Comment!
LJ           2.38669         5.97714         -1.7206
LJ          -3.90016        -1.92508         -4.9965
LJ          -5.06609         4.00703         3.64299
LJ           2.23786        -6.42677        -4.68271
LJ          -2.44503         3.95254         4.38586
LJ          -4.60387       -0.417459         6.11332
LJ           1.28636        -3.04516         3.88027
LJ          -1.55809         2.38653        -4.98636
LJ         -0.937681         4.94744         6.02083
LJ            5.8708         -2.5876        -4.56033
LJ          -1.39378         3.01718       -0.713188
LJ          -1.86927        -5.83171        -2.97366
LJ          -5.36249         5.59307       -0.821663
LJ           4.53248         4.60094         -3.7044
LJ          -2.18173        -3.56697         3.29402
LJ           2.34934         2.14484        -2.60398
LJ          -2.52403        -2.78739        -4.08253
LJ          -3.64172         -3.1292        0.840889
LJ          -2.33096         1.77939         2.85754
LJ          -5.09003        -2.85977        -4.29839
LJ         0.0439576         3.16129         3.59666
LJ           4.68761         3.79741        -0.11875
LJ           1.32276         1.54384       -0.429542
LJ           2.41556        -4.61743         5.10734
LJ         -0.840135          5.2727         3.54372
LJ           1.79329        -1.36691        0.414801
LJ           5.37428        -1.05956        -4.14018
LJ          -1.51723         2.34059           4.911
LJ           1.40578         -5.3926         5.41957
LJ          -3.18492          0.4282         4.65614
LJ           -2.4977        -2.49207        -5.43764
LJ           3.00183        -4.58504        -2.65788
LJ          0.469051         5.12006        -3.47046
LJ         -0.645365         5.99575         5.71414
LJ           4.13013         6.38743         6.18956
LJ          -5.63748         1.33447         4.93208
LJ          -1.70847         3.39191         4.88664
LJ          -2.55006        0.493208         1.71466
LJ          -4.75586        -5.81586        -4.87435
LJ         -0.794367         5.98477        -6.16297
LJ           2.51422        -2.02586         2.42288
LJ          -1.81596        -1.02819         2.64182
LJ          -4.62967         5.62621        -3.97041
LJ           2.02366        -1.07128         3.94085
LJ           -1.5575         2.56331         6.09257
LJ          -3.30808         1.67491         4.63758
LJ         -0.625634        -6.14265         -3.5066
LJ           5.35654        -2.49283         4.49817
LJ           5.95875        -4.99224         2.31723
LJ          -4.97372        -3.23941          3.0921
LJ           4.07012        -4.56683        -5.48095
LJ          -3.15068         4.81944         4.58868
LJ          0.268901           1.247        -2.73141
LJ         -0.531869         3.51092        0.712614
LJ          0.767123         2.46116         3.38289
LJ          -5.54765         2.34176       -0.451588
LJ          -5.23961        -6.29179         2.24072
LJ         -0.209769       -0.973974        -4.82885
LJ           1.18121         1.04149         1.14784
LJ          -0.97254        -4.62436         4.94228
LJ          -5.15572      -0.0662822       -0.889622
LJ           1.24944        -3.91269        -3.27924
LJ          -5.58897         5.49225        -2.27867
LJ         -0.196298         2.67883        -1.98092
LJ           1.08516        -6.12016        -1.73324
LJ            6.1093         1.28012        -6.42733
LJ          -5.74387        -4.91825        -6.01135
LJ           4.35454        -3.67357        -2.95169
LJ          0.490929        -5.88452         5.70877
LJ           2.83004       -0.858193         5.66139
LJ          -1.52803        -2.34611        -3.91854
LJ          -5.46371      -0.0364814        -2.77163
LJ          -5.12881         6.41211        -1.85592
LJ           2.40189        -5.50062        -1.81231
LJ          -4.53466        -5.19877          4.5853
LJ           -5.7124        -3.40221       -0.825524
LJ          -5.19708        -4.50113        -3.25031
LJ           4.30058        -5.29188       -0.969959
LJ           3.50191         5.89767        -2.37138
LJ           3.60899       -0.392802         5.19176
LJ          -3.55389         5.92759        -5.92078
LJ           4.82218       -0.243464         4.04406
LJ          -2.63971        -3.52168         1.11938
LJ           1.51678        -2.54123       -0.647332
LJ          -5.48452         4.82444        -4.60589
LJ           6.04159        -6.05729        -1.81783
LJ           -4.4813        -0.23491        0.666271
LJ             5.858        -4.43842         1.05358
LJ          -0.14031        -2.54243        -2.90042
LJ          -1.24146        -3.39974         6.39937
LJ          -5.63285         1.72495        -2.44384
LJ          -1.60502         5.25865        -5.24104
LJ          -2.79235         0.18032         0.30352
LJ           4.99371        0.347995          6.1594
LJ           3.93298       -0.236067        -6.33804
LJ          -1.08572         6.38103         1.26214
LJ           1.69072        0.532973          0.2377
LJ           5.21108         3.63235        -1.76854
LJ           3.11078        0.961261        -1.87956
LJ          -3.09202         1.62846         1.29241
LJ          -5.79551         2.11329        -1.42925
LJ         -0.387429        -5.73022         6.28057
LJ           5.96694        0.984962       -0.637053
LJ          -5.88003        -5.15919        -1.18853
LJ           5.36481         2.87007       -0.510891
LJ         -0.881109        -1.76714       -0.265316
LJ          -2.03604        -4.34343          1.5882
LJ           1.44422        0.211706        -4.54296
