108
#Comment!
LJ            6.1372        -1.59756        -1.90507
LJ          0.282958         2.95106        -2.28836
LJ           1.32153        -5.66437        -3.97292
LJ          -3.36634         1.64634         6.19251
LJ           2.62731        0.209459         3.54617
LJ          -6.20891         4.42042         5.96645
LJ         -0.636486        -5.35591         4.48016
LJ          -1.80976         6.20605        -3.89385
LJ           2.68708         4.56319         -5.1017
LJ            5.2844        -2.10237         3.20969
LJ          -6.17161         2.29527         1.55796
LJ           5.94739       -0.613224       -0.226428
LJ           4.18644        -5.09401         1.03302
LJ          -6.11371        -3.52314        -2.08937
LJ         -0.625223         3.97344        -4.70677
LJ          -3.98632         2.74099        0.386751
LJ          -4.42501         6.23934        0.478013
LJ           5.05935        -5.80879        0.804509
LJ          -6.35521        -5.06528         5.74138
LJ             0.391        -1.15214         3.50653
LJ           2.81787         4.36187         2.46262
LJ           2.59607         0.85935         2.04802
LJ          0.833629        0.104454         2.34232
LJ           2.42379        -1.19706        -3.37374
LJ           5.76333         5.96249        -6.42891
LJ           5.53336         4.10302        -1.04188
LJ         -0.879384        -5.52115         5.89325
LJ           3.78188        -5.36176      -0.0142561
LJ           3.50493        0.251485         6.07456
LJ          -5.10405         3.68372          6.0992
LJ           4.38777        -1.49022        0.369825
LJ          -6.06313        -2.87079         2.25832
LJ          0.710037          5.4822         3.83019
LJ         -0.333549        -6.18751         2.58528
LJ           4.81798        -0.65328         2.16797
LJ           3.85164        -6.00334         1.39544
LJ          -5.29357         2.38108         4.65404
LJ           0.61472         5.37461        -5.44995
LJ         -0.606466        -5.01893        -2.17795
LJ          -2.88407         5.08132        -3.17266
LJ          -1.88364         3.92768        -5.88988
LJ        -0.0998937         -4.2965        -2.79864
LJ          0.103148        -6.11918         3.71081
LJ           3.28073         2.35596        -3.69071
LJ          -2.37651       -0.482093         5.88651
LJ          -4.75464        -1.55477       -0.621935
LJ          0.973542         3.49512        0.157951
LJ           2.20583         5.72947        -2.23542
LJ          -3.51778        0.289985        -3.09663
LJ          0.188573         5.95507        -1.72193
LJ          0.479936         4.89053        -1.35299
LJ          -4.04592         4.46649        -3.07106
LJ           4.20495       -0.195531           2.854
LJ          -3.33343        -4.14929        0.903587
LJ          -2.35796        -5.33235         6.42189
LJ          -5.13989        -1.99915         5.41105
LJ          -1.32994         -0.1532         5.95223
LJ         -0.383865        -1.52691          2.9356
LJ          -4.27218        -6.21677        -4.10617
LJ           3.00128        -1.50438        -4.46574
LJ         0.0999099         3.65517        -1.18135
LJ          0.965687         5.97277        -3.46161
LJ         -0.429007       -0.925373         5.90116
LJ           -3.8586         4.38335        -5.36387
LJ           3.95282        -2.41362         2.79505
LJ          0.935534        -1.22431         5.78235
LJ          -5.55232        0.127425        -1.69343
LJ          -2.17458        -4.35279        0.929142
LJ            3.6046        -2.79858        -3.35531
LJ         -0.666329         2.31678       -0.638657
LJ           1.52898        0.518917         4.71163
LJ           6.14689         3.74355        -2.03084
LJ           6.45364        0.984938         4.49373
LJ           5.00772        -1.63359        -1.34404
LJ          0.476467         -4.7446        -3.95039
LJ          0.448324          -4.554         4.07658
LJ          -2.36374        -4.52463         5.75267
LJ           2.62085         5.24918         5.86102
LJ           3.44614         4.62038        -0.89041
LJ           2.44526         3.48694         3.85742
LJ          -3.47201        -5.33516         2.49635
LJ           2.60915         5.66934         1.48001
LJ          -5.39478         1.56867         1.46577
LJ           5.43361       -0.363875         4.06044
LJ           5.80596        -4.18158         5.05978
LJ          -3.09441          0.1788         1.79363
LJ           1.22211        -3.25532        -3.48528
LJ           -1.4705         3.05504        -4.44759
LJ           -4.3525         2.39428         4.12725
LJ           5.66102        -4.91981         1.37907
LJ          0.220049         5.84139         5.50083
LJ        -0.0692302          3.8243         1.26451
LJ           4.14826         2.95664        -5.75741
LJ          -5.51232        -5.74846         2.98367
LJ          0.568105         5.88901       -0.573891
LJ            5.4433        -4.82124        -1.41562
LJ           1.40964          6.3038         5.89975
LJ           2.39455        -6.13848         1.76357
LJ          -3.22212         3.47858         2.18575
LJ            1.7202         2.03631        -6.14872
LJ          -4.71374         1.81631         5.29983
LJ           3.13777         2.65306         3.28747
LJ           4.16233         3.78394         2.07323
LJ          -1.75614         -2.4322         1.33712
LJ          -4.18255         4.51342           -4.31
LJ           3.28461         1.26213          6.4593
LJ         -0.454255        -6.42388       -0.185951
LJ           4.06091         -2.2935        -4.24366
