108
#Comment!
LJ           6.06671        -1.04809        -1.73727
LJ          0.467848         3.00993        -2.12096
LJ           1.33584        -5.75917        -3.68932
LJ           -3.3131         2.11596         5.75322
LJ           2.81905        0.141279         3.96122
LJ          -6.44977          4.1553         6.07815
LJ         -0.522197        -5.74073         4.40887
LJ          -1.78032         6.24047        -3.56872
LJ            2.6278         4.48073        -5.31036
LJ           5.36483        -2.19071         3.03081
LJ          -6.02795         2.44448         1.81037
LJ           5.78317       -0.638741       -0.482401
LJ           4.38142        -4.75272        0.844216
LJ          -6.27504        -3.33462        -2.35443
LJ         -0.437963          3.7708        -4.76063
LJ          -3.90084         2.91417        0.054682
LJ          -4.41958         5.52139         0.30729
LJ           5.03476        -5.86651        0.827812
LJ           6.30981        -5.16116         5.88006
LJ          0.300097        -1.36309         3.86316
LJ           3.19473         4.27528         2.40927
LJ           2.60479         1.42951         2.07557
LJ           1.09352       -0.267071         2.41822
LJ           2.15546        -1.37808        -3.55635
LJ           5.32214         6.24849         6.18312
LJ           5.76549         3.64413        -1.18762
LJ         -0.925791        -5.07863         5.85951
LJ           3.61748        -5.31081       0.0774724
LJ           3.54019     -0.00580073          5.9971
LJ          -5.30474         3.40344         5.98761
LJ           4.58893         -1.2849        0.422578
LJ          -6.31617        -2.99041         2.82201
LJ          0.442958         5.77933         3.94814
LJ         -0.247021         6.38911         2.73487
LJ           5.12291       -0.567203         2.17987
LJ           4.22205        -6.28624          1.4204
LJ          -5.49589         2.72285         4.69587
LJ          0.703286         5.34513        -5.39696
LJ         -0.507938        -5.16547        -2.01676
LJ          -2.77489         5.05828          -3.209
LJ          -1.95864         4.27239        -5.89212
LJ          0.166968        -4.57498        -2.96639
LJ         -0.116779        -6.33197         3.78483
LJ           3.08001         2.26815        -3.77774
LJ           -2.4668       -0.770529         5.66419
LJ          -4.64405         -1.3862       -0.682277
LJ          0.815292         3.36378         0.40459
LJ           2.03854         5.63515        -2.00141
LJ          -4.02414        0.422066        -3.24007
LJ          0.122736         5.99608        -1.99616
LJ          0.390588         5.03942        -1.61627
LJ           -3.7575         4.58918        -3.17157
LJ           4.16053        0.182446         2.86766
LJ          -3.51771        -4.14193         1.05956
LJ          -2.23757        -5.64342        -6.43966
LJ          -5.30472         -2.0842         5.41317
LJ          -1.45522       -0.265375         5.80543
LJ         -0.267302        -1.45978         2.62455
LJ          -4.24349        -6.20136        -4.14129
LJ             3.036         -1.6481        -4.31779
LJ          0.461482         3.24928        -1.12993
LJ          0.822062         5.97161        -3.64957
LJ         -0.501198        -0.85958         6.22984
LJ          -3.49732         4.61709        -5.62316
LJ           3.99422        -2.14681         2.42118
LJ          0.771098         -1.2388         5.64385
LJ           -5.1527       -0.298942        -1.85285
LJ          -2.17892        -4.21021          1.1633
LJ           3.46628        -2.58403        -3.28678
LJ         -0.482485          2.4706       -0.640088
LJ             2.078        0.745222         4.76411
LJ            6.4608          4.0472        -2.16127
LJ           6.41294        0.938038         4.42038
LJ           5.11963        -1.89479        -1.36574
LJ          0.734781        -4.91962        -3.79464
LJ          0.246253        -4.46521         4.08458
LJ          -2.27838        -4.60872         5.87704
LJ           2.66154         5.46849         5.67989
LJ           3.31483         4.81915       -0.731966
LJ           2.47472         3.24182         3.46466
LJ          -3.40819        -6.08835         2.38205
LJ           2.52046          5.7556         1.24658
LJ          -5.37647         1.59816         1.14941
LJ           6.11414       -0.264616         4.02324
LJ           5.49264        -4.40412         5.51559
LJ          -3.32554        0.267114          2.2625
LJ           1.15465        -3.04582        -3.43971
LJ          -1.62295         3.27056        -4.31248
LJ          -4.53729         2.36591         4.01196
LJ           5.38618        -4.83359        0.842171
LJ          0.253654         6.22874         5.50554
LJ         -0.495108         3.94645         1.39964
LJ             4.145         3.19687        -5.89411
LJ          -5.37853        -5.65279          2.7941
LJ          0.596286          5.6754       -0.607948
LJ           5.25491        -4.87096        -1.28387
LJ           1.57911         6.22446         6.01735
LJ            2.2265        -5.47271         1.62859
LJ          -3.16313         3.07381         2.41021
LJ           1.84614         2.14756        -6.18806
LJ          -4.65731         2.02184         5.47062
LJ           3.34112         2.55387         3.62447
LJ           3.64073         3.28808         2.04226
LJ          -2.15035        -2.33266         1.72666
LJ          -4.21443         4.62785         -4.5256
LJ           2.80297          1.4106        -6.18615
LJ         -0.189777         6.01378     -0.00827148
LJ            4.4973        -1.96041        -4.06511
