108
#Comment!
LJ           2.02204        -6.18799        -2.72997
LJ          -3.47765        -2.97215        -5.02865
LJ          -5.07769         2.23596         2.43775
LJ           2.16018        -4.35517        -3.77372
LJ          -2.26951          3.7705         3.92136
LJ           -4.1265       0.0389197         6.08678
LJ           2.35163        -2.48648         4.09071
LJ           -1.9106         2.17783        -3.75218
LJ          -1.83774          6.2803        -6.40817
LJ           5.78776        -2.55471        -3.68426
LJ          -1.50697         3.76938         -1.1765
LJ          -1.35527        -4.70717        -1.93476
LJ          -4.28962         6.37551        0.189684
LJ           3.70605         4.61499        -3.76435
LJ          -3.19914        -4.36085         2.42204
LJ           1.09049         1.72942       -0.957622
LJ          -1.57445        -2.04786        -3.60645
LJ          -3.63665        -1.16328         1.01105
LJ          -3.46295        0.375871         2.24369
LJ          -5.52098        -2.47658        -5.45978
LJ         -0.579969         3.47246         4.46651
LJ           4.75681         4.35885       -0.613378
LJ           1.57696         2.26035        0.601316
LJ          0.718788        -4.37312         4.01891
LJ        -0.0884839         6.27966         2.13472
LJ           1.59564        -1.79292         1.56934
LJ           5.30302        -1.26328         -5.4357
LJ         -0.840729         1.52757         5.27618
LJ           1.57752        -5.46217         5.01558
LJ          -2.03936        0.752145         3.78606
LJ            -1.742        -1.61485        -6.22074
LJ           2.20908        -5.11742        -2.79548
LJ          0.289015         5.69717        -4.29511
LJ          -0.28806        -5.78348         5.81783
LJ           4.76619        -5.93204         6.13634
LJ          -6.26982         2.18605         5.23221
LJ          -3.19734         2.09248         5.55867
LJ          -1.51622       -0.243893         1.65782
LJ           -4.5703        -6.13137        -3.66169
LJ          0.119498         6.17966        -6.24025
LJ           2.36041        -1.65208         2.28718
LJ          -1.65824        -2.46294         2.98626
LJ          -4.71929         5.40791        -3.42846
LJ           1.73655         -1.5013         3.68675
LJ          -1.87376         2.65281        -6.08675
LJ          -3.32953        0.968214         6.25398
LJ          -1.15719         5.92978        -5.36977
LJ           5.04185        -3.00248          5.1095
LJ          -5.47626         -4.0787         1.55265
LJ          -4.86667        -3.24133          2.3315
LJ           5.70529        -4.70777        -5.74862
LJ          -2.98632         5.18206         5.31952
LJ          0.400627         2.01204        -2.90414
LJ         -0.149228         4.43226       -0.589374
LJ          0.473755         1.19218          3.3629
LJ          -5.14994         1.22891       -0.454171
LJ          -4.73862        -6.15926         3.94024
LJ           0.21907       -0.527774        -4.61335
LJ           1.10195         1.15337        0.475175
LJ          -2.08882        -4.62566         4.11979
LJ          -5.61572        -1.30177       -0.825584
LJ           1.84145        -3.24217        -3.26041
LJ          -6.05561         4.97237         -3.3356
LJ         -0.672921         2.11249        -1.99842
LJ          0.510929        -4.92648        -1.66609
LJ            5.8389         2.27599        -6.41051
LJ          -6.33381        -2.72401        -4.23728
LJ            4.4912        -3.81461        -4.15202
LJ          0.500371        -4.79829         4.90764
LJ           2.31837        -2.35075         6.10777
LJ         -0.638488        -1.98765        -2.76832
LJ          -5.36783        -1.02694        -2.07538
LJ          -5.15543        -6.41355       -0.892897
LJ           2.20341        -5.53677        -1.14335
LJ          -4.55307        -5.12365         5.38913
LJ           6.13137          -4.263        -1.60339
LJ          -4.91629        -5.23379        -3.34606
LJ           4.81577        -4.26893        -1.09986
LJ           4.32497         5.18878        -2.80085
LJ           4.02039       -0.153397         4.87839
LJ           -3.0342         5.52253         6.26106
LJ           5.00574       -0.588998         5.11039
LJ          -3.57791        -3.60661         1.33785
LJ         0.0165584        -2.78603         -1.2971
LJ          -5.82005         4.94997        -4.41751
LJ           5.94916         6.07181        -2.69767
LJ          -2.43531       -0.553688        0.380864
LJ           5.09474        -6.05406        0.684963
LJ          0.641738        -3.03998        -2.87775
LJ          -1.34971        -2.43117         6.28097
LJ          -5.33188         2.01855        -2.84375
LJ          -2.21158         6.12735        -5.24821
LJ          -2.67246        0.409841         1.55923
LJ           4.08372        -1.55868         5.68834
LJ           3.00603        0.270845         6.34496
LJ         -0.713553         -5.5184        0.518504
LJ           1.63136       0.0224429        0.482561
LJ           4.05237         3.10987        -1.93227
LJ             2.161        0.540461         -3.3137
LJ          -2.72692         1.95506         1.60068
LJ          -5.88335         1.00635        -1.74992
LJ          -1.01377        -5.94441        -5.91545
LJ           6.41518        0.226997       -0.304866
LJ           -3.7791        -6.19814       -0.685162
LJ           5.83951          3.7361       -0.212929
LJ         -0.106936        -2.67065        0.310559
LJ          -2.48409        -3.78719         1.48389
LJ           1.81436         -0.1323        -5.04535
