108
#Comment!
LJ          -2.53693        -5.41673        -4.35638
LJ           4.69322         3.06327        -2.78812
LJ           4.10748         1.16549        -2.33296
LJ           3.30045        -2.40147        -4.86609
LJ           1.11869         5.45457          3.3796
LJ           -1.6246        0.534745         5.86072
LJ         0.0517829       -0.634852        -5.02118
LJ          -5.62159         2.77401        0.925149
LJ           2.16336         2.12551         5.86713
LJ          -5.89572         6.05267        -2.18284
LJ         -0.457195        0.632782         3.61396
LJ           2.28173         3.18636         2.83389
LJ           2.96904        -1.28353        -3.17914
LJ          0.475357        0.488562         5.09162
LJ          -2.71298        -3.62675        -4.32269
LJ           4.04882         3.17592        -1.83003
LJ           2.74559        -2.65302        -5.67356
LJ           1.73879       -0.796863        -5.11307
LJ          -1.45742         0.98873          3.4011
LJ           1.25244        -2.51585         2.74931
LJ          0.641849         1.47654         2.84805
LJ           6.23909        -1.24425         4.88647
LJ          -5.09359         3.36047        -5.08691
LJ         -0.362855        -3.65507        0.933383
LJ         -0.161267         1.60151         5.05493
LJ            2.7457         3.88147         1.81932
LJ          0.486442        -2.15338        -6.24632
LJ           1.10644        -1.41841        -1.94312
LJ          -5.35143         1.55165          3.7999
LJ            4.6199       -0.827175         5.10221
LJ          -3.47434        0.511775         2.22286
LJ         -0.446838        -4.48124          5.9793
LJ           1.35412         1.67759        0.245185
LJ           5.74005         3.24757         4.99909
LJ          -3.82776       -0.715172         3.61905
LJ          -2.59327         2.34265         5.27622
LJ          -6.14546        -4.35917        0.291536
LJ            5.7618         2.74828         -3.0204
LJ           4.32458          2.1721        -2.47328
LJ         -0.337504        -5.65121        -4.01423
LJ          -1.59655        -4.06641        -1.25583
LJ           0.38844        -3.94497         2.29131
LJ          -1.60493        -5.31314        -2.05172
LJ          -5.05315        -6.42535          5.9304
LJ          0.215693        -2.82316         2.38434
LJ           5.09174        0.581901         5.20864
LJ           2.42919        -1.97159        -4.80089
LJ           4.07643        -2.00815         -2.6482
LJ          -1.42229         4.65059         -2.4541
LJ           4.97702         2.48391        -1.63148
LJ          -2.44697         6.46019        -4.29407
LJ           -1.2827        -5.80081        -3.54325
LJ            4.2257        -2.54294         4.31977
LJ          -2.44083        -2.56735        -5.31197
LJ          -3.18765        -3.96036         4.18673
LJ           1.64934        -3.31548         5.21755
LJ           1.66391        -1.67066          3.8624
LJ          0.725526        -1.05153        -5.72708
LJ           1.06803          4.0759         6.13754
LJ         -0.314696        -3.78957         3.01102
LJ           4.73125         -5.3726        -1.78462
LJ           4.19732         2.38101        -3.52268
LJ          -4.63955         -4.5402        -2.21144
LJ           4.67319         1.40621         3.29168
LJ          -5.01076         1.62532         4.84841
LJ           5.58852        -6.00057        -5.84417
LJ           4.91537         1.85908       -0.769477
LJ           5.17871      -0.0232051         6.42287
LJ          -5.56037         5.15241       -0.853024
LJ          -2.25222           5.345         3.61684
LJ            5.9023          1.8225      -0.0534747
LJ          -1.34144        -1.22515        -3.84785
LJ           6.15763        -3.18961        0.545118
LJ          -4.35323         5.87259        -2.05824
LJ           5.27723         4.27494         -2.9914
LJ          -2.12706        -5.88029        -5.24481
LJ         -0.969787       -0.604868        -1.00336
LJ           4.55446        -5.33292         2.63908
LJ           4.21872        -3.66611        -1.54318
LJ           1.80062        -2.28196        -2.43209
LJ           4.87785        -3.60562         5.11748
LJ        -0.0048667        -4.91793      -0.0199162
LJ          -2.90499         2.42616         3.60401
LJ            1.1536       -0.717832         2.57265
LJ          -6.32859         4.52015        -1.41331
LJ          -6.22084         4.44753        -5.25859
LJ         -0.352987         4.88432        -2.22597
LJ         -0.725419        -6.41508        -2.87294
LJ           3.50909        -3.77975         4.80502
LJ          -6.09667        -3.85887         3.79706
LJ          -1.84716         3.22357        -6.39546
LJ            1.7702        0.109001       -0.722187
LJ            3.5674        -4.28879        0.457461
LJ          -1.46996        -2.25057        -2.49689
LJ          -1.89906        -4.49141         5.44371
LJ           6.18372         1.32087        -5.59673
LJ          -5.30151         4.08036        -1.50123
LJ          -2.12754         2.12975        -5.19332
LJ           -2.5825         5.95737         6.42531
LJ          -1.74048         4.69605       -0.203219
LJ           5.16345         6.33188         6.18779
LJ           3.85297        -1.61535          4.0161
LJ           4.85651         5.24887          4.6356
LJ           -6.4066       0.0715817         5.62928
LJ           4.86252        -4.72424         4.58867
LJ          -3.29961        -5.18849       -0.694185
LJ          -4.72487        -6.00004         3.68245
LJ           5.51134         1.08733        -6.43705
