108
#Comment!
LJ          -4.30788        0.517761         3.62066
LJ           6.35346         1.31683         4.70496
LJ          -3.63249        -5.01249         4.25847
LJ          -5.25723        0.935112         -3.5489
LJ           1.32044         4.18126         1.74645
LJ           5.76775         -2.8693        -6.34624
LJ         -0.583669       0.0828635       -0.253085
LJ           1.18445        -1.07944         -3.4489
LJ           2.87694         5.35497        -5.33471
LJ           -5.4877         6.31057         2.70944
LJ             5.764        -4.27029        -2.37391
LJ           6.00159        -1.36407         1.27394
LJ          -5.32042        0.804181         5.27262
LJ            3.3385         1.97913         3.07227
LJ          -1.26862         4.99172        -0.80146
LJ           5.05839         2.21278         4.19152
LJ          0.556142       -0.260367        -2.98433
LJ          -6.44344        -4.35634        -4.38812
LJ           4.74473        0.137235        -5.70436
LJ           6.30763        -2.95192        -1.79633
LJ           4.01235         5.44002         3.88602
LJ          0.522154        -2.20109         3.23448
LJ           -3.2029         5.21567         6.21188
LJ            3.0069         5.83503         -4.1693
LJ          -3.42585          -5.768       -0.110849
LJ           4.12958        -2.64147         3.78049
LJ      -0.000332066       -0.903024      -0.0591389
LJ           3.17084        -6.15756         1.18594
LJ           5.89218         5.59618        -5.82771
LJ           5.24837        -4.01176        0.120516
LJ           3.20582         4.46356        -5.62493
LJ           4.46563         1.43845         6.46123
LJ           4.56144        -2.67068         5.18599
LJ          -5.20724          4.9999        0.834821
LJ           2.50764        -5.44573         4.56757
LJ           5.69953          6.0381         4.68446
LJ          -2.61424        -2.40321         1.00028
LJ           3.93443        0.531553         1.88992
LJ           -5.3834        -1.54503       -0.354399
LJ          -3.81727        0.734362       -0.921336
LJ           2.77249         4.38675         1.02376
LJ          0.562084         1.17778        0.140112
LJ         -0.222434      -0.0173892         1.82533
LJ          -5.38145         4.47703         5.20237
LJ           2.42367       -0.831232         3.32562
LJ           2.29863       -0.780201         0.72738
LJ           4.52333         2.23813        -5.72475
LJ            5.2602        -4.94336         2.44133
LJ            -4.434         3.47651        -2.50116
LJ           2.42449         4.33983         3.54477
LJ         -0.045963         4.65682        -3.12881
LJ           1.90117         2.32085        0.285889
LJ           -1.4033         1.48079        -6.23411
LJ          -3.90621         3.99566        -3.41122
LJ           5.54624        -3.01125         2.84964
LJ          -3.55595        -1.44511         6.09548
LJ           5.32352        -1.05153         4.45591
LJ         -0.902654         2.52996         2.51035
LJ          -3.81318      -0.0814013        -1.69942
LJ           4.89583         5.48589        -2.59865
LJ         0.0782632        -3.30254       -0.555368
LJ          0.915969        -4.20375         2.83849
LJ          -2.46122         4.29839        -1.78327
LJ          -5.25903         4.70679        -4.27879
LJ          -4.60599         1.87504        -2.18716
LJ           2.71286         2.61772        -5.83877
LJ          -2.59224        -5.18876         5.54392
LJ          -1.02658         3.71741        -3.68764
LJ          0.643067        -3.65619        -2.83797
LJ          -2.01009        -4.28057         1.80663
LJ           6.13544        -1.82641          5.3948
LJ           4.89062          2.2781         5.40518
LJ           1.49174        -3.31097         4.64514
LJ           4.87916         3.41247         6.44775
LJ          -3.09298         3.92293        -2.70752
LJ           5.09885         3.33461         2.39858
LJ         -0.521734        -4.21319        -6.13605
LJ          0.559143         3.77632         3.59207
LJ         -0.200054         4.24542        -0.63048
LJ         -0.725505        -2.00586         3.15801
LJ          -1.34702         4.66338        -1.91559
LJ          0.157766         2.39252          2.8856
LJ          -5.77125        -4.63934         6.25497
LJ         -0.169607           4.769         4.24739
LJ            2.3803        0.169745        -3.53281
LJ          0.992543         -2.3838        -1.72673
LJ           3.17869         3.56906        -1.28299
LJ          0.970446         4.56443        -2.67837
LJ          -3.93989        0.988889        -5.86652
LJ          -1.71823         -6.0671         4.73496
LJ         -0.124559      -0.0660349         4.35765
LJ           4.71098        -2.46369       -0.236422
LJ           4.82887           4.563          5.3104
LJ         -0.879513        -1.85532         1.50087
LJ          -4.81867        -5.39063         4.97288
LJ           1.82722         1.75852        -1.42426
LJ           1.18539         5.36688        -4.45681
LJ          -2.01681         3.06607        -4.21017
LJ           4.82492          3.8802        -2.44895
LJ            2.6854        -1.30254         5.49115
LJ          -2.55404         -4.0935         5.13217
LJ         -0.243473        -5.08875         3.49129
LJ           -6.0458        -2.49158        -5.10347
LJ          -5.60539        0.626476         1.28733
LJ          -4.12293         1.44036         4.88592
LJ           2.51293       -0.473466         2.01903
LJ           5.97707        -5.77657        -1.98206
LJ          -1.56006        -2.29008        -1.09998
