108
#Comment!
LJ           1.08533         1.27046        0.801535
LJ           1.23722         3.08327         -1.8884
LJ          -4.52717         6.04575        -4.77591
LJ          -3.96627         1.56033        -6.13528
LJ          -4.09485         4.98193         4.26742
LJ          -3.24406        -2.21068          5.7675
LJ          -4.70464        -5.46841        -6.36959
LJ          0.598372        0.588465        -5.86097
LJ          -2.01409         3.77519        -5.33202
LJ           5.37077         -1.0523        -5.73481
LJ           1.45259       -0.695392         2.71452
LJ         -0.350338        0.358516        -1.83073
LJ          -4.56564        0.212117        -1.49287
LJ          -4.75244         4.60286        -5.81117
LJ           3.75707        0.150342        -4.50288
LJ            1.9233         3.76182        -5.02172
LJ           3.95316        -3.17203         5.38759
LJ          -5.19485        -1.91755        0.119688
LJ           -1.6712        -1.24538          1.1138
LJ         -0.459393       -0.771233        -1.71889
LJ          -3.45782        -2.84922         3.31997
LJ          -4.10438         5.02055        0.403173
LJ          -1.62995         1.45039        -4.00609
LJ          -3.80665          6.0491         -6.1488
LJ          -1.86576        -4.11287         3.51845
LJ           4.28609        -2.34298         6.27636
LJ           -4.6691         1.25978          4.9058
LJ           1.60966       -0.393393         3.92107
LJ           3.50673        -3.11959        -4.64294
LJ           4.36862         2.58288       -0.198964
LJ          -4.39459         3.09169         4.08146
LJ           5.85915       -0.930264        -4.65259
LJ           2.13159         2.37861          1.4338
LJ          0.309694         2.64741        -4.70723
LJ          0.611306         1.92815         4.05665
LJ          -5.15132        -4.38765         1.81702
LJ          -3.62751         2.76415        -1.06584
LJ          -6.21322          5.7841         4.03342
LJ          -5.00429        -2.35923         3.65489
LJ           -3.3692         1.23787         -5.3262
LJ           4.92349        -1.87248       -0.425698
LJ          -3.38079         2.46938         2.06051
LJ          -3.91489        -2.63957        -5.92166
LJ           4.64284         1.05452         5.00598
LJ           1.45067         1.38179        -6.36041
LJ           2.46767         5.84495        -6.06848
LJ          -4.41914        -2.73658         5.39919
LJ          -5.90678        0.533004       -0.253964
LJ         -0.910012         5.49384        0.994786
LJ          -5.23619         -5.0774        -5.38761
LJ          -3.93207        -2.32094        -1.19203
LJ          -1.32344         3.79481         2.22123
LJ          -1.74781        -1.55448        -4.60738
LJ           5.56455          2.8338        -4.04399
LJ           6.15745         3.11071          3.5831
LJ          -5.83791         4.63841         5.44635
LJ           6.04877        -4.75183         5.57432
LJ          -2.08149        -3.89746        -3.96012
LJ         -0.447966       -0.402357        0.158841
LJ         -0.456751         3.91681        -3.75877
LJ          -3.48172         4.42855        -3.50884
LJ           -2.6421        -5.83124        -1.50196
LJ           4.92055        -4.95381         2.29787
LJ           5.86205         4.65103        0.277431
LJ            4.7876         3.00575        -3.26003
LJ          -1.12025        -4.40996        -6.24393
LJ          -4.48669         2.18489       -0.511918
LJ          -2.67621        -1.16385        0.806165
LJ           4.25824         1.57088        -5.88829
LJ          -4.76468       -0.579445         4.67762
LJ           4.00979       -0.702295         5.55995
LJ          -5.78473         4.24217        -5.04192
LJ           6.00781        -4.75704        -5.92851
LJ          -4.02538         6.10806       -0.133435
LJ          -4.47136        -5.88765       0.0573862
LJ           1.65494         1.98152         2.94324
LJ           5.66987        -2.91037        -1.49861
LJ           1.57471         4.75849         2.39876
LJ           4.20699          3.6022        -4.14043
LJ           -4.2949        0.241056         2.58262
LJ           -3.1443        -3.45982        -4.37693
LJ           4.22675        0.558602        -0.94595
LJ         -0.179094        -5.21222         1.72573
LJ           -5.5021         3.50727         4.81392
LJ          -2.79155         5.59565        -5.50213
LJ           2.41324         4.03047         2.50882
LJ           5.34412         3.21122       -0.327384
LJ          -4.18904        -1.42116          1.2064
LJ         -0.766891        -1.13275        -4.16723
LJ          -2.11069         6.04564         5.27078
LJ           4.35881        0.360965        0.163166
LJ          -1.69273         2.59489         6.31055
LJ          -4.31134        -4.60659        -4.68476
LJ           4.81119        -3.19459        -4.39959
LJ          -4.40091        -4.12762         5.94598
LJ            6.3314        -5.44551         3.12237
LJ           2.37685          3.7277         3.49796
LJ          -4.93767        -6.19216         4.25929
LJ          -1.38988         4.14105         0.74201
LJ          -5.20312          5.6875         3.50858
LJ          -5.46512         4.50961       -0.380406
LJ           -4.0102       -0.880986          2.1377
LJ          -2.74601         2.16425       -0.970353
LJ          -6.12323         1.60363        -4.77394
LJ         -0.299559         1.34311        -1.60107
LJ          -5.87301          4.7849        -3.62164
LJ           1.18934        -1.78205        0.890621
LJ          -2.02489        -3.19671        -2.37322
