108
#Comment!
LJ          -5.91514        0.579551         5.43846
LJ          -6.00829         1.94602         5.84634
LJ          -2.78794        -2.81653         6.12085
LJ          -6.01451        0.761094        -2.03938
LJ           3.09327         3.87732         1.46391
LJ          -5.29122         -2.3732         5.79485
LJ          -0.80672      -0.0158782        -1.80342
LJ          0.508905        -3.57474         -2.4478
LJ            4.0303         6.40328        -4.02901
LJ           -4.0645         -4.4807        -1.33573
LJ           6.24394       0.0795415        -1.99807
LJ          -3.98613       -0.616939         2.55649
LJ           4.85028        0.780045         4.41154
LJ           5.38199         4.84819          2.6166
LJ         -0.292883         4.98794         -1.6228
LJ          -3.56664         -1.3101         4.37421
LJ          0.164384         1.41318        -4.80951
LJ           5.79246        -3.29009        -1.86851
LJ            1.3642        -3.47068        -4.64319
LJ           -5.3991        -1.27319        -1.99027
LJ           2.27125         5.86062         3.34788
LJ          0.926887        -4.26951         1.98954
LJ          -3.09702         5.14074          5.1721
LJ           5.28684         3.03465         -2.9406
LJ          -4.61405        -5.80248       -0.689135
LJ           2.40351        -2.69498         4.00254
LJ         -0.483263        -1.26893        -2.59929
LJ           2.42946        -2.59585         2.38436
LJ           5.72292        -5.75318        -6.04471
LJ          -6.10885        -4.31995        -1.39399
LJ           2.72181         5.30357        -5.89636
LJ           5.28209          3.2845         4.91603
LJ           5.67891        -3.48683         4.37784
LJ          -3.17703         3.89946        -0.50766
LJ            3.0702         5.70895         5.30714
LJ           5.23582        -5.46107         3.68475
LJ          -3.02202        -2.40356         2.16485
LJ         -0.615069        0.181657         1.81254
LJ          -3.58766        -2.08094        -1.35666
LJ            -5.364         2.35893         -1.4926
LJ           1.15932         2.51519         2.47802
LJ          -1.01919       -0.282916        -3.10742
LJ           1.14588        -1.12263         1.32475
LJ          -5.69136         3.94946         3.14029
LJ           3.50043       -0.260163         4.35074
LJ         0.0317964       -0.257373         2.73472
LJ           3.35596         4.23241        -5.71745
LJ           4.16781        -5.77863         3.40622
LJ          -4.35615         6.02542        -2.10768
LJ            5.9865         5.35689         3.80986
LJ          -2.38516        -6.44336        -2.35207
LJ           3.55421          3.0604       -0.454943
LJ          0.435517         3.15294         5.66321
LJ          -3.09585         5.21471        -2.81936
LJ           -6.0371        -3.15193         3.53427
LJ          -3.60714        -1.21317         5.38976
LJ          -5.96116        -1.28421         -6.4499
LJ           -1.7089         1.09785        -1.74748
LJ          -4.48484          1.5469        -1.07879
LJ          -6.09596         1.89189        -2.95321
LJ          0.190148        -1.81467       0.0330883
LJ           1.93626        -4.53106         2.68291
LJ          -1.47396         2.17446        -2.38331
LJ          -4.61252         5.16942        -2.82313
LJ          -5.74266       -0.442471        -2.63528
LJ           1.52445          2.2779        -5.15217
LJ          -2.12762        -4.67548        -5.27569
LJ          -2.42824        0.748269        -2.70499
LJ           3.13752         5.89691        -3.09148
LJ          -3.83205           -2.49        0.425977
LJ           6.30539       -0.465558        -5.78637
LJ           4.12685       -0.109432         3.46828
LJ          0.679846        -6.08645           5.587
LJ           4.46277         1.84443         3.24822
LJ          -2.02153          2.2847        -3.25334
LJ           3.84852         6.03225         2.83234
LJ           2.15971        -3.67908         4.99405
LJ          0.914273         3.05917         3.75729
LJ           1.85292         3.71561       -0.781872
LJ           1.14858        -3.42986        -5.61822
LJ          -2.88964         3.96344        -1.83918
LJ          -2.77508         4.03463         3.31283
LJ          -2.93443        -2.90951        -4.40534
LJ         -0.376292         2.41002         4.83669
LJ          0.493376        -1.40586        -2.21438
LJ          0.021063        0.960543       -0.663891
LJ           4.03424         5.14832        -3.06103
LJ          -2.53133           4.141          -3.897
LJ          -3.35309         1.20776         -6.2896
LJ          -3.56906         -5.7273         4.33775
LJ          0.074671        0.755655         2.60466
LJ           5.08923       0.0988488        -1.16183
LJ            4.2727        -5.78025          6.0555
LJ          -1.13108         -2.3912         2.12882
LJ          -5.44367        -5.43232         3.71693
LJ          0.982463       -0.216531        -0.46016
LJ          0.261407         4.62154        -5.88167
LJ         -0.536937         3.09147        -4.36466
LJ           6.06718         2.53978        -3.61112
LJ           1.45123        -1.71689        -6.32522
LJ          -1.53304        -3.48799          5.5219
LJ         -0.614787         5.53127         3.02753
LJ           4.15881        -2.93137        -2.58331
LJ          -5.97331         3.07724          3.6719
LJ          -4.32923         1.41745         6.27586
LJ          0.675827        0.543584         1.36546
LJ           5.95764         4.07234        -2.49211
LJ          -2.13944        -4.11781        0.943609
