108
#Comment!
LJ           5.68823        -4.15082        -5.25234
LJ          -2.70515         2.95249        -4.24697
LJ         -0.620781        -3.24953        -5.98862
LJ           -3.8574        -5.28559        -1.73684
LJ           2.81578         4.83763        0.710875
LJ           -2.7189        -5.31275        -5.16266
LJ          -2.07352        -2.23073         4.63352
LJ          -2.09423         5.01618         4.36859
LJ           3.46392         5.01196        -2.12207
LJ        -0.0787681        -2.55493         4.91356
LJ           2.52523         1.09262        -2.44246
LJ          -5.04368        -1.11691         2.68389
LJ           4.86376        -4.59978         1.12429
LJ          -4.94872        -5.98796           1.389
LJ          0.402857          4.0312        -3.90878
LJ           5.12801         4.70493         3.26261
LJ          -2.30876         3.70931         4.24094
LJ           4.70459        -3.51293         1.63606
LJ          -3.65001      -0.0589582        0.758516
LJ          -1.19072        0.287077       -0.131503
LJ           0.77063         5.55571         2.44832
LJ           3.35184         6.26191        0.752934
LJ          -2.00793         4.22244         2.07974
LJ           4.93744        -1.13544        -3.76855
LJ          -5.33917         1.12849        -2.49057
LJ           2.23093        -5.96751        -2.60206
LJ         -0.773411        0.554842        -5.26375
LJ           5.43552        -2.67674         2.09185
LJ           4.04063        -2.55028         5.78042
LJ          -3.67077        -4.94134        -5.69799
LJ           1.37809        -4.30492       -0.737829
LJ          -5.13946        -4.24344        0.501667
LJ           6.23092       -0.358265         4.67462
LJ          -1.36415        -1.16867         1.42823
LJ           3.35201        -3.90096         1.19751
LJ           1.90382        -5.73527        0.324773
LJ           -3.7138         -1.6832          4.7562
LJ         -0.236667         3.98877         4.05917
LJ          -1.77107        -2.37985        -4.33154
LJ          -6.37192         5.19253        -2.86871
LJ           -1.8989         2.18506         5.94699
LJ          -2.02103        -1.35608        -2.99173
LJ           2.00486        -2.57252         1.93851
LJ           6.05729         3.27436        -1.03493
LJ          0.917623        0.483446        -5.17764
LJ          -5.62042       -0.854106         5.77671
LJ           1.71741         4.73079        -2.17346
LJ           4.60466        -5.69694        -6.00568
LJ           3.16133        -1.52339       -0.725247
LJ         -0.300149         4.33667         1.54103
LJ          -1.32332        -6.45583        -1.53789
LJ          -5.68723          4.5938         -1.7481
LJ           2.29561         5.85092         1.13005
LJ          -1.17774        -5.19166       -0.680366
LJ           -4.0473        -3.26912         5.28431
LJ          -3.53101       -0.549007         6.04125
LJ          -1.57012         -1.1948        -6.36457
LJ          -1.80388       -0.734351         5.52445
LJ          -4.86761         4.64792        -2.84475
LJ           5.71459       -0.272716        -3.26262
LJ         -0.454622        -4.07779        -1.19789
LJ           2.61086        -5.59912       -0.391438
LJ         -0.305962       -0.433855        -4.67836
LJ          -5.47298         2.93634        -2.05588
LJ           5.70987        -2.02087        -5.54934
LJ           1.79508        0.579596        -4.35069
LJ           1.91199         6.33513       -0.409943
LJ          -2.48195        -4.54369        -3.64839
LJ           4.01925        -5.86919        -3.95618
LJ          -2.94612        0.525741       -0.832847
LJ          -3.98524        0.747946       -0.552709
LJ           3.54663       -0.807052     -0.00601945
LJ          -2.39837        0.844395         6.44989
LJ           4.17466         1.84513       -0.533558
LJ         -0.946133        -1.67351        -3.30446
LJ           1.58085        -5.78101         4.56101
LJ          -3.99249        -3.58877         3.85383
LJ            1.6319         3.29721          5.7216
LJ          -6.40086         1.94144         -2.7964
LJ           1.20944         6.04931        -5.52124
LJ           -3.7065         2.28686          5.1676
LJ           5.68083        -2.71604         3.62281
LJ          -3.47124         -0.2315         2.29359
LJ          0.493092        -1.21706         6.29589
LJ          -2.42128        -3.09929          1.4682
LJ        -0.0313521        -2.88426        -3.76845
LJ         -0.855382           5.675        -5.72364
LJ            2.4621         3.66226        -4.65083
LJ          -3.74845          1.4383         6.15225
LJ           5.78971        -4.99978         5.51575
LJ         -0.542444         4.63347         5.08286
LJ           4.10265         4.05808        -1.90425
LJ           4.01062        -1.07005        -5.40114
LJ          -4.49253        -5.63042         5.52907
LJ          -2.21494         -5.7058         1.81801
LJ          -2.76417          4.2835       -0.739848
LJ         -0.100924         3.89559         5.76063
LJ          0.418358         2.89204        -5.76646
LJ          -4.34799        -3.59419        -1.08574
LJ          0.745891       -0.521902        -5.87293
LJ          -3.56119       -0.664547         4.32868
LJ          -1.42482         4.80508         1.43479
LJ          -1.86095        -3.10257          2.5003
LJ           3.74656        -4.24755        -4.36254
LJ          -6.01373         2.16566        -3.70242
LJ          -4.43145         3.02659        -4.69453
LJ          -3.97975         -1.1849        -2.60921
LJ          -2.77296         -4.8502         6.34692
