108
#Comment!
LJ          -6.34651       -0.767618         5.82364
LJ          -5.42512          2.4542         6.42627
LJ          -2.03549        -1.92618        -6.32133
LJ          -4.42652         2.08782        -2.07375
LJ           3.10494         3.81163        0.485837
LJ          -4.24314         -2.1361         5.45347
LJ         -0.801984       -0.274209        -3.45535
LJ       -0.00787377        -4.72475        -1.57439
LJ           4.19849         6.11802        -2.83794
LJ          -3.45218        -3.94047        -3.32097
LJ            4.9685        0.119851        -1.60173
LJ          -2.93442       -0.690045           3.401
LJ           4.67052      -0.0169743         2.96236
LJ          -5.83977         6.40422         2.88242
LJ          0.148932          4.8227        -1.85111
LJ          -1.29444        -2.93633         4.24796
LJ         -0.408462         2.25773        -5.74742
LJ            5.6275        -2.99926       -0.415228
LJ         -0.100182        -5.51443        -2.81997
LJ          -4.87493       -0.424698        -1.91173
LJ           1.83459         5.95408         3.05225
LJ           1.35103         -5.1115         1.54441
LJ          -3.07753         5.10215         4.51475
LJ          -6.20259          1.0355        -2.45055
LJ          -5.00888        -4.34622        -1.22323
LJ           1.57936        -2.48123         5.43004
LJ           -1.0857        -1.52086        -3.49774
LJ           2.49535        -2.13573         2.25847
LJ           5.20527        -4.96614        -6.37355
LJ          -5.37013        -4.36962        -2.25932
LJ           1.84592         5.98648        -4.40748
LJ           5.55878         4.92517          3.8745
LJ           6.36473        -4.06586         3.56769
LJ          -2.75349         2.74605       0.0805615
LJ           3.49985         5.71673         4.23993
LJ           4.43641        -4.88194         3.05996
LJ          -3.08284        -2.43681         2.58275
LJ          -1.94512        0.515838         3.18794
LJ          -2.85471         -2.3585        -1.84498
LJ          -5.67758          3.3322        -1.65081
LJ          0.264342         1.51051         3.53391
LJ          -2.07619        -0.62845        -3.70028
LJ           1.32238       -0.923284         1.04762
LJ          -5.93875         3.73016         2.12221
LJ            3.2505        0.197376         5.02634
LJ          -0.71043       0.0483227         3.43515
LJ           2.93305         4.76762        -5.17776
LJ            4.3719         -5.8885         4.39422
LJ          -5.70271        -5.62178         -1.4752
LJ          -5.11832         6.33153         3.65586
LJ          -2.43871        -5.67078        -2.57571
LJ           4.08871         3.54398       -0.764103
LJ           1.08319         3.82837         4.64056
LJ          -2.36833          5.7591        -2.03677
LJ          -5.66199        -3.29683         4.20276
LJ          -3.77348         -1.2301         5.60958
LJ           -5.2471        -1.16289        -5.55188
LJ          -1.51166        0.528829        -4.18441
LJ          -5.13236         2.33374        -1.14915
LJ          -5.79491         0.34275         -3.5082
LJ          0.330136        -1.90222       -0.280135
LJ           2.39385        -4.58824         1.94901
LJ          -1.11428         1.19754          -2.485
LJ          -4.50443          4.8199        -2.59285
LJ           6.23885       -0.874102        -2.87318
LJ          0.908651         2.31271        -4.58695
LJ          -1.15641        -4.83389        -4.48596
LJ          -3.24823       -0.966129        -2.80258
LJ           3.08699         5.65359        -3.52749
LJ          -4.50826        -1.55082       -0.289869
LJ          -6.18917         0.40732        -4.93967
LJ           4.11789        -1.23675         3.17322
LJ          0.278753         5.41523         -6.2793
LJ           4.08817         1.62958         1.45309
LJ          -1.36821         1.41986        -3.48212
LJ           2.69168        -6.43097         3.38739
LJ           3.69298        -3.92368         4.08204
LJ            0.9956         2.93355         4.02865
LJ           3.08787         3.41919       -0.788026
LJ           1.32108        -4.60088        -5.33805
LJ          -2.86745         3.58579        -3.22385
LJ          -4.21476         4.83671         3.61717
LJ          -2.02281         -1.4672        -3.00247
LJ         0.0524289         0.32647         5.69869
LJ         -0.402181         -1.8589        -1.34553
LJ         -0.223964         2.68681        -2.29595
LJ           5.98931         5.20026        -4.09348
LJ          -4.47347         3.89409        -4.22976
LJ          -3.06457         1.30919         6.34917
LJ          -4.64757        -5.54965         4.12935
LJ         -0.524942         1.60562         2.36334
LJ           5.11276         1.53567        -1.52306
LJ           4.23878        -4.58478        -6.38761
LJ          -1.85338        -2.52559         3.17701
LJ          -5.70086        -5.53295         3.17661
LJ          0.778874       -0.297596        0.519462
LJ         -0.151258         4.21043         6.29312
LJ          0.214715         2.93492        -4.23392
LJ           -5.5881         1.53259        -3.32537
LJ           1.35166        -1.28585        -5.73092
LJ          -1.62079        -2.96965         6.04263
LJ         -0.824222         5.32309         2.40587
LJ           2.85467        -3.03808        -1.30929
LJ          -6.35251         4.37245         4.95153
LJ          -4.86291         1.46898        -6.03325
LJ          -0.49412        0.529724      -0.0769464
LJ           6.09117         2.86393        -2.79647
LJ          -2.51409        -4.88192         2.11607
