108
#Comment!
LJ          -6.44905         2.76172        -2.88386
LJ           1.63146         3.26479         -1.9415
LJ           1.63498         5.77685        -3.17474
LJ          -4.81388         5.25221         2.67968
LJ            4.4075         0.57036         5.07097
LJ           6.12527         1.83031        -6.39005
LJ          0.191374        -4.26873         6.41316
LJ          -1.79082         5.56655         -1.4017
LJ           2.84871         4.16708          6.0906
LJ           6.15069        -3.19331         1.71661
LJ          -4.74063         3.18963         3.48747
LJ           3.78729        -1.13349        -0.31863
LJ           2.82616        -3.45434        0.095919
LJ           5.23384         -1.6178        -4.15647
LJ          0.187222          2.1206        -4.89029
LJ           -2.5243         3.90557         -3.1803
LJ          -3.74113         2.08401       -0.501585
LJ           5.05932        -4.18644        -1.01163
LJ           3.52159        -6.12621        -5.74617
LJ         0.0614639        -2.69697         4.79058
LJ           6.14923         2.84215         2.09378
LJ         -0.124138        0.449339         3.42337
LJ             2.689        -3.32242         2.98145
LJ           1.51387        -3.02561        -4.90141
LJ            2.1066        -4.36885         4.19045
LJ          -4.97535        0.506273        -3.12107
LJ          -2.32139        -3.17563         4.94173
LJ           2.36363        -4.75214        0.794663
LJ           4.00771        -2.35328         -5.6068
LJ           6.31312         1.43741         5.47394
LJ           6.34411        0.469434          1.5184
LJ           4.00654          -3.409        -6.26922
LJ          0.812287         4.51432         4.79433
LJ          0.135321         3.00687         1.78797
LJ          -5.89676       0.0778157         2.61351
LJ           6.00653         4.18575         2.01004
LJ          -5.62427           4.089         4.72246
LJ           1.53704         5.62273        -4.59092
LJ          0.829009         5.50087        -2.42555
LJ           -1.3466         6.19986         -3.4097
LJ         0.0415344         5.99632        -4.98803
LJ           1.26049        -5.81303        -2.42615
LJ          -1.79863        -5.79482         4.67775
LJ           1.71505         1.95546        -4.46309
LJ           -1.9314        -2.34232         4.48543
LJ          -3.78106       -0.194646        -2.59508
LJ         -0.338393         2.13614         0.13211
LJ           1.77664         5.46788        -1.59031
LJ           4.90464         1.34904        -3.95582
LJ          0.273708         6.31852        -3.25309
LJ         -0.870216         5.69199        -2.41062
LJ          -2.25863         5.53284        -4.78442
LJ           4.03955         2.98982         3.05584
LJ          -3.83793        -3.97013         2.58225
LJ           -1.3376        -6.35979         6.01421
LJ           6.23241        -2.76817          5.3474
LJ          -1.46562        -2.08063         5.51301
LJ          0.454803       -0.153501         1.05102
LJ          -3.82441         6.40521        -4.54738
LJ           1.30554        -1.94211        -4.71529
LJ           2.63898         1.07853         1.45378
LJ            1.6083        -5.84402        -3.87179
LJ          -2.05973       -0.198648        -5.82403
LJ          -3.48862        -6.05282         6.33318
LJ            4.7471       -0.246531       -0.770595
LJ          -1.31006       -0.621327         5.83528
LJ          -2.22522        -3.41716        -1.73953
LJ          -3.38705         -3.0285         2.95244
LJ           3.19875        -1.82317         -1.2012
LJ           2.23537         2.16264       -0.574773
LJ             5.395        0.402493        -6.44585
LJ          -4.50128         5.97757        -2.48429
LJ          -6.13208       -0.141505         3.89217
LJ          -6.32521        -2.99971        -1.61818
LJ           2.44399         6.08851        -3.90119
LJ          -1.73512        -4.76701         5.42029
LJ          -1.84849        -6.30786        -5.77103
LJ           2.65852        -5.21872         4.71927
LJ           2.66359         5.50689       -0.666795
LJ           1.66162        0.237053          1.7967
LJ          -2.39814         1.28215         1.52894
LJ            1.3922        -5.20541         0.34385
LJ           6.39566        0.144937       -0.941927
LJ          -6.14431       -0.201094           5.023
LJ           3.24817         6.37721         -4.4656
LJ          -3.09427        0.749494         6.40566
LJ           1.21944        -1.19095        -3.51459
LJ          -2.02453         5.13539        -3.66637
LJ           6.45559           3.041         4.78339
LJ          -6.34335        -5.09114        -2.40904
LJ         -0.733749        -3.96563         5.60956
LJ           -4.0328         4.64378         2.37757
LJ           4.02047         5.27312         5.98721
LJ          -4.24431        -4.91134         1.17091
LJ         -0.781378          4.0649        0.263855
LJ           3.64454        -5.26572       -0.128406
LJ           2.51645         5.52085         -6.3663
LJ            1.8671        -1.23322       0.0672462
LJ          -1.05446         1.74219         2.27797
LJ          0.652961         3.89698        -6.44394
LJ          -4.99231         5.09754         5.05872
LJ           5.00604         3.35685           4.144
LJ           3.93933        -6.37634        -0.30693
LJ          -5.15006         -1.7396         4.70685
LJ          -3.50237         5.80451        -6.18809
LJ           0.47646        0.346734        -3.82515
LJ           1.25896         2.20017        0.751026
LJ          -6.21218         0.22772         -2.2132
