108
#Comment!
LJ           3.30393         3.76304        0.475279
LJ           4.88644        0.490221        -3.36832
LJ          -4.76288         5.52134       -0.205287
LJ           4.15004         1.65112        -6.40491
LJ          -3.97481         2.52398         4.24931
LJ          -5.77882        -1.60956         5.83191
LJ          -1.98004        -4.74023        -6.30848
LJ          0.155645         3.08574          6.2988
LJ         0.0323728         3.83189        -5.65515
LJ            5.4251        -1.91387         -6.3581
LJ         -0.374675         1.02583        0.949532
LJ          -1.60116         3.79265        -3.96897
LJ            5.3064         2.93018         1.44474
LJ          -5.97238          4.6208        -3.56116
LJ          0.686531        -1.66959         5.80785
LJ          -4.93887         3.06169        -5.54994
LJ          -5.57755         -3.7427        -5.39321
LJ          -2.60992         3.23621         1.14759
LJ         -0.844785         2.35853         3.19186
LJ          -2.81148        -2.67261        -1.73644
LJ          -1.36958        -6.13383         3.25084
LJ          -6.03846         3.72713        0.323124
LJ         0.0923075       -0.418711        -3.35059
LJ           6.03453        -5.98293        -4.26186
LJ          -2.85946         6.21728          4.9391
LJ           2.78998        -1.64798         -3.0535
LJ           5.86186       -0.484259       -0.154448
LJ          -1.55771         2.96956         1.69172
LJ            2.8512         -4.1338         6.37289
LJ           -6.1155         1.29337        -4.60227
LJ          -2.25319         6.11561         5.98792
LJ           4.58034        -2.81488        -3.58703
LJ           1.09668         2.76837       -0.129013
LJ          -1.50527         3.26844        -6.02541
LJ           1.81378          4.4836         6.15682
LJ          -5.03487         -1.5441         3.70045
LJ           3.77337         3.33394         1.36252
LJ          -2.96155         1.70049         2.79901
LJ          -4.91072        -4.72231          5.0296
LJ          -2.21507         3.76809        -5.46413
LJ           3.57721        -1.55496        0.929692
LJ          -4.02799         2.31454         2.24812
LJ          -4.13782        -4.89716        -4.43745
LJ           3.25887      -0.0818448         4.42336
LJ         -0.339309          3.0903         4.84625
LJ         -0.760045         3.55199       -0.747746
LJ          -2.32523        -3.47239         1.09258
LJ           6.35972       -0.954172         2.49416
LJ           1.51055         5.58334          3.5246
LJ          -5.28073        -3.53797         5.22994
LJ         -0.251897        -3.60911        -4.30818
LJ          -3.07092         4.22093          3.2654
LJ         -0.343717        -1.57579        -3.93808
LJ          -3.72203         1.50182          3.9626
LJ           4.52673         2.83544         2.31521
LJ           5.55845         4.78739         1.42692
LJ          -6.37337        -5.70359        -2.69061
LJ          -1.41469          -2.321         -5.1886
LJ           1.80231         0.78564         1.25608
LJ          0.207978        -6.02031        -5.17832
LJ          -4.85395         3.46985        -1.13247
LJ          -0.99213        -4.64923         -3.1443
LJ          -6.43526         5.89027        -3.33778
LJ           1.71424         4.46456        -1.24975
LJ           3.17057         4.52018        -2.59647
LJ          -3.66911        -1.44966         6.37041
LJ          -4.03976         4.36861        -3.56818
LJ          0.883462        -2.19094        0.973848
LJ           2.73125         3.52139         5.85083
LJ          0.472382        0.190341         5.05175
LJ          -5.02429        -1.99584        -5.03176
LJ          -6.26635         3.51926        -3.79247
LJ          -5.23049         -4.4322        -4.29366
LJ          -0.69558        -5.80665         -1.5546
LJ          -4.55104         -5.4177         2.25073
LJ          -2.58866        -1.19502         1.45985
LJ          -6.45949        -4.22311        -2.88749
LJ           4.36896         5.33518         1.17727
LJ           3.70234         5.59305        -2.86793
LJ           6.11866        0.122336         3.61518
LJ          -4.53949        -4.87637        -5.76909
LJ           3.78167        0.294961         1.18437
LJ         -0.300354        -4.10623         1.42379
LJ           5.18291         0.38289         1.54207
LJ          -4.36403         4.88991        -5.47104
LJ           4.67609         5.20184       0.0218445
LJ           5.23664          1.6909        0.360354
LJ          -4.59048       0.0663045         3.26231
LJ         -0.804333        -1.70188        -2.83273
LJ         -0.731591        -5.71272         6.35304
LJ           6.10574        0.964531        -1.20014
LJ         -0.219134         4.04744         5.11234
LJ          -3.34686        -1.99983        -2.70287
LJ           4.86374         4.97667         -5.6541
LJ          -5.87334        -2.00733        -6.01762
LJ          -2.84986         5.45273         2.71034
LJ            1.7407         1.88411        0.604971
LJ          -5.45677         5.36031        -2.41818
LJ           2.39208         1.93625         1.66233
LJ          -4.48711         3.75011         1.15105
LJ          -5.87401         3.38814       -0.799649
LJ          -1.83423         4.74052         4.56855
LJ          -5.73133         2.78691        -2.43442
LJ           5.97635        -1.23773        -2.65467
LJ           2.91117         2.06561        -1.48612
LJ          -3.27046        0.927888        -2.05704
LJ          -1.37067        -4.33799        0.829955
LJ         -0.220977        0.382916        -2.37112
