108
#Comment!
LJ           3.08304         3.36296        0.485636
LJ           3.79523         1.09859         -2.9321
LJ          -4.81046         5.41099        -2.19551
LJ           5.37913         1.46133        -6.29711
LJ          -4.33034         2.63766         4.03293
LJ          -5.50657        -1.69169         5.97517
LJ          -2.32839        -4.86486        -5.38438
LJ          0.526409         2.83887         6.28078
LJ          -0.36067         3.94734        -5.26344
LJ           5.03091        -1.64282         -6.1574
LJ        -0.0599768        0.595861         1.44147
LJ          -1.29995         2.86539        -3.32005
LJ           6.09999         1.92382         1.17443
LJ          -5.25056         4.04752        -3.59488
LJ           1.46917        -1.17743        -6.43552
LJ          -3.32038         3.39172        -6.08946
LJ           6.35316        -3.20325         -5.6471
LJ          -3.32138         1.99893        0.694341
LJ         -0.670836         1.46298         2.45091
LJ          -2.31068        -2.05993        -1.50601
LJ          -1.88532        -5.18864         3.18099
LJ           -5.2574         4.20476        0.668306
LJ         -0.445238       -0.189392        -3.63101
LJ           -5.9148        -6.10275        -4.40091
LJ          -2.65123        -6.05281         4.59441
LJ           3.13571        -1.81979        -3.93082
LJ           6.00442        0.160587         1.06063
LJ          -0.25227         2.29442         1.66094
LJ           3.21926        -3.80514        -6.24815
LJ           6.13684         1.59706        -3.51905
LJ          -2.60682         5.10272         5.32661
LJ           4.97349         -2.3442        -3.79129
LJ          0.804845         2.37677        0.766339
LJ         -0.915563          2.8341        -5.79725
LJ            1.1549         3.49447         5.90737
LJ             -5.08        -2.29906         3.32477
LJ           5.54156         2.97933        0.585372
LJ          -3.24258         2.97375         3.14744
LJ          -4.89564        -3.99313         4.43699
LJ          -2.54493         2.96689         -5.1419
LJ           3.87212        -1.25187        0.566483
LJ          -4.26877         2.46859         2.87149
LJ          -3.90984        -3.72427        -5.06248
LJ           3.61729        0.214427          4.5645
LJ          0.166135         2.47356         5.29713
LJ          0.143605         4.15042        -2.11021
LJ          -2.80179        -3.26254         2.10272
LJ          -6.12023       -0.708233         1.77547
LJ          0.330623         4.96485           3.815
LJ          -5.32274        -3.78281         5.91256
LJ          -1.39548        -3.42865        -3.56135
LJ          -2.52668         4.26864         2.75881
LJ         -0.748539        -2.24059        -4.11657
LJ          -4.77733         1.66872         4.92969
LJ           5.02365         2.91221         2.69347
LJ           5.68707         4.89135         2.50962
LJ           6.31537        -5.10559        -3.89926
LJ          -1.60201        -2.67958        -5.06966
LJ           1.28333         0.28986        0.939989
LJ         0.0137391         6.19284        -4.78243
LJ          -4.83321         4.33184        -1.91465
LJ           -1.6821        -4.46492        -3.47455
LJ           6.01346        -6.35753        -2.06908
LJ           2.75281         4.61679       -0.942966
LJ           3.60039         4.05992        -2.75887
LJ          -2.93748         -2.1919         6.37416
LJ          -3.89792         3.16828        -2.48112
LJ         -0.517707        -1.64871         2.02573
LJ           3.18622          2.9967         6.16599
LJ         -0.864815       -0.654035         4.28564
LJ           -6.1828        -2.11677        -5.56611
LJ           -6.2738         3.72342        -3.86918
LJ          -5.32844        -3.91066        -4.99795
LJ          -1.54917        -6.06858        -1.19147
LJ          -4.55336        -5.49359         1.64092
LJ          -1.74621        -0.61371          2.0744
LJ           6.27279        -4.14966        -2.61848
LJ           3.84841         5.32487         1.63721
LJ           3.82437         5.15227        -3.25439
LJ          -6.23807        0.472174         3.33873
LJ          -4.60853        -4.70557        -5.51602
LJ            3.7843       -0.126998        0.571506
LJ         -0.118526        -4.52534         1.65978
LJ           6.02684         1.34961         2.02818
LJ          -3.97888         5.13352        -5.41514
LJ           3.84739         4.34056        0.524952
LJ           5.19017         2.01697        0.214977
LJ          -4.24083        0.128378         3.08003
LJ         -0.655841        -1.18138        -3.38984
LJ          -1.04218        -6.02714         6.07674
LJ           5.67616         1.03331       -0.769223
LJ        -0.0730202         4.46291         4.54406
LJ          -3.25875        -2.97833         -3.1404
LJ           4.79237         6.16907         -5.3078
LJ          -5.00483        -2.92786         6.33694
LJ          -3.81334         5.91893         2.78151
LJ           2.03398         2.16941         1.25305
LJ          -5.15338         5.47619        -3.33737
LJ           1.28602          3.0458         1.94739
LJ          -4.73888         4.46648         1.55757
LJ          -6.08826         3.46184       -0.626281
LJ          -2.42564          3.0974         3.79023
LJ          -5.13922         3.37469        -2.89736
LJ           6.21775       -0.521058        -3.19562
LJ           2.21528          1.9272        -1.58411
LJ          -3.94975         1.58815        -2.55647
LJ         -0.802821        -3.57185        0.659835
LJ         -0.539688       -0.506592        -2.05903
