108
#Comment!
LJ           5.73919        -3.91732        -3.12135
LJ          -1.10191         2.88124        -3.04641
LJ          0.620335        -4.83764        -5.22843
LJ          -3.75864         -1.5768        -4.10714
LJ           2.06711          1.9474         1.94049
LJ          -4.28084         6.00709          5.9429
LJ         -0.812439        -2.57062          5.1088
LJ          -2.09634         5.73472        -6.01432
LJ           2.98812         5.11044        -3.70239
LJ           3.13533        -2.03813         4.04872
LJ           5.26052          1.9153        0.025349
LJ          -5.99332       -0.648019         1.27895
LJ           5.21098        -4.70436         2.03362
LJ           -5.6337        -4.71298       -0.319237
LJ           -2.4893           3.619        -4.79071
LJ          -4.50313         1.76797         2.61948
LJ          -3.90688        -1.73732         1.84766
LJ           4.49438        -4.88781         1.02586
LJ          -5.22379        -3.59803         3.86413
LJ          0.445287      -0.0262995         1.76028
LJ           1.19835         4.87898         2.33789
LJ           2.93205        -3.44568         1.13409
LJ         -0.624836         2.15171         2.17061
LJ           4.46135       -0.716941        -3.85108
LJ          -3.55427         3.68509        -4.78904
LJ           4.09256          5.7399        -1.14772
LJ         -0.719151         4.23476         6.10768
LJ           4.82975        -5.39106       -0.173129
LJ           3.64823       -0.954798         5.80199
LJ          -4.48613         5.80876        -5.92365
LJ           3.22779        -2.56606        0.441307
LJ          -4.95771        -2.99724        0.442986
LJ           3.22219         2.73358         4.00503
LJ         -0.889469        -3.79191         2.05511
LJ           3.75031        -2.03308         1.14591
LJ           1.46407        -6.03332        0.776255
LJ          -4.83163         0.82623         4.46353
LJ        -0.0316871         5.51363        -6.38579
LJ           -1.2516        -4.22334         -3.0861
LJ          -4.64782         5.12503         -2.9469
LJ          -1.68034         2.25068        -5.69954
LJ          -1.17477        -2.70253        -2.90526
LJ          0.962918          -4.356         2.70717
LJ           4.65816         2.99032         -3.1431
LJ          -1.12631        0.918399        -5.58652
LJ          -5.34426        -1.68643        -2.49492
LJ           1.54725         4.17415       -0.781117
LJ           3.32014          6.3502        -4.01008
LJ         -0.129875       -0.596046        -2.09262
LJ        -0.0538843         4.55918       -0.699914
LJ          0.233506         5.44157        0.120125
LJ          -4.99419         4.08922        -2.03516
LJ           2.99051        -2.66011          2.0386
LJ          -2.54418        -4.43476      -0.0919475
LJ          -2.84213         -3.7198         6.03611
LJ          -4.02773        -1.42352         5.37555
LJ        -0.0388983       -0.459615         6.24785
LJ          -1.61803         -2.1491         4.50694
LJ            -4.384         6.34313        -3.80529
LJ           3.28771        -1.19424        -3.67631
LJ          -1.07122        -6.36405        -1.33564
LJ           1.85743        -6.43616        -2.18023
LJ         -0.669797        -1.76693         5.77111
LJ          -5.56681         3.35195        -3.48814
LJ           4.82291        -2.84281         5.16576
LJ          0.956673       -0.758219         6.40994
LJ           4.61443         3.02841        -0.43213
LJ          -1.66797        -5.10825       -0.882688
LJ           4.23954        -4.13504        -3.75401
LJ          -1.69579         1.54858       -0.779367
LJ           -1.3348        0.151791         2.78439
LJ           3.53487         2.34713       -0.621797
LJ           -5.4411         1.68092         4.79692
LJ           5.01457        0.120269        -1.26869
LJ          -0.62231         -3.4411         -3.6884
LJ           1.09849        -5.22118         4.48888
LJ           -2.6481        -3.61605         4.67793
LJ           2.00067         3.96008         -6.0688
LJ           4.79932          2.9228        -1.70607
LJ           2.00421          5.0781          5.7155
LJ          -3.92416       -0.234447         3.12769
LJ            4.0544         1.70609         2.45078
LJ          -5.12918        0.581655         2.94318
LJ             1.272        -1.02326         5.48876
LJ            -4.401        -3.61205         2.81891
LJ          -1.51996       -0.388326        -1.39957
LJ          0.873088         -5.2428        -4.19527
LJ           0.31599         3.26569        -5.04406
LJ          -4.15824         1.40878         5.39445
LJ           6.07041        -5.27571         3.86678
LJ          0.704848         5.04018         5.73549
LJ            3.0531         3.37881       -0.699408
LJ            4.1376         1.09887        -5.34469
LJ          -5.82537         5.98703         4.74316
LJ          0.468655        -6.13539        0.750081
LJ          -5.49409         -5.7632        -1.61168
LJ         -0.054067         5.31722         4.84477
LJ             1.743         4.51389         4.26775
LJ          -3.67249         6.13573        0.615263
LJ           1.04303         1.18632        -5.92514
LJ          -3.68494        0.440904         4.38222
LJ           1.06602         4.21446         1.43054
LJ          -5.64342         -5.5454         2.50807
LJ          0.843626        -3.22498        -1.29666
LJ          -4.58344         3.43071        -4.07201
LJ           6.08526         3.57751         6.11897
LJ          -1.90742         -3.5558        -1.42641
LJ          0.616737        -3.32616        -5.51573
