108
#Comment!
LJ           6.11105        -2.69892         -2.1171
LJ          -0.11458         2.90453        -2.53608
LJ           1.16295        -5.51708        -4.46249
LJ          -3.52953         0.70534        -5.90802
LJ           2.17982        0.414054         2.88196
LJ          -5.59205          4.8776         5.78566
LJ          -0.74458        -4.51617         4.70515
LJ          -1.89765          6.1004        -4.52448
LJ           2.79854         4.72994         -4.7018
LJ           4.94089        -1.92835         3.50392
LJ           6.28416         2.20179         1.14713
LJ           6.24557       -0.607419        0.239039
LJ             4.421        -4.86925         1.51776
LJ          -5.83175        -3.89275        -1.55071
LJ           -1.1812         4.16438        -4.61178
LJ          -4.16599         2.39137         1.07581
LJ           -4.4316        -5.24342        0.824042
LJ           5.00633        -5.64167        0.807884
LJ          -5.95022        -4.74271         5.35019
LJ          0.798928        -0.58043         2.98385
LJ           2.12764          4.5157         2.54762
LJ           2.62158       -0.356285         1.87923
LJ          0.335809        0.799978         2.23955
LJ           3.07964       -0.932065        -3.25437
LJ          -6.24844         5.36058        -5.82953
LJ           5.15087         4.93347       -0.928846
LJ         -0.841425        -6.37664         5.85588
LJ           4.00338        -5.66133       -0.354346
LJ           3.48411      -0.0402634         5.97389
LJ           -4.8443         4.32362         6.30447
LJ           4.02829        -1.87912        0.246581
LJ          -5.57737        -2.62476         1.13704
LJ           1.38449         4.68942         3.64685
LJ         -0.396594        -5.47509         2.53737
LJ           4.52233        -1.10201         1.79138
LJ           2.96399        -6.04983         1.32993
LJ          -5.27389         1.96031         4.31757
LJ          0.441133         5.43924        -5.57221
LJ         -0.869651        -4.87077        -2.41027
LJ           -3.3272         5.02329         -3.1561
LJ          -1.67579         3.21525        -5.75629
LJ         -0.436987        -3.66617        -2.73945
LJ          0.321794        -5.46594         3.31382
LJ           3.68379         2.53576        -3.52858
LJ          -2.22609       0.0612066         6.32129
LJ          -4.99236        -1.88287       -0.508797
LJ           1.13918         3.82565       -0.318157
LJ           2.44273          5.9235        -2.73921
LJ          -2.50878       0.0255747        -2.80681
LJ          0.212986         5.76288        -1.54723
LJ          0.653984         4.76648       -0.681187
LJ          -4.47478         4.33029        -2.74179
LJ           3.91686       -0.745128         3.09751
LJ          -3.13988        -4.11117        0.624076
LJ          -2.51911        -4.96725         6.43634
LJ          -4.81164        -1.82929          5.4053
LJ         -0.858588       -0.058731         6.21151
LJ         -0.820196        -1.74274         3.35008
LJ          -4.31889        -6.27151        -4.03335
LJ           2.99841        -1.34663        -4.47255
LJ         -0.574308         4.44318        -1.27856
LJ           1.33987         6.09241        -3.07048
LJ         -0.299018        -0.90959         5.27795
LJ          -4.57963         3.90189        -4.90546
LJ           4.05744        -2.85674         3.57915
LJ           1.08852        -1.14119         6.04169
LJ          -6.35941        0.957396        -1.36161
LJ          -1.99093        -4.69043         0.45693
LJ           3.83759         -3.2273        -3.42351
LJ         -0.980664         2.08018       -0.668772
LJ           0.47003       0.0187833         4.55891
LJ           5.40925         3.22475        -1.59041
LJ          -6.36127         1.08726         4.63079
LJ            4.9792        -1.09576        -1.33607
LJ        0.00423564        -4.37249        -4.08103
LJ          0.689356        -4.88803         4.11629
LJ          -2.49582        -4.13454         5.32727
LJ           2.47241         4.85281         6.23829
LJ           3.72575          4.2309        -1.21028
LJ           2.43709         3.94376         4.51365
LJ          -3.60239        -3.81963         2.69968
LJ           2.99953         4.58461          1.7638
LJ          -5.23053         1.31471         1.99771
LJ           4.10675       -0.532688         4.22976
LJ          -6.37772        -3.87491         4.25878
LJ          -2.63428      0.00383107        0.855492
LJ            1.2957        -3.74835        -3.58361
LJ            -1.049         2.88898        -4.82866
LJ          -3.98289         2.34199         4.47698
LJ           6.01779        -5.18881         2.33686
LJ          0.358127         5.21011         5.52399
LJ          0.868542          3.5679        0.866596
LJ            4.1322         2.44825        -5.49942
LJ          -5.77826        -5.93124         3.35503
LJ          0.536519         6.20796       -0.220066
LJ           5.83841        -4.70125        -1.67269
LJ           0.90011          6.2876         5.60439
LJ           2.45992         6.22154         2.40394
LJ          -3.35003         4.27612         1.72609
LJ           1.51797         1.78877        -6.07925
LJ          -4.43202          1.2272         5.15814
LJ           2.68408         2.95723         2.66441
LJ           5.10457         4.81705         2.17564
LJ         -0.972915        -2.64989        0.559644
LJ          -4.00957         4.33767        -3.95056
LJ           4.15633         1.82705         6.17409
LJ         -0.862645        -5.53762       -0.604301
LJ           3.03822        -2.73932        -4.70902
