108
#Comment!
LJ          -5.47888         5.35376        -4.19429
LJ           2.00982         3.88346        -2.88524
LJ             1.224         4.86002         -2.8089
LJ           5.99475        -5.46369         0.90219
LJ           4.32669         1.09828         5.51189
LJ          -5.40757         1.62045        -6.43562
LJ          0.511964        -2.37663         6.03604
LJ          -2.29938         4.91357       0.0389841
LJ              2.94         3.68781          5.3009
LJ          -6.16808        -3.95877        0.784811
LJ          -3.41161          3.0139         3.38661
LJ           3.53871       0.0764639         1.09478
LJ           1.62021        -3.21094       -0.645658
LJ           3.81588       -0.735704        -5.41526
LJ          0.070455         0.61802        -5.11682
LJ         -0.753284         4.68223        -4.95424
LJ           -2.1654         1.35953        -1.05466
LJ           4.80222        -2.68363        -2.77491
LJ           1.09413         5.36002        -3.80722
LJ          0.834755         -1.7004         4.58661
LJ          -4.00014         2.40017         2.03915
LJ          -2.11036       -0.617941         4.43704
LJ           3.30066        -5.64168         3.98764
LJ           1.03424        -3.24663        -5.53995
LJ           0.82235        -3.64364          3.4478
LJ           -3.1341        0.043282        -6.13505
LJ          -5.23724        -2.33256         5.31054
LJ           1.18213        -3.35121        0.804744
LJ           4.45272        -1.42866        -3.37073
LJ          -6.05656       -0.268944         5.40105
LJ          -5.63665        0.686385         2.27636
LJ           2.55254        -5.85957        -5.09662
LJ          0.799403         4.87706         3.28782
LJ           1.54714         2.94625         2.37063
LJ          -4.50696        0.726418         2.11943
LJ          -5.75367         2.98373          2.7331
LJ           6.41809         5.49516         5.96564
LJ           2.68752         4.92676        -3.46433
LJ             1.102         3.73209        -2.22651
LJ          -2.16626        -5.93854        -3.97224
LJ         -0.631379        -5.45735        -4.13519
LJ           1.54009         6.11815        -3.23306
LJ          -2.47697         -5.2681         5.70205
LJ           1.23326         2.36032        -4.65413
LJ          -0.50012        -2.52595         4.13796
LJ          -1.87701       0.0226742         -3.4498
LJ         -0.423413        0.648259         -1.3644
LJ           2.27974         5.13042        -2.29725
LJ           2.20408         1.94333        -3.94693
LJ           2.46602        -6.31141        -4.04019
LJ          -1.93324         6.43241        -2.87422
LJ          -1.04895        -6.40063        -4.75568
LJ           4.90157         5.31249         3.97674
LJ          -3.82428        -3.42182         3.88793
LJ          -1.42637        -5.93939        -6.13247
LJ           5.26342        -3.08704         5.26914
LJ          -1.13746         -3.1246         4.94055
LJ          0.779618        0.564411       -0.360762
LJ          -2.72767         5.68788        -5.06285
LJ        -0.0119588        -3.02184         -5.9201
LJ           3.17616       -0.816169         3.72172
LJ           3.31625         5.60576         -2.5585
LJ          -2.88573        -1.26434        -4.85194
LJ          -3.84388        -4.45884         5.83191
LJ           4.92566      0.00322898        -3.46836
LJ          -2.91965        -1.28096         5.36512
LJ         -0.163958        -5.52844        -1.32562
LJ          -4.29934        -2.42064         4.12438
LJ           2.19186        -1.60211       -0.156267
LJ           4.66403       -0.298956        0.228307
LJ           5.99276        -2.59251        -5.15374
LJ          -2.89484        -5.57878        -2.86986
LJ          -5.73589        -1.22075         5.77778
LJ          -5.36183        -3.84319        -1.86681
LJ           3.70218         5.89401        -3.75086
LJ          -2.32081         -5.2877        -5.94969
LJ          -1.68624         5.56816         6.02371
LJ           1.96452        -2.55061         3.07436
LJ           3.04296         5.89292       -0.855376
LJ          0.696797        -1.33221        0.079768
LJ         -0.859947        -2.52441         1.19597
LJ         0.0807821        -3.31993         0.75207
LJ           3.86942        -2.53828        -1.84034
LJ           4.92741        0.272427         5.74037
LJ           4.19289         5.76533        -4.87416
LJ          -3.76055         1.75654        -2.85539
LJ          0.733253        0.490487          -3.531
LJ          -1.83174         5.75041         -4.3119
LJ           5.83122         5.09359          4.9117
LJ          -5.64657        -5.32855        -4.27956
LJ          -1.50532         -4.1148        -5.68059
LJ           6.27051         4.04395         2.79967
LJ           4.24372        -5.76811         5.36575
LJ          -3.47797        -4.41413       0.0413326
LJ          -2.34058          3.5034         1.79905
LJ           2.81651        -2.31623        0.690391
LJ           3.09948           6.328        -5.43562
LJ           3.98083       -0.491682        -2.05786
LJ         -0.990404         3.05377         1.62254
LJ         -0.506048         3.70845        -4.56858
LJ          -6.24866         5.98023         4.38414
LJ           6.27855         4.44278         4.21868
LJ           5.11377         6.36882        -2.34439
LJ           5.78342       -0.851824         5.81537
LJ          -4.09144        -6.13986         5.11916
LJ         -0.835572        -1.03397        -2.43775
LJ           2.19705        -1.27798         1.41322
LJ           6.38627        0.589123      -0.0751202
