108
#Comment!
LJ          -3.83956        0.506716         3.10856
LJ          -5.73728     -0.00513189         3.64066
LJ          -4.16097        -5.73135         3.49656
LJ          -4.49093        0.793045        -4.03002
LJ        -0.0688579         4.19251        0.758063
LJ           4.95013        -2.77033        -6.32509
LJ         0.0260065      -0.0826752        0.449618
LJ           1.47814       -0.376623        -3.97862
LJ           1.97742         5.63902        -5.33558
LJ          -6.04787         5.33156         4.29408
LJ           5.49944        -4.44976        -3.20727
LJ           4.82897        -1.68691         0.75973
LJ          -4.40631        0.645448          5.3831
LJ            2.8904        0.891921         3.36316
LJ          -2.00615         4.73161       -0.605205
LJ           3.64026         3.75252         5.23797
LJ          0.733474        -0.91129        -2.05396
LJ          -6.09665        -4.67804        -5.31551
LJ           5.93106          1.4408         6.17116
LJ           5.57202        -3.86868        -1.85847
LJ           4.81709         4.96544         4.20912
LJ         -0.273301         -0.9888         3.60221
LJ          -3.25112         5.27318        -6.32336
LJ           2.00032         -5.9143        -4.61307
LJ          -2.90636        -4.97568       0.0176667
LJ           5.04637        -3.00678         4.07217
LJ        -0.0547759        -1.00464         1.21184
LJ           3.57839         6.00311        0.421482
LJ           5.86237         4.87687        -5.80821
LJ           4.73929        -4.26235        0.959705
LJ           3.08851         3.95948        -5.25847
LJ           4.41318         1.59423        -6.46114
LJ           3.61351        -2.91385          4.6812
LJ          -6.11279         4.79278         1.60302
LJ           2.34552        -4.61855         3.97439
LJ           5.66946         5.32906         5.02885
LJ          -2.27439         -2.5234        0.544519
LJ           5.53784         0.23901         2.69706
LJ          -6.17298        -1.29694       0.0369214
LJ          -3.10006     -0.00993864        -1.04638
LJ            3.2043         4.42644         1.01876
LJ          0.554571         1.63724         1.51774
LJ         -0.444073      0.00118132         1.55564
LJ          -5.29182         4.67224         6.03306
LJ           2.03749        -0.46971         2.38728
LJ           3.19442       -0.507719        0.357179
LJ           5.80593         1.89497        -4.88345
LJ           5.74471         -4.5902         2.11667
LJ          -5.36035         2.93729        -3.21204
LJ           1.93324         4.38057         3.91051
LJ           1.32498         3.89621        -3.81985
LJ           1.48907         2.27935        0.363363
LJ          -2.17207        0.828583        -5.84414
LJ          -4.41999         3.48057        -3.40997
LJ           4.80983        -2.94847         2.83913
LJ          -3.56387        -1.52813         6.36158
LJ           4.66076        -1.34908         4.17386
LJ          -1.24806         3.04806         3.71957
LJ          -3.73832       -0.398625        -1.91367
LJ           4.03144        -6.09353        -2.48539
LJ         0.0429538        -4.12091        -1.15208
LJ          0.549603        -4.28415         2.55186
LJ          -2.10114         5.85049        -1.65609
LJ           -5.2943         4.35798        -4.71071
LJ          -4.39481         2.46036        -1.52397
LJ           2.10053         2.76405        -5.90552
LJ           -2.3296        -5.69256          4.5656
LJ         -0.658584         4.96351        -4.21683
LJ         -0.392581        -2.25736        -2.69945
LJ          -1.23057        -4.83033         2.29937
LJ          -6.18292        -1.68679         4.87879
LJ             5.234         2.19298         5.88795
LJ           1.75927        -2.25141         4.81744
LJ           4.88076         4.36903        -5.22533
LJ          -3.06204         4.54247        -2.68247
LJ           5.42597          2.0212         2.51917
LJ          -1.55801        -4.52488        -5.53531
LJ          0.515439         4.33115         3.54358
LJ         -0.649584         4.22742       -0.506002
LJ         -0.937617        -1.80348         2.65627
LJ         -0.987558         4.54605        -1.66452
LJ           1.69374         1.53283         2.95551
LJ           5.83262        -5.11653         5.40708
LJ         -0.123264         4.70652         4.46038
LJ            2.9938         1.09114        -4.00158
LJ           1.38767         -3.1602        -3.04177
LJ           2.27734         3.11579       -0.395242
LJ           1.80356         4.79873        -2.35147
LJ          -4.25777        0.928925        -5.87962
LJ          -1.04016        -6.01709         5.06095
LJ         -0.232741       -0.263206         5.74412
LJ           4.54048        -3.09278       -0.171108
LJ           5.03427         3.48045         5.00686
LJ          -1.07378        -1.31479        0.532034
LJ          -4.26635        -5.23622          5.3386
LJ           2.37733         2.71634        -1.40913
LJ           1.73721         5.63492        -3.86906
LJ          -2.41369         3.24087        -3.65747
LJ           4.86047         4.43893        -2.27686
LJ           3.32829         -1.0046         4.98838
LJ          -3.27188        -4.72824         5.04003
LJ        -0.0227599        -3.13745         3.21717
LJ          -5.09708        -2.39028        -6.19062
LJ           -5.4772       -0.396325        0.353167
LJ          -3.96495         1.28218         3.98497
LJ            3.0709       -0.956434         1.72618
LJ           6.28142        -5.97249       -0.998241
LJ          -1.25454        -1.51884        -1.78685
