108
#Comment!
LJ         0.0599773        0.476261         1.44855
LJ         0.0672358         4.17735        -1.48793
LJ          -4.40879         6.21451        -5.93099
LJ          -3.11266         3.06262           -6.28
LJ          -3.78843         5.07655         4.94436
LJ          -1.72417        -2.22638         5.84365
LJ           6.31249          -5.509         5.70419
LJ           1.07055       -0.204213        -5.80722
LJ          -2.69581         3.78188        -5.64158
LJ           5.83445       -0.472304        -6.40758
LJ           2.09877        -1.20936         3.52507
LJ          0.292884       -0.299385        -1.68543
LJ          -4.11381       -0.267238        -2.46982
LJ          -3.60186         5.00439        -5.80274
LJ           5.13596        0.892973        -3.59569
LJ           4.84498         3.49702        -3.50085
LJ           3.30533        -3.42295          3.8053
LJ          -5.51751         -3.9645        0.374379
LJ          -2.31975        -2.86854         1.12526
LJ          0.383907        -2.39936         -1.6449
LJ          -4.23793        -1.61125         3.64498
LJ          -3.78004         4.06015        0.649757
LJ          -2.23832         2.28615        -4.16071
LJ           -3.7507         5.16779          6.0636
LJ          -1.55534        -2.84499         2.81996
LJ           4.61294        -2.26502         5.13472
LJ          -3.63246        0.948346         5.63079
LJ           2.18016        -1.69412         4.87334
LJ           4.19186        -2.70068        -3.50214
LJ           4.10451         3.56766         1.76363
LJ          -5.87327         3.18124         5.41671
LJ          -6.45617       -0.107624        -4.72855
LJ           2.15127          1.3225         1.54719
LJ          0.694712         2.82252        -4.25336
LJ          0.475934        0.868248         2.92583
LJ          -5.22523        -5.31987        0.532709
LJ          -1.28314         2.92027        -2.29151
LJ           5.74319         -5.6548         4.91857
LJ          -5.41882        -2.23342         2.82536
LJ          -2.72551       0.0620257        -4.36037
LJ           5.06682        -1.31336       -0.316621
LJ          -2.85256         1.90211         0.40578
LJ          -3.53081        -2.34183         5.88972
LJ            5.1824         1.44176         5.36608
LJ           1.75237        0.707867        -5.40769
LJ           3.63428        -6.18374         4.66169
LJ          -5.57135        -2.95686        -5.61746
LJ           5.91889       -0.716259       -0.779766
LJ          -1.54548         5.68019       -0.585315
LJ          -6.08056        -5.75553          -5.364
LJ          -5.12047         -1.6459       -0.780041
LJ         -0.895791         3.60611         2.40225
LJ          -2.15527         -1.2508        -4.67645
LJ           5.98842          2.9002        -4.08183
LJ          -6.34146         3.43278         3.85989
LJ          -5.88695         5.21334         5.66493
LJ           5.81143        -4.54588         4.25552
LJ          -1.90679        -4.78858        -3.23657
LJ         -0.992926       -0.802006       -0.550233
LJ         -0.516121         2.35459        -3.49138
LJ           -2.0495         4.68484         -4.1493
LJ          -2.89609          6.1998        0.205489
LJ           4.04486        -3.98964         4.86233
LJ          -5.05312         4.32477        0.748615
LJ           3.02731         3.11641        -2.18654
LJ         -0.217948        -5.62807        -5.97695
LJ          -3.31706         3.49359        -0.53584
LJ          -2.60549        -1.72939        -1.55119
LJ           4.86705        0.688551        -5.34571
LJ          -5.82097         1.77772         4.87941
LJ           2.31744       -0.160537         5.07493
LJ          -5.68996         4.41229        -6.26504
LJ           5.10173         6.36038        -6.22563
LJ          -5.26447         6.16495         -0.4436
LJ          -4.79808        -5.61074       -0.496834
LJ           3.88448         3.56502         3.23101
LJ           5.79268        -2.97513        -1.56707
LJ           0.14053         4.51238         2.76765
LJ           5.00514         2.37434        -3.86032
LJ          -3.88345        0.723624         2.58385
LJ          -2.81953        -3.19718        -3.89355
LJ           4.88744        0.860782        -0.69384
LJ         -0.238377        -5.58492         1.75065
LJ          -4.18569         4.15219         5.48772
LJ          -1.42461         5.27944        -5.84856
LJ           2.36579          4.5817         3.20831
LJ           4.84906         3.68315       -0.575071
LJ          -5.20665        -2.49154        0.752122
LJ          -1.08814        -1.08937        -4.54305
LJ          -2.25943         5.86225         5.00362
LJ           3.41735       0.0799513       -0.464453
LJ          -1.87695         1.45571        -5.40985
LJ          -4.45151        -3.67366        -5.29025
LJ           3.95025        -1.37515        -4.08507
LJ          -4.59974        -5.67252        -6.11973
LJ           5.12957        -4.77392         3.13793
LJ           2.51411         4.29323         5.08446
LJ          -4.86237         -5.8787         1.72794
LJ          -2.71693         4.57496       -0.366781
LJ           6.35059        -5.87854         3.81606
LJ          -4.60812         5.32669        0.135945
LJ          -5.32986        -2.98049         2.05205
LJ          -1.88295         1.33103        0.130817
LJ          -5.94242         2.97221        -5.62103
LJ          -1.98908         2.43548        -1.13101
LJ           6.20587        -6.19357        -4.39358
LJ           2.24457       -0.725425         1.07705
LJ          -3.24649        -4.41608        -2.57967
