108
#Comment!
LJ          -2.72486        0.227029         1.78745
LJ          -4.03412        -2.84506         1.36573
LJ          -4.98747         5.71916         2.62218
LJ          -3.48341         1.35965        -4.94153
LJ          -2.10197         4.25167         2.12141
LJ           2.99585        -2.51429        -6.42513
LJ           1.41861        -1.91699         2.82546
LJ           2.24753         1.32576        -5.09875
LJ          0.699042         5.82907        -4.75675
LJ          -5.65949         3.12912        -6.28213
LJ           4.57785         -3.3886        -5.08142
LJ           2.20282        -2.71356       -0.613348
LJ          -2.87626       0.0946568        -6.45203
LJ            1.5091        -2.33843         5.08072
LJ          -2.66546         3.96605       -0.809427
LJ          0.656546        -5.43729        -4.97743
LJ          0.970301        -2.49806        0.018457
LJ          -5.87088        -5.13025         5.27896
LJ          -4.61526         3.33524         2.67771
LJ           3.81385         6.43554        -2.17636
LJ           6.10069          2.9318         4.37737
LJ          -2.71045          0.8182         3.03517
LJ          -3.57871         5.39748        -5.40432
LJ         -0.177832        -3.36266        -5.16183
LJ          -1.72006        -3.17188        0.526514
LJ           5.84201        -3.32269         3.61473
LJ         -0.546652       -0.222051         2.59705
LJ           5.08141        -5.52733        -2.40762
LJ           5.06019         2.55791        -5.10458
LJ            4.7079        -5.79467         4.08376
LJ           4.33477         2.59634        -6.44574
LJ           4.79941         1.78101        -6.05982
LJ           2.92919        -2.18558         2.95139
LJ           4.62801         4.24255         3.63766
LJ           1.40551        -2.85735         2.22884
LJ           4.46052         4.39668         -5.6993
LJ          -1.03958        -2.39737       -0.781984
LJ          -3.55281       -0.833874         4.47616
LJ           5.57527        -1.02864        0.929563
LJ          -1.59656        -1.58392        -2.25702
LJ           3.45231         1.05544           1.481
LJ         -0.365572         1.75806         5.18718
LJ          -1.58791      -0.0282728         1.71324
LJ           -5.5626         4.37768        -5.47381
LJ            2.4673       -0.333939       -0.824287
LJ           4.24225       -0.641637         1.61629
LJ           -6.0487        -0.21023        -3.50732
LJ           5.81355        -3.71606         1.02487
LJ          -5.35898          5.2849        -4.22064
LJ           3.33774         4.74902         5.28356
LJ           3.38633         2.21228        -3.23018
LJ         -0.400507        0.733134         1.79616
LJ          -3.67551       -0.896883        -5.94627
LJ          -5.71388         2.45835        -3.58453
LJ            3.7731        -4.71188          4.3231
LJ           -4.1824        -2.40487        -6.35427
LJ           4.40457        -2.07144         3.43441
LJ          -1.70275         4.56593         -6.3811
LJ          -2.45786         -1.0511        -1.62362
LJ           2.28612        -2.86164        -2.15655
LJ         -0.273407        -6.00489        -2.66817
LJ         -0.894399        -4.55889         2.27032
LJ          -1.01848        -3.79045        -2.21057
LJ          -5.05106         3.48926        -3.60464
LJ          -3.67697         3.31055        0.281779
LJ           1.28977         3.59045        -5.64773
LJ          -2.06422         6.44545         2.51237
LJ         -0.547955        -4.80957        -5.24671
LJ            -1.887       -0.918761        -4.02233
LJ           1.05348        -5.63817         3.44104
LJ          -4.58652       -0.781605         3.41125
LJ           5.77939         3.18503         5.45138
LJ           2.64694         0.29031         5.24619
LJ           5.80802        -6.22062        -3.20663
LJ           -3.0828         5.01782        -3.00416
LJ          -6.40277        -1.69219         3.08256
LJ          -4.07838        -5.30972         -4.1305
LJ          -1.77433         5.10952         4.07483
LJ          -2.28094         2.77514        -1.43941
LJ          -1.65835      -0.0696448         3.75607
LJ          -2.10328         6.09289        -2.38659
LJ           4.45302         0.40144         2.10376
LJ           2.81562        -6.16904         3.24662
LJ         -0.648925         4.61419         4.03274
LJ           3.59629         3.22002         -5.3847
LJ           1.85445        -5.21625        -6.18421
LJ           2.40767         4.20265       -0.659432
LJ           3.68053          5.1747         -2.1911
LJ          -4.16287        0.400224        -5.90444
LJ          0.468929        -6.00027         5.59262
LJ         0.0590922        -0.52369        -4.28355
LJ           3.38037        -2.43065      -0.0979222
LJ           5.64922         1.07917         5.54286
LJ         -0.232869        0.101276        -1.63096
LJ           -4.3791        -6.22715        -5.93977
LJ           3.16695         5.17506       -0.500998
LJ           3.15924         6.16602        -3.34843
LJ          -3.66341          4.5475        -1.84074
LJ           4.76463          6.0185         -1.9359
LJ           4.11354       -0.650974         3.52863
LJ          -2.47972        -5.74618         3.57595
LJ           1.97759        0.964922         2.69611
LJ          -2.51423        -1.74479         4.24725
LJ          -5.06342        -2.81322         -1.9176
LJ          -3.27233         1.13828         2.15509
LJ           3.18191       -0.945263      -0.0535872
LJ          -6.08375         5.16414         1.60865
LJ          -3.14304         2.38614          -2.444
