108
#Comment!
LJ         0.0272085         6.32127         5.60316
LJ           -3.6722        -6.09564         -2.4891
LJ            -3.607        0.134535        -2.63017
LJ           4.92258        -2.83173        -4.47106
LJ          0.624733         4.77833         4.65551
LJ          -3.86551        -1.01523        -5.99586
LJ         -0.891169        -3.58943         4.37252
LJ          -4.52889         1.35506         4.92003
LJ            -0.235        -5.20444         5.37313
LJ           1.95107        -2.37415         3.57205
LJ          -1.06142        -5.07302        -3.92318
LJ          0.414301        -2.79646         2.91943
LJ          -5.05214       -0.860674          5.0775
LJ          -1.24631         4.00631        -6.37343
LJ          -5.97902        -2.52342        0.189668
LJ          -2.26019         6.44856         4.51898
LJ           2.15691        -2.03886         2.43171
LJ          -4.62964        -1.08859        -5.34212
LJ          -4.98872        0.371971         1.18596
LJ          -2.00948        -4.14557        0.393275
LJ          -3.17391         5.62772         6.42835
LJ          -4.48023          5.5122        -2.24298
LJ           1.67755         4.36983         5.40513
LJ          -5.45293        -5.70414        -1.01013
LJ         -0.217971         2.21377        -2.65764
LJ          -3.64393        -5.96759         -1.0655
LJ           1.22079        -4.69336         3.94576
LJ           -4.7147         1.08342         1.96398
LJ          0.766426        -3.65928         4.74928
LJ           2.11568         3.79666        -1.42357
LJ          -2.34058        0.619479        -4.19506
LJ           2.06423         3.56773        -4.73885
LJ         -0.143955         2.76163         5.63997
LJ           1.29361        -3.22371         5.55046
LJ         -0.755821         4.64392        -5.27541
LJ           4.90591         5.33273         4.35985
LJ            1.9392        -4.52316        -1.80125
LJ         -0.154297        0.456257          2.1436
LJ          -3.60906         5.97046       -0.235421
LJ          -1.56498        -4.32929        -4.74062
LJ           4.86522         4.26205         4.15396
LJ          0.182417         4.16665         2.86482
LJ          -5.31662         5.31353        -4.07258
LJ           1.67515       -0.855417         2.98634
LJ          -3.16833        -6.23375        -3.68725
LJ           -4.1498          4.6766        -5.88714
LJ           4.60748       -0.241066         4.34307
LJ            5.5114       0.0437526         5.15664
LJ           3.55619        -0.79522         -3.7243
LJ          -3.69363        0.024206         2.13701
LJ            6.1645         6.07835        -4.04076
LJ           1.32016        0.900308         4.69273
LJ          -3.00171         1.45295         -4.5129
LJ          0.101147        -4.71927        -3.16431
LJ           1.16178        -3.52163        -6.02551
LJ          -3.41553        -5.56697      -0.0217356
LJ           5.38679         4.57937        -1.55368
LJ          -4.58566        -2.23246        -6.05618
LJ          0.346711        -1.14628        0.677081
LJ          -5.77264        -4.76813         3.02378
LJ           6.29342          6.2905         2.71216
LJ           2.24298         5.00348         3.47508
LJ           4.87441        -1.01652        -3.63513
LJ          -2.04815         3.54148       -0.580358
LJ           1.55895         3.01487       -0.392485
LJ           3.30267        -5.35234         5.76334
LJ          -5.56733         5.16174         4.81425
LJ            1.9247         -3.8908        -3.10623
LJ            1.1148        -3.39458         2.94646
LJ           4.67145         6.42442         5.56085
LJ           1.38012        0.264839         2.69067
LJ          -4.66934        -2.26328        0.476197
LJ         -0.136709            4.84       -0.665189
LJ            5.6329         6.06497        -1.93739
LJ         -0.861773        0.568095        -3.48353
LJ          -2.61989          5.5147        -5.03279
LJ          -2.63632        -5.74698        0.783027
LJ          -5.45051       -0.163034        -5.44376
LJ           -4.0762         6.10088        -1.45244
LJ            4.6846        -4.97433        -5.47858
LJ          -6.12317        -3.17013        -2.20787
LJ           4.89538         4.23701         5.82617
LJ           3.04622         4.60201        -2.54499
LJ          -5.19601         -4.8745        -3.10408
LJ           5.05539         5.18043         5.49569
LJ           3.69679        -5.53067        -3.06194
LJ          -3.51344         3.61475         5.63741
LJ           3.05919        -0.73655        -2.75038
LJ           5.95868        -1.85234         1.05346
LJ            2.0719        -1.59977         5.12357
LJ          -2.44937         1.51384        0.837625
LJ          -1.18211         -6.0333         3.84131
LJ         -0.171322        -3.68418         2.28283
LJ          0.264271        -5.56352         3.97557
LJ          -2.72758        0.658425         4.13846
LJ           1.95257       -0.150332        -4.69831
LJ           1.26212         4.18998         2.74386
LJ          -1.13422         3.39385        -4.00028
LJ           5.02808         2.68499         5.59926
LJ          -3.68186         2.93321         2.19555
LJ          -2.54359        -3.76177       -0.389449
LJ          -1.13165         2.84011        -6.18941
LJ           3.98792        -5.90447        -1.88511
LJ           5.92917        -0.48178         0.60376
LJ           4.36883         6.42004        -3.63428
LJ           3.18865          2.9341       -0.898034
LJ          -3.94502         5.09132         2.54752
LJ           -2.5467        0.325981          5.6874
