108
#Comment!
LJ          0.581905         5.95488        -4.64448
LJ          -3.55347        -5.21176        -4.75632
LJ          -4.23939        -1.55442        0.694914
LJ           3.23865        -3.37201        -4.10359
LJ          -1.25631         3.33489         3.97878
LJ          -4.97786        -1.57169         6.00082
LJ           1.49156        -2.80938         5.24058
LJ          -2.86259         1.83907        -1.19813
LJ           -2.4168        -5.37852         6.15928
LJ           4.03101        -2.35596       -0.681901
LJ         -0.521375         5.86276        -1.99218
LJ        -0.0796979        -2.01603         0.36734
LJ          -3.17401         -4.4861         2.15547
LJ           1.92967         4.04449         -4.6398
LJ          -5.19236        -4.62417         1.83788
LJ         -0.446684         3.39349        0.850886
LJ          0.325651       -0.652614        -2.49838
LJ          -3.38888       -0.428753       -0.857344
LJ           6.23917       -0.213536          3.4817
LJ          -5.56485        -2.44547          5.6863
LJ           -2.0062         4.14914         5.67034
LJ           5.88705         5.21094        -1.41205
LJ           1.59685         2.80396         2.36513
LJ          -2.57587        -3.45978         1.07073
LJ          0.344209        -3.64928       -0.261185
LJ         -0.592754        -2.78557         1.60621
LJ           4.76868        -2.85083         5.77511
LJ           1.60614         1.28844         5.31084
LJ          0.883768        -4.62655         4.15187
LJ          0.359278         1.47321         1.84782
LJ          -1.28394        0.304422         -6.4385
LJ          0.766977         -5.6011        -3.14199
LJ           1.03837         6.34329        -5.87658
LJ          0.883643         -4.0507         6.13983
LJ          -6.29996        -5.37308         6.21845
LJ             5.629         3.81787         5.32705
LJ          -5.77625       -0.981138        -5.07745
LJ          -1.01098       -0.755177        0.878279
LJ          -3.87019        -5.84677        -1.74561
LJ          0.547459        -5.53247        -5.98353
LJ           4.01066        0.307918         3.09194
LJ          -1.16706        -5.63476         3.30194
LJ          -4.97328         3.58126        -2.81995
LJ           1.59967        -2.15137         2.45018
LJ          -2.56644         3.70271         -5.1956
LJ          -1.63519         1.51811        -4.13582
LJ          -4.19293         2.74731         5.07462
LJ           6.31661        -3.17643         6.09428
LJ          -2.40235        -3.18216       -0.834191
LJ          -4.47629        -1.78106          2.4427
LJ          -5.78506        -5.13016        -5.35641
LJ          -2.19277         4.57658         3.78725
LJ          -1.24483         2.81379        -3.92011
LJ         -0.602283         5.73388        -3.22945
LJ        -0.0992895        -1.38856          3.4343
LJ          -4.57579        -1.43555       -0.773171
LJ          -4.29208         6.12193        -5.82796
LJ         -0.892099       -0.971841        -4.50927
LJ           1.36911         1.25993          1.5865
LJ           -4.3799         -4.6507         2.55237
LJ           6.24213        -3.70665        0.788363
LJ            2.0689         1.80169        -1.09858
LJ           5.92732         2.79628        -3.40089
LJ          -1.00606         1.50142        -2.50745
LJ         -0.170984        -2.08257        -1.69509
LJ           5.05044          4.4663        -5.82168
LJ          -5.38205         1.57099        -3.66477
LJ            4.2476        -4.21411         -5.3733
LJ           1.03878        -3.67424         4.69711
LJ           1.45081         -5.3018        -6.35095
LJ          0.431196        -2.01333         -0.7607
LJ          -5.37354        -2.47476        -2.09449
LJ           -3.5163         6.35591        0.783642
LJ           2.30591        -5.68008       -0.554331
LJ          -3.63639        -4.02816         6.37771
LJ            3.3297        -5.67492        -2.76154
LJ           -4.3925        -6.25902        -2.87039
LJ            6.3433        -2.32389        -2.00029
LJ           6.25102         4.54091        -2.18843
LJ           5.39417       -0.616447         4.34989
LJ          -2.26945        -6.16628        -4.08496
LJ           3.13943       -0.357449         6.28712
LJ          -4.26525        -4.58498         0.96179
LJ          -2.59499        -3.38772        -2.58122
LJ          -6.30241         5.01214        -5.70236
LJ           5.05115         5.53589        -4.46408
LJ            2.6338        0.752779         1.15176
LJ           3.88117         3.43628       -0.233734
LJ           2.60403        -3.29062        -1.76329
LJ         -0.865008        -1.90886         5.30545
LJ          -4.93206         2.53957        -2.58356
LJ          -3.18392        -5.91776        -5.43563
LJ         -0.975051        -1.54697         2.47543
LJ           3.21776        -3.87671         4.72826
LJ          0.976913        0.680276         6.26627
LJ          0.349947        -2.98534         -1.0785
LJ           1.65446        -2.99408         1.50584
LJ           1.72733         2.31196        -2.12829
LJ           2.59238         1.29758        -5.87418
LJ          -2.33107         3.22949         2.83768
LJ          -5.58508        -1.03802        -1.40766
LJ          -1.01087        -2.72585        -5.97977
LJ          -5.67496        -1.86568       -0.358788
LJ         -0.193643         4.08284       -0.379865
LJ           5.59258         5.82621       -0.518147
LJ           1.42115        -4.63017        0.943507
LJ          -4.60182        -2.84643        0.337814
LJ           2.14651       -0.710822        -6.19136
