108
#Comment!
LJ           5.60538        -4.08359        -4.45744
LJ          -2.09916           2.907        -3.72293
LJ      -0.000349828        -3.84697        -5.68842
LJ          -3.98454        -3.81891        -2.27005
LJ           2.47743         3.97587        0.953357
LJ          -3.07862        -6.05947        -5.89943
LJ          -1.74675        -2.63127         4.37943
LJ          -2.19918         5.30714         5.37368
LJ           3.18256         5.32654        -2.66005
LJ           1.20416        -2.40188          4.5159
LJ           3.47293         1.73003        -1.66807
LJ          -5.39826       -0.781884         2.28568
LJ           5.32623        -4.84845         1.45317
LJ          -5.28453        -5.54873        0.777619
LJ        -0.0350394          3.6773        -4.55291
LJ           -6.2818         3.24787         3.14356
LJ          -2.93362         1.70761         3.37318
LJ           4.31017        -4.10605         1.61478
LJ          -4.24516        -1.82182         1.92886
LJ          -0.53131        0.166516        0.601035
LJ          0.705611         5.24641         2.20253
LJ           3.39382        -5.70904        0.707018
LJ          -1.50254         3.39276         2.12315
LJ           4.66491       -0.858398        -4.37809
LJ          -4.53764         2.04589         -3.2769
LJ           2.91366         6.07741        -2.01647
LJ         -0.200343         2.33847         -6.1604
LJ           5.54548        -3.54816         1.15565
LJ           3.82856        -1.90907         5.76323
LJ          -4.12122        -5.63389        -5.79461
LJ           1.99795        -3.63373       -0.175014
LJ          -4.90012        -3.69131         0.14714
LJ           5.06104        0.860307         4.42979
LJ          -1.16428        -2.17392         1.66459
LJ           3.44456        -2.94439         1.11914
LJ           1.53278        -5.89002        0.333597
LJ          -4.44301       -0.838565         4.85785
LJ         -0.628011         4.84743         4.81995
LJ          -1.63626        -3.39888        -3.55166
LJ          -5.80217          5.1703        -2.88338
LJ          -1.92152         2.41519        -6.31987
LJ          -1.94846        -1.92647        -2.81405
LJ           1.53972        -3.23788         2.28058
LJ           5.75906          3.2577        -2.04017
LJ          0.180437       -0.223343        -4.42711
LJ          -5.52144        -1.16723        -5.33903
LJ           1.98766         4.51957        -1.10937
LJ           4.13436        -5.86883          -4.987
LJ           1.89547        -1.18393        -1.26541
LJ         -0.105124         4.16171        0.615518
LJ         -0.617143         5.93417       -0.656324
LJ          -5.34987         4.43485        -2.04153
LJ           2.39617        -5.22962         1.42061
LJ          -1.71465        -4.84994       -0.507796
LJ          -3.45226          -3.169         5.46661
LJ          -3.41102       -0.842169         5.29758
LJ          -1.00615       -0.786373         6.18079
LJ          -2.42019        -1.44145         5.26695
LJ           -4.6657         5.32813        -3.14281
LJ           4.70766       -0.600502        -3.07382
LJ         -0.635091        -4.95524        -1.27249
LJ           2.51397        -6.14103         -1.3777
LJ         -0.598326        -1.19098          -5.427
LJ           -5.9548         3.04462        -2.31472
LJ           5.43069        -2.37447         -6.3951
LJ           1.42428        0.040364        -4.86885
LJ           2.59725         4.73676       -0.137946
LJ          -2.02485        -4.41347        -2.88285
LJ           4.21065        -5.34947         -4.1125
LJ          -2.39733        0.940261       -0.915199
LJ          -3.00523        0.523702        0.786425
LJ           3.78449        0.483788       -0.309249
LJ          -3.46988          1.3718         5.31626
LJ            4.5278         1.14773       -0.755212
LJ          -1.13699        -2.49534        -3.31087
LJ           1.40035        -5.55601         4.53162
LJ          -2.82592        -3.19118         4.33104
LJ           1.72059         3.49951         6.35359
LJ           6.02237          1.7774         -2.0558
LJ           1.15655         5.83117        -5.94565
LJ          -3.78733         1.59559         4.29982
LJ           5.04986        -1.01717         3.16537
LJ          -4.25066       -0.149937         2.84112
LJ          0.348718        -1.50448         5.71216
LJ          -3.06341        -3.36081         1.78189
LJ        -0.0899071       -0.842371        -3.78702
LJ          0.205975         6.34376         -5.2274
LJ           1.12297         3.62123        -4.78528
LJ          -4.17978         1.30259         6.31329
LJ           5.89352        -5.10611         4.87782
LJ           0.35045         5.25031         5.33052
LJ           3.78698         4.26824        -1.62104
LJ           4.21165       -0.363869         -5.1393
LJ          -5.16707         6.12414         5.59383
LJ          -1.21997        -5.82817         1.45368
LJ          -3.80122         5.39435        -1.05943
LJ         -0.069611         3.89307         5.30452
LJ          0.514315         2.89794         6.39911
LJ          -4.07983         -4.8954       -0.536353
LJ          0.661177        0.251095        -5.99296
LJ          -3.49687       -0.379624         4.23238
LJ         -0.439794         4.94466          1.4306
LJ          -3.18977        -3.44911         3.05558
LJ           2.60999        -3.82807        -3.17464
LJ          -5.61212         2.72726        -4.10616
LJ          -5.22454         3.89766        -5.92386
LJ           -2.8002        -2.02693        -2.29714
LJ          -1.72096        -4.25077        -6.14125
