108
#Comment!
LJ           3.07029         3.34171        0.481945
LJ           3.69673         1.15399        -2.89196
LJ          -4.82054         5.38435        -2.39252
LJ           5.49062         1.44417         -6.2873
LJ          -4.35011         2.67663         3.98868
LJ          -5.47599        -1.72555         6.00622
LJ           -2.3602         -4.8759        -5.29979
LJ          0.484222         2.75689         6.30514
LJ          -0.40635         3.93746        -5.24213
LJ           4.99916         -1.6196        -6.13801
LJ        -0.0244254        0.564131          1.4901
LJ          -1.27353         2.78171        -3.26445
LJ           6.21508         1.89361         1.08126
LJ          -5.18879         4.03763        -3.66019
LJ           1.54002        -1.13235        -6.37364
LJ          -3.16045         3.42213        -6.12673
LJ           6.27437        -3.12815        -5.68669
LJ          -3.38603         1.88688        0.656739
LJ         -0.648575         1.39421         2.35754
LJ          -2.26847        -2.00436        -1.49306
LJ          -1.93423         -5.1042          3.1767
LJ          -5.21436         4.23027        0.647148
LJ         -0.484465       -0.112081        -3.65517
LJ          -5.83331        -6.10084        -4.46002
LJ          -2.62685        -6.00148         4.56929
LJ           3.16999        -1.83629        -4.01076
LJ           6.02078        0.225242          1.1833
LJ          -0.12905         2.21318         1.67237
LJ            3.2529          -3.775        -6.22022
LJ           6.07559         1.62581         -3.4197
LJ          -2.64154         5.01939         5.25732
LJ           5.00805        -2.30002        -3.81025
LJ          0.780928         2.34647        0.863142
LJ         -0.855189         2.81362        -5.76611
LJ           1.15347         3.46115         5.84602
LJ           -5.0846        -2.36717         3.29114
LJ           5.69288         2.98081        0.524995
LJ          -3.31908         3.09355         3.16757
LJ          -4.89784         -3.9238          4.3965
LJ          -2.57338         2.89504        -5.12755
LJ           3.89928         -1.2071        0.534495
LJ          -4.26006          2.4882         2.95589
LJ          -3.92464        -3.63458        -5.13892
LJ           3.65004        0.241497         4.57742
LJ          0.221085         2.43179         5.35728
LJ          0.225827         4.20432        -2.23432
LJ          -2.84152        -3.24506         2.19304
LJ          -6.08643        -0.67457         1.70666
LJ          0.294309         4.99302         3.72115
LJ          -5.34234        -3.85199         5.94601
LJ          -1.52479        -3.47434        -3.48376
LJ          -2.47795         4.26389         2.72645
LJ         -0.780084        -2.21473        -4.13922
LJ          -4.85955         1.72159          5.0585
LJ           5.05978         2.91914         2.72747
LJ           5.72445         4.88709         2.61494
LJ           6.30352        -5.08633        -4.00642
LJ          -1.60456        -2.71163         -5.0363
LJ           1.22799        0.256896        0.912715
LJ        -0.0051012         6.12792        -4.74795
LJ           -4.8407         4.40753        -2.00264
LJ          -1.74336        -4.44668        -3.50988
LJ           5.97729        -6.31235        -1.92739
LJ           2.85055         4.62807       -0.913894
LJ           3.63605         4.01522        -2.77127
LJ          -2.87241        -2.26084         6.37587
LJ          -3.91314         3.06163        -2.38023
LJ         -0.648409        -1.59733         2.12124
LJ           3.22198         2.95149         6.19489
LJ         -0.986177       -0.730896         4.21574
LJ          -6.28712        -2.15131        -5.63569
LJ          -6.27043         3.74192        -3.86588
LJ          -5.30323        -3.88244        -5.06628
LJ          -1.62683        -6.09191        -1.15891
LJ           -4.5526        -5.50171         1.58646
LJ          -1.66592       -0.562658         2.13024
LJ           6.25365        -4.10801        -2.57939
LJ           3.77405         5.32831         1.67607
LJ           3.83813          5.1152        -3.28956
LJ          -6.18528        0.503165         3.30599
LJ           -4.6148        -4.65443        -5.46271
LJ           3.78672       -0.180202        0.515176
LJ         -0.116902        -4.55492         1.66713
LJ           6.09842         1.36106         2.15067
LJ          -3.94342         5.15157        -5.41003
LJ           3.76096         4.24843        0.564901
LJ           5.17496         2.01137        0.171895
LJ          -4.22475       0.0710073         3.01672
LJ         -0.653326        -1.20798        -3.43623
LJ          -1.07317        -6.05549         6.05337
LJ           5.63336         1.04506       -0.718534
LJ         -0.130576         4.40699         4.61672
LJ          -3.24492        -3.06814        -3.17459
LJ           4.78637         6.27759        -5.27533
LJ          -4.92478        -2.94369         6.31547
LJ          -3.89861         5.95487         2.78924
LJ            2.0497         2.20186         1.33437
LJ           -5.1214         5.49347        -3.39709
LJ           1.18631         3.12576         1.93941
LJ          -4.73706         4.54178         1.63503
LJ          -6.09649         3.47674       -0.602868
LJ          -2.47162         2.95293         3.71499
LJ          -5.06177         3.39208         -2.8753
LJ           6.23877        -0.45552        -3.24543
LJ           2.15236          1.9152        -1.59211
LJ          -4.01214         1.65326        -2.60208
LJ         -0.740124        -3.50832        0.660813
LJ         -0.568258       -0.597254        -2.05761
