108
#Comment!
LJ           3.05727         3.32064        0.478408
LJ           3.59819         1.20952        -2.85164
LJ          -4.82252         5.37116        -2.57093
LJ           5.60208         1.42699        -6.27748
LJ          -4.36933         2.72006         3.96761
LJ          -5.44474        -1.76459         6.04017
LJ          -2.39224        -4.88634        -5.21466
LJ          0.435972          2.6726           6.363
LJ         -0.453735         3.92281        -5.22324
LJ           4.96857        -1.59702        -6.11814
LJ         0.0122164         0.53613         1.54038
LJ          -1.24713         2.69817         -3.2091
LJ           6.32423         1.86548        0.985677
LJ          -5.13334         4.05902        -3.75611
LJ           1.61088        -1.08728        -6.31173
LJ          -2.99782         3.45056        -6.15941
LJ           6.18753        -3.07984        -5.72745
LJ          -3.45075         1.77491          0.6193
LJ         -0.621754         1.32592         2.25798
LJ          -2.22613        -1.94883        -1.48046
LJ          -1.98353        -5.02011         3.17298
LJ          -5.17181         4.25538        0.625933
LJ         -0.523594      -0.0347302        -3.67819
LJ          -5.75409        -6.09573        -4.51722
LJ            -2.602        -5.95013         4.54368
LJ           3.20491        -1.85293         -4.0907
LJ           6.04045        0.290328          1.3096
LJ       -0.00291745         2.12827          1.6839
LJ           3.28659        -3.74478        -6.19225
LJ            6.0144          1.6545        -3.32029
LJ          -2.67623         4.93625         5.18794
LJ            5.0423        -2.25564        -3.82951
LJ          0.759247           2.317        0.968094
LJ         -0.791927         2.79769        -5.73394
LJ           1.16052         3.43697         5.77662
LJ          -5.08912        -2.43566         3.25787
LJ           5.84582          2.9761        0.465218
LJ          -3.42766         3.21703         3.16989
LJ          -4.90057        -3.85375         4.35775
LJ           -2.6036         2.82568         -5.1179
LJ           3.93018        -1.19347        0.503296
LJ          -4.24719         2.50383         3.01669
LJ          -3.94654        -3.55012        -5.21714
LJ           3.68281        0.268587         4.59036
LJ          0.271267         2.38413         5.39331
LJ          0.307982         4.25811        -2.35852
LJ          -2.88113        -3.22769         2.28344
LJ          -6.05588       -0.636792         1.63631
LJ          0.259467          5.0229         3.62474
LJ          -5.36757         -3.9353         5.97314
LJ          -1.64274        -3.46582        -3.40617
LJ          -2.43105         4.25575         2.69601
LJ         -0.815399        -2.18756        -4.16124
LJ          -4.94082          1.7762         5.18513
LJ           5.09643         2.92588         2.76086
LJ           5.76159         4.88248         2.72007
LJ           6.29462        -5.06975         -4.1144
LJ          -1.60411        -2.74232        -4.99826
LJ           1.16911        0.225431        0.887191
LJ         -0.024051         6.06286        -4.71358
LJ           -4.8492         4.46079        -2.08826
LJ          -1.81651         -4.4799        -3.54758
LJ            5.9413        -6.26709        -1.78597
LJ             2.949         4.63858       -0.883843
LJ           3.67258         3.97586        -2.78585
LJ          -2.80752        -2.33015         6.37803
LJ          -3.93478         2.95417        -2.28206
LJ         -0.781564         -1.5433         2.21679
LJ           3.25746         2.90631         6.22375
LJ          -1.10759       -0.807765         4.14542
LJ          -6.38048        -2.15945        -5.70638
LJ          -6.26348         3.76062        -3.86081
LJ            -5.278         -3.8495        -5.13532
LJ          -1.70449        -6.11521        -1.12637
LJ          -4.55165        -5.51015          1.5323
LJ          -1.58279       -0.513777         2.18622
LJ           6.23453        -4.06716         -2.5414
LJ           3.69984         5.32985         1.71321
LJ           3.85098         5.07285        -3.32222
LJ          -6.13296         0.53511         3.27104
LJ          -4.61578        -4.60102        -5.40971
LJ           3.78566       -0.201969        0.458087
LJ         -0.116245        -4.58309         1.67321
LJ           6.17082         1.37062         2.26989
LJ          -3.90793         5.16922        -5.40484
LJ           3.67378         4.15743        0.605823
LJ           5.16589          2.0046        0.130043
LJ          -4.20917       0.0138521         2.95341
LJ         -0.651633        -1.23917        -3.48324
LJ          -1.10446        -6.08389         6.02995
LJ           5.58926         1.05999       -0.664392
LJ         -0.189412          4.3487         4.69243
LJ          -3.22979        -3.15837        -3.20924
LJ           4.78049         6.38614        -5.24269
LJ          -4.84093        -2.94177         6.30097
LJ          -3.98396         5.99065         2.79658
LJ           2.05876         2.23801         1.41525
LJ          -5.09785          5.5106        -3.48383
LJ           1.08649         3.19945         1.92595
LJ          -4.73531         4.61689         1.71198
LJ          -6.10494          3.4917       -0.577676
LJ          -2.48962         2.80607         3.65793
LJ           -4.9746         3.38417         -2.8165
LJ           6.25965       -0.389797        -3.29533
LJ           2.08967         1.90321        -1.60014
LJ           -4.0745         1.72254        -2.64714
LJ         -0.676664        -3.44608        0.663251
LJ         -0.597059       -0.688774        -2.06016
