108
#Comment!
LJ         -0.514847         5.87244        -6.11653
LJ          -3.83877        -5.74775        -3.39813
LJ          -3.47137        -1.38999       -0.391828
LJ           4.01252        -2.98198        -4.48862
LJ         -0.596424          3.9087         4.81547
LJ          -4.13442        -1.71319        -6.45284
LJ          0.442477        -2.03671         6.00035
LJ          -3.72249         1.52137        0.701511
LJ         -0.550798        -5.77474        -6.20223
LJ            2.9701        -2.48263          1.4313
LJ          -0.47784        -6.07081        -2.35066
LJ         0.0606071        -1.24023         2.27764
LJ          -3.66754        -2.55881         3.24471
LJ          0.614137         3.71456         -5.2491
LJ          -5.96033         -3.0586         1.41151
LJ          -1.41817         4.91792         1.68198
LJ           1.27809       -0.159911        -1.29323
LJ           -3.7969       -0.570922        -2.68311
LJ           5.26079        0.392505         2.93333
LJ          -4.25406         -3.5318         3.76311
LJ          -2.63102         4.59222         5.87286
LJ          -5.99991         5.74204        -1.59583
LJ           1.46045         3.23293         3.54314
LJ          -4.21206        -4.93992       -0.466369
LJ         -0.403612       -0.590309       -0.677111
LJ          -1.94646        -4.00661        0.633724
LJ           3.57799        -4.52647         4.87164
LJ           4.34461         1.47215         4.60355
LJ          0.312463        -3.90371         3.84279
LJ          0.889233         2.42721        0.599615
LJ          -1.80427        0.470729        -5.87148
LJ          0.274979        -6.42304        -5.05588
LJ          0.883079         5.33003        -6.32804
LJ           1.69486        -3.67477         6.17139
LJ          -4.12242          6.3154         -5.9752
LJ           5.11105         4.89363         5.12493
LJ           5.42822        -3.03116        -3.31555
LJ         -0.721675        -1.08406         1.06024
LJ          -3.94839        -5.57322        -1.45937
LJ         -0.370781        -4.55983        -5.32535
LJ           4.66381         2.15954         3.76877
LJ         -0.730967         5.00745         3.23869
LJ          -5.90991          4.9195        -3.09659
LJ           1.24864        -2.23855         2.34124
LJ          -2.84847         4.94659         -4.6439
LJ          -1.11365         2.86205        -3.89211
LJ           5.92435        0.639361         3.56938
LJ           6.36905        -1.60746         5.76452
LJ         -0.155516        -2.41053        -1.98733
LJ          -4.18581       -0.669364         2.40544
LJ          -6.37469        -5.65095        -4.84685
LJ         -0.559729          4.0383         3.49692
LJ          -2.51801         2.25304        -4.27885
LJ         -0.744896         -6.0197        -3.75628
LJ          0.647876        -2.97707         4.91546
LJ          -4.30217        -3.10799       -0.101194
LJ          -5.42474         4.92291        -4.52355
LJ          -2.47475        -1.84038        -4.61351
LJ           3.25619        0.461499         1.87294
LJ           -5.0758        -4.86801         2.90766
LJ           5.85912        -5.29163         1.94887
LJ             2.312         4.22301          1.3789
LJ           5.77328          1.0694        -3.59586
LJ         -0.742759         1.14329        -1.75364
LJ          0.370116        0.357524        -1.44333
LJ           4.60146         5.54607         6.41895
LJ          -5.41857         3.00352        -5.51612
LJ           3.18057        -4.42045        -4.44317
LJ           1.41654        -3.59726         4.10619
LJ           2.71542        -5.79338         5.71876
LJ           1.03195       -0.978244        0.604113
LJ           -5.5025        -2.57606        -1.20084
LJ          -1.78943         5.34925        0.867258
LJ           3.57544        -6.06461       -0.927335
LJ          -3.08616        -1.88056        -6.12114
LJ           1.19137         6.38404        -3.53576
LJ          -3.36305         6.15746        -1.49783
LJ          -6.30426       -0.995438        -3.20988
LJ          -5.63673         4.76813        -1.30377
LJ           5.34136         -2.1567         5.80186
LJ          -2.91184         -4.5358        -2.67415
LJ           3.25798         1.18177          5.7343
LJ          -5.70872        -5.91358       -0.557464
LJ          -4.07901        -4.00782         -3.1785
LJ           6.01506         4.94648        -6.45989
LJ           4.37623         6.06434        -4.20605
LJ           5.68343         2.12916         2.60261
LJ           2.99088        0.944099       -0.994151
LJ           3.87362        -2.79183       -0.667966
LJ         -0.137022        -1.70336         4.61764
LJ          -3.71824           1.976       -0.647385
LJ          -1.67097         6.45875         6.32389
LJ         -0.269958        -2.32836          1.7281
LJ           2.10386        -4.80885         4.20788
LJ         -0.546938        0.757712         5.22112
LJ            1.2236        -1.80168        -2.80554
LJ           1.47224        -5.55977         1.82796
LJ         -0.266471         2.82196        -3.38068
LJ           4.00848         2.11468        -6.44337
LJ          -2.84182         3.29701         2.70485
LJ          -4.30368        -2.15424        -1.73384
LJ         -0.971099        -0.33252        -6.11103
LJ           5.79807        -3.87251        -1.54283
LJ           2.68808          1.9697       0.0523935
LJ           5.33859        -6.25696        -1.84989
LJ           2.18427         6.31031        0.337104
LJ          -4.41132         -4.4471         1.20977
LJ          0.165741        -1.01436        -6.35686
