108
#Comment!
LJ          -4.92548        -6.30905        -4.82978
LJ           2.00733         3.74721        -3.62034
LJ           2.41643         4.21012        -2.30195
LJ           5.02666        -4.22486      -0.0106356
LJ           3.43248         1.79061         5.54801
LJ          -4.73161         1.41565         6.35314
LJ          0.417726        -1.65837          6.2657
LJ          -2.52742         4.53112        0.833278
LJ           2.99871         3.47278         4.89749
LJ          -5.96231        -4.48701         0.29166
LJ          -2.79667         2.87914         3.00488
LJ           3.41268        0.697229         1.57761
LJ           1.43743        -2.70863        -1.10918
LJ           3.05909       -0.439275        -6.02334
LJ        -0.0935182       -0.152872        -5.11779
LJ          0.262797         4.68623        -4.57126
LJ          -1.24636         0.92669        -1.37829
LJ           4.28873        -1.76022        -3.50089
LJ          0.270947         4.47863         -2.4384
LJ          0.914989        -1.54127         4.56821
LJ          -2.94743         1.93573         2.27941
LJ          -2.89164       -0.984558         4.81797
LJ           3.63421         6.22037         4.84537
LJ          0.416554        -3.13255        -6.15901
LJ          0.530168        -2.91031         3.20002
LJ           -2.0792       -0.229553         5.11363
LJ           6.08664        -2.20252         5.45726
LJ           1.57255        -2.24024       0.0265335
LJ           4.81073       -0.711687        -4.08376
LJ          -5.94169        -1.16661         5.62889
LJ          -4.88857        0.243929          2.5389
LJ           1.46784        -5.55623        -5.50386
LJ          0.803101         5.04065         2.49609
LJ           2.40622         3.14372         2.66279
LJ          -4.25925         1.21254         1.97594
LJ          -5.17659         2.90321         3.26722
LJ           6.25061         6.30176        -6.15941
LJ           3.09485         4.51911        -3.52817
LJ           1.47201         3.41191        -2.73961
LJ          -1.85812        -6.19675        -3.85666
LJ          -1.40097        -4.80372        -4.29705
LJ           1.71101        -6.32018        -4.44674
LJ          -2.25357        -4.83227        -6.29564
LJ         0.0453032          2.9454        -5.24339
LJ           0.42069        -2.70382         4.25928
LJ          -0.66762       0.0493366        -3.81512
LJ         -0.246085       -0.155437        -1.90085
LJ           2.97716         5.08428        -1.61919
LJ           1.76562         1.91261        -3.34081
LJ           2.74129         5.30838        -2.77356
LJ           -2.7864        -6.41861        -3.20675
LJ         -0.968824        -5.66793        -4.56491
LJ           5.18321        -6.42805         4.00248
LJ          -3.78804        -3.23176         4.68524
LJ          -1.80814         -5.7605        -6.44458
LJ           4.81018        -3.16891         5.25638
LJ         -0.709831        -3.48531         4.47563
LJ          0.882135        0.105633        -1.78436
LJ          -1.88629         5.41705        -5.24483
LJ         -0.261561        -3.51039          5.8995
LJ           3.40488        -1.82986         4.85793
LJ           3.74808         4.60967        -2.38429
LJ          -3.29257        -1.80772        -4.36893
LJ          -4.34497        -3.86531         5.38336
LJ           5.03128       0.0785798        -4.94839
LJ          -4.09231        -1.92524         5.32106
LJ          0.916025         6.28218        -1.12933
LJ           -4.8213        -1.93415         4.65381
LJ           1.03589       -0.957842        0.370203
LJ           5.78121        -1.65998        0.796144
LJ           6.04725        -4.13863        -3.99287
LJ          -2.15704        -4.50922        -3.35358
LJ          -5.99108        -1.86611        -5.62171
LJ           -4.8811        -4.29738        -1.99495
LJ           4.00227         5.69148        -3.36819
LJ          -2.60586        -5.54508        -5.50691
LJ          -1.78716         6.12704         4.51542
LJ          0.416245        -1.53644         2.88211
LJ           3.23633         6.04866        -1.22015
LJ          0.739994        -1.99836       -0.668289
LJ          -2.05504        -3.28875         1.93279
LJ           0.11857        -4.03365        0.850842
LJ            2.7151        -4.17233       -0.804498
LJ           4.68887        0.355794         6.13602
LJ           4.55804         5.47468        -4.48021
LJ          -4.29565         2.28176        -0.97444
LJ          0.279358         1.43977        -3.62704
LJ          -1.22393         6.04136        -4.34509
LJ            5.1963         5.99714         5.08384
LJ          -5.32386         -5.3515        -5.29885
LJ          -1.45938        -3.98529         -4.8142
LJ           5.31283         3.24923         2.26479
LJ           4.19111        -4.89824         4.93429
LJ          -3.08842        -4.15038       -0.546131
LJ          -2.28149         3.86659         2.70817
LJ           3.34423        -1.86697        -0.16321
LJ           3.85261         5.91869        -5.11515
LJ           5.29953       -0.180697        -2.84735
LJ          -1.96632         4.39739         1.69956
LJ          -1.11098         3.71044        -3.58679
LJ           6.37973         6.05952         3.98168
LJ          -6.42243         5.45112         5.08956
LJ           5.55349         6.22198        -3.46665
LJ           5.92695       -0.308038         5.55998
LJ          -4.90699        -5.78604         4.51461
LJ          -1.36981        -1.65846        -1.78919
LJ           2.88921        -2.41562         2.12374
LJ           6.13059        0.709311         1.04818
