108
#Comment!
LJ          -3.98769        0.477185         3.22948
LJ          -6.03029        0.434998         3.98676
LJ          -3.97994        -5.49631         3.70685
LJ          -4.74881         0.83698        -3.86912
LJ          0.394284         4.19141         1.09206
LJ           5.21885        -2.80574        -6.32441
LJ          -0.17403     -0.00999971        0.162436
LJ            1.3767       -0.603766        -3.81853
LJ           2.29657         5.58166        -5.32155
LJ          -5.85164         5.65868         3.75643
LJ           5.62199        -4.58238         -2.8591
LJ           5.22044        -1.57242        0.935457
LJ          -4.64527        0.739972         5.30719
LJ            3.0443         1.25671         3.27024
LJ          -1.80474         4.85339       -0.707811
LJ           4.08685         3.24119         4.84971
LJ           0.67322        -0.70028        -2.34944
LJ          -6.21124         -4.5729        -5.00423
LJ           5.57427         1.14681        -6.20904
LJ           5.82568        -3.53171        -1.81681
LJ           4.51738         5.13062         4.06808
LJ         0.0332471        -1.37981         3.51646
LJ          -3.23276         5.25356        -6.45259
LJ           2.35928         -6.2967        -4.52537
LJ          -3.08039        -5.23984       -0.025647
LJ           4.75207        -2.89903         3.97393
LJ          0.018807       -0.997316        0.759538
LJ           3.34661         5.79005        0.760524
LJ           5.89296         5.14209        -5.81598
LJ            4.8545        -3.99404        0.571163
LJ           3.13022         4.12983        -5.37309
LJ           4.30254         1.52678         -6.4612
LJ           3.88513         -2.8429         4.92011
LJ          -5.81059         4.86119         1.34535
LJ           2.40098        -4.89735         4.17306
LJ           5.69911          5.5871         4.93588
LJ          -2.40432        -2.49227         0.69177
LJ           5.00771        0.335595         2.42541
LJ          -5.91333        -1.40003       -0.106906
LJ           -3.3211        0.257892       -0.971262
LJ           3.15915          4.8847        0.937325
LJ          0.709631         1.60825         0.98054
LJ         -0.386722       0.0382005         1.70633
LJ          -5.31812         4.60384         5.75553
LJ           2.11657       -0.583833         2.77223
LJ           2.89269       -0.593399        0.413768
LJ           5.43597         1.80975        -5.28739
LJ           5.58877        -4.72044         2.22828
LJ          -5.04437         3.00679        -2.88747
LJ           1.77572         4.33614         3.74528
LJ          0.853135         4.11409        -3.61254
LJ           1.47265         2.17329        0.423687
LJ          -1.91277          1.0463        -5.97391
LJ          -4.26972         3.64928         -3.4532
LJ           5.08222        -2.97009         2.77062
LJ          -3.55789        -1.50099          6.2722
LJ           4.88056        -1.22244         4.26093
LJ          -1.14498         2.87499         3.31486
LJ          -3.77925       -0.314817        -1.87461
LJ           4.31614         6.38714        -2.52419
LJ         0.0537795        -3.85431       -0.945821
LJ          0.671941        -4.25703         2.64713
LJ          -2.20125         5.31972        -1.55192
LJ          -5.29294         4.48438        -4.57791
LJ          -4.48766         2.35677        -1.79804
LJ            2.2928         2.70151        -5.88754
LJ          -2.32133        -5.58013         4.88083
LJ         -0.797891         4.55521        -4.05399
LJ        -0.0385922        -2.71674        -2.74326
LJ          -1.49598        -4.65079         2.13147
LJ          -6.36986        -1.73542         5.05444
LJ            5.1755         2.24661          5.6944
LJ           1.66669        -2.60677         4.76314
LJ           4.87041         4.03492        -5.62862
LJ          -3.05747         4.34355        -2.68379
LJ           5.31896         2.46306         2.47585
LJ          -1.21161        -4.42022        -5.73368
LJ          0.800263         4.23094           3.651
LJ         -0.608531         4.30795        -0.70989
LJ         -0.929632        -1.85359         2.56468
LJ         -0.961016         4.50917        -1.66605
LJ           1.18385         1.81768         2.93687
LJ           6.26863         -4.9568         5.69005
LJ        -0.0864298         4.67971         4.34705
LJ           2.79647        0.789759        -3.84567
LJ           1.25377        -2.91565        -2.61746
LJ           2.60101         3.30269       -0.676903
LJ           1.56005         4.73343         -2.4101
LJ          -4.14998        0.950752        -5.86737
LJ          -1.32305        -6.00725         4.95465
LJ         -0.197138       -0.195182         5.28556
LJ           4.64168        -3.07331      -0.0931239
LJ           4.96956         3.85018         5.11269
LJ          -1.03148        -1.55798         1.09941
LJ          -4.48456        -5.29841         5.24819
LJ           2.18003         2.36355        -1.44335
LJ           1.51305          5.5412        -4.04013
LJ          -2.28316         3.16343        -3.85289
LJ           4.85048         4.24663        -2.33374
LJ           3.10692        -1.09371         5.16303
LJ          -3.03731        -4.47223         5.08827
LJ        -0.0903535        -3.79181         3.31017
LJ          -5.41015        -2.42268        -5.82384
LJ          -5.51162      -0.0336883        0.675644
LJ          -4.07532         1.32805          4.3698
LJ           2.93544       -0.812292         1.81376
LJ           6.14292         -5.7443        -1.42004
LJ          -1.36366        -1.77314         -1.5571
