108
#Comment!
LJ           -4.1052        0.481392         3.35769
LJ          -6.24358        0.765917         4.24966
LJ          -3.84388        -5.31598         3.88716
LJ          -4.94086        0.871898        -3.75036
LJ          0.739863         4.18892         1.33706
LJ           5.42138        -2.83202        -6.32816
LJ         -0.325458       0.0089278      0.00224092
LJ           1.29533        -0.77207        -3.68116
LJ           2.53096         5.56114        -5.25721
LJ          -5.71393         5.90324         3.36219
LJ           5.71984        -4.66796        -2.56982
LJ           5.51336        -1.49209         1.06394
LJ          -4.81945        0.819941         5.23329
LJ           3.15257         1.52903         3.19698
LJ          -1.50321         4.86036       -0.705291
LJ           4.43058         2.85421         4.56766
LJ          0.634348       -0.546397        -2.58758
LJ          -6.29804        -4.49307        -4.77209
LJ           5.27678        0.819427        -5.93564
LJ           6.01046        -3.30082        -1.80451
LJ            4.3187         5.25012         3.98986
LJ          0.239536        -1.68596         3.42607
LJ          -3.22077         5.23899         6.37631
LJ           2.60849         6.27992        -4.47581
LJ          -3.21028        -5.43789      -0.0578322
LJ           4.50932        -2.80488         3.88367
LJ         0.0164368       -0.948684        0.432324
LJ           3.27617         6.13641        0.924874
LJ           5.89535         5.31789        -5.81842
LJ            4.9738        -3.89823        0.342359
LJ           3.15811         4.26084        -5.46323
LJ           4.30804          1.4953         6.45731
LJ           4.12575          -2.783         5.05933
LJ          -5.58419         4.91278         1.15304
LJ           2.44167        -5.10423         4.32147
LJ            5.7066         5.76459         4.84466
LJ          -2.48953        -2.46104        0.805203
LJ           4.60921        0.409476         2.22323
LJ          -5.71319        -1.45681       -0.202256
LJ          -3.50358        0.440005       -0.945713
LJ           3.02082         4.72033        0.964912
LJ          0.710823          1.4929        0.635641
LJ          -0.32682       0.0280295         1.76603
LJ          -5.34062           4.555         5.54777
LJ            2.2148       -0.677809           3.018
LJ           2.66723       -0.664568        0.498007
LJ           5.12094         1.88791        -5.49792
LJ           5.46639        -4.80931         2.30813
LJ           -4.8086         3.04673        -2.62955
LJ           2.03728         4.34051          3.6699
LJ          0.508879         4.30576        -3.44366
LJ           1.57919         2.18724        0.406638
LJ          -1.72068         1.20928        -6.07152
LJ          -4.13255         3.79214        -3.47964
LJ           5.27371        -2.98683         2.77668
LJ          -3.55639        -1.48056         6.20585
LJ           5.04273        -1.14564         4.32876
LJ          -1.06444         2.74693         3.01182
LJ          -3.79403       -0.232314        -1.81488
LJ           4.53186         6.05216        -2.55283
LJ         0.0621627        -3.65105       -0.794792
LJ           0.77171        -4.22995         2.71363
LJ          -2.32512         4.94597         -1.6032
LJ          -5.28631         4.57242        -4.47104
LJ          -4.56601         2.28842        -2.02575
LJ           2.44519         2.66469        -5.87031
LJ          -2.40202        -5.42247          5.1313
LJ         -0.894614         4.24434        -3.92633
LJ          0.248549        -3.06361         -2.7695
LJ          -1.69055        -4.51332         2.00831
LJ           6.40992        -1.77097          5.1848
LJ           5.09849         2.25987         5.58659
LJ           1.60084        -2.87176         4.72092
LJ           4.87559         3.80311        -5.94038
LJ          -3.05839         4.18636        -2.69037
LJ           5.23772         2.79094         2.44463
LJ         -0.952284        -4.34221        -5.88359
LJ          0.618065         4.11842          3.6945
LJ         -0.555003         4.34622       -0.660023
LJ         -0.896703        -1.87284         2.49822
LJ          -1.06908         4.55483        -1.82768
LJ          0.806606         2.02846         2.91912
LJ          -6.32909        -4.83704         5.90306
LJ        -0.0439648         4.65605         4.24841
LJ           2.64497         0.56096        -3.72892
LJ           1.12718        -2.72325        -2.29713
LJ           2.82491         3.41302       -0.900435
LJ           1.36423         4.67687        -2.48233
LJ          -4.07026         0.96545        -5.86399
LJ           -1.4837        -6.02825         4.86765
LJ         -0.170286       -0.145594         4.93916
LJ           4.69263        -2.94897      -0.0886027
LJ           4.92364         4.12841         5.19124
LJ         -0.962021        -1.71938         1.53406
LJ          -4.62323        -5.33685         5.16122
LJ           2.04302         2.12565        -1.44654
LJ           1.37077          5.4761         -4.1934
LJ          -2.18971         3.11489        -3.99306
LJ           4.84208          4.1046        -2.37674
LJ           2.94673        -1.16874         5.28859
LJ          -2.85328        -4.33843         5.11536
LJ         -0.154064        -4.28679         3.38303
LJ          -5.64493        -2.44659        -5.55123
LJ          -5.54622        0.216925        0.906593
LJ          -4.16384         1.32512         4.64439
LJ            2.7956       -0.685057         1.88386
LJ            6.0347        -5.56615        -1.74374
LJ          -1.43956        -1.96652        -1.38709
