108
#Comment!
LJ           -3.4323        0.286021         2.54083
LJ          -5.06269        -1.06627         2.78206
LJ          -4.59188        -6.30095         3.02848
LJ          -3.84279        0.695853        -4.50215
LJ         -0.848534         4.20872        0.996654
LJ           4.27806        -2.68207        -6.34613
LJ           0.63688       -0.620034         1.14149
LJ           1.73746         0.19883        -4.36335
LJ           1.17755         5.87483        -5.12834
LJ          -6.03001         4.43843         5.55796
LJ           5.19339        -4.07414        -3.90544
LJ           3.80783        -2.02187        0.268359
LJ          -3.78577        0.463355         5.57671
LJ           2.67739       -0.356843         3.76879
LJ          -2.16141         4.42248       -0.569721
LJ           2.63484         5.01146         6.17967
LJ          0.832137        -1.46602        -1.34157
LJ          -5.81094        -4.93948        -6.10138
LJ            -6.065         2.05721         4.92089
LJ           4.91462        -4.77155        -2.11769
LJ            5.3194         4.33533         4.27085
LJ          -1.11633        -0.20249         3.61997
LJ          -3.31735         5.31988        -6.00442
LJ           1.08587          -5.166        -4.84182
LJ           -2.4647        -4.30791        0.126926
LJ           5.53651        -3.16841         4.03272
LJ         -0.294361        -1.09091         2.11441
LJ           4.15336        -6.42009       -0.414657
LJ           5.54881         4.14988        -5.60652
LJ           4.61541        -4.85657         1.98434
LJ           3.01378         3.50591        -5.14019
LJ           4.52745         1.54974        -6.29973
LJ           3.04584        -3.04231          3.9893
LJ           6.05583         4.62285         2.25236
LJ           2.22692        -3.87911         3.48781
LJ           5.34938         4.84112         5.76388
LJ          -1.89812        -2.55455        0.172933
LJ          -6.01685       0.0450047         3.37509
LJ           5.99611        -1.09676        0.406984
LJ          -2.57806       -0.722519        -1.31651
LJ           3.30625         3.29524         1.18823
LJ          0.235705         1.70191         2.80444
LJ         -0.884473        0.139455         1.45522
LJ          -5.27077         4.84372        -6.19839
LJ           2.11984       -0.285891         1.30688
LJ           3.93012       -0.439111        0.464057
LJ          -6.37155         1.79923        -4.07682
LJ           5.94471        -4.24071         1.73878
LJ          -5.92175         3.05557        -3.81613
LJ           2.41642         4.50313         4.34984
LJ           2.45427         3.41597        -4.20107
LJ          0.988238         1.93449        0.709794
LJ          -2.86192        0.284522        -5.52196
LJ          -4.80123         3.11422        -3.39411
LJ           4.22275        -2.89628         3.40074
LJ          -3.70001        -1.65892        -6.34798
LJ           4.07254        -1.87747         3.91965
LJ          -1.47091         3.51376         4.73087
LJ          -3.57373       -0.572841        -1.93229
LJ           3.33813        -4.97147        -2.38745
LJ         0.0145195           -4.78        -1.67428
LJ         0.0755192        -4.29142         2.39986
LJ          -1.80868        -5.90787        -1.84941
LJ          -5.29276         4.00721        -5.02736
LJ           -4.1716          2.7349        -0.88178
LJ           1.69973         2.99808        -5.89088
LJ          -2.37626        -5.84782         3.92237
LJ         -0.291086         5.97938        -4.61758
LJ         -0.855377        -1.56298        -3.12677
LJ         -0.459582        -5.20738         2.72591
LJ          -5.72163        -1.55278         4.42235
LJ           5.46285         2.58739         5.98359
LJ           2.04643        -1.36186         4.93585
LJ           5.14073          5.2453        -4.43973
LJ          -3.04059         4.96029        -2.70771
LJ           5.72524        0.819383         2.65831
LJ          -2.42528        -4.78912        -5.04424
LJ         -0.391096         4.60851         3.41406
LJ          -1.29445         3.92389       -0.852767
LJ         -0.926116        -1.43805         2.94531
LJ           -1.3004         4.85818        -1.76483
LJ           2.76532         1.08586         2.76321
LJ           4.74604        -5.51461         4.69993
LJ         -0.127158           4.703         4.59843
LJ           3.47253          1.8439        -4.39889
LJ           1.68906        -3.76302         -4.0972
LJ           2.04141         3.27473       -0.223369
LJ           2.39973         4.96806        -2.32017
LJ          -4.49234        0.842479        -5.94502
LJ         -0.501013        -6.00346         5.26103
LJ         -0.324461       -0.435478        -6.04436
LJ           4.30925        -3.09361       -0.238512
LJ           5.14223         2.52981         4.90551
LJ         -0.994345        -0.61423        -0.75878
LJ          -4.45167        -5.41952         5.86771
LJ           2.77982         3.57449        -1.20338
LJ           2.31478         5.85417        -3.57887
LJ           -2.7993         3.51649        -3.11771
LJ           4.88008         4.92435        -2.13801
LJ           3.89825       -0.758399         4.53793
LJ          -2.95707         -5.2199         4.48277
LJ          0.322271        -1.57959         2.86893
LJ          -4.20656        -2.23009         5.81086
LJ          -5.30204        -1.25068        -0.45771
LJ          -3.79413         1.39871         3.39556
LJ           3.19719        -1.08964         1.40507
LJ           -6.3085         6.39104       0.0520861
LJ          -1.33995       -0.406739         -1.7462
