108
#Comment!
LJ          0.116575        0.521242         1.40695
LJ          0.138062         4.11416        -1.51058
LJ          -4.44558         6.24465        -5.84754
LJ          -3.07408         3.01143        -6.23142
LJ          -3.72515         5.12991         4.99654
LJ          -1.79904        -2.22271         5.83228
LJ           6.41689        -5.50344         5.73204
LJ           1.05293       -0.143518         -5.8027
LJ           -2.6973         3.69824        -5.68686
LJ           5.80558       -0.509948        -6.37946
LJ           2.06007        -1.17288         3.46311
LJ          0.259995        -0.25301        -1.69999
LJ          -4.14057       -0.238167        -2.41345
LJ          -3.72165         4.96314        -5.83167
LJ           5.05268        0.843842          -3.639
LJ           4.65019         3.54335        -3.59209
LJ           3.32352        -3.39654         3.88794
LJ          -5.51566        -3.86269        0.352596
LJ          -2.28032        -2.77499         1.12732
LJ          0.335547        -2.31421        -1.65079
LJ           -4.2075        -1.68405         3.62969
LJ          -3.78114         4.12151        0.654242
LJ          -2.20549         2.23803        -4.14442
LJ          -3.73772         5.22768         6.00854
LJ          -1.57234        -2.92042         2.86324
LJ           4.59697        -2.26622         5.20632
LJ          -3.66795        0.989138         5.63099
LJ           2.13919        -1.63681         4.82642
LJ           4.13414        -2.75798         -3.5588
LJ           4.11558          3.5073         1.65042
LJ          -5.83008         3.17232         5.29009
LJ           6.44284       -0.156074        -4.71349
LJ           2.15279         1.38613          1.5377
LJ          0.688854         2.81147        -4.29279
LJ          0.482685        0.931405         2.99708
LJ          -5.19698        -5.32091         0.72573
LJ          -1.42593         2.93235        -2.24076
LJ            5.7878        -5.75746         4.90033
LJ          -5.37672        -2.26389         2.85888
LJ          -2.76887        0.130748        -4.41421
LJ           5.06308        -1.38067       -0.341563
LJ          -2.89739         1.94146        0.518238
LJ          -3.55457        -2.35754         5.96422
LJ           5.14992         1.41987         5.34282
LJ           1.72455        0.733185        -5.47154
LJ            3.5644        -6.23697         4.79107
LJ          -5.52347        -2.93873        -5.73827
LJ           5.99588       -0.634717       -0.751685
LJ           -1.5028          5.6572         -0.4959
LJ          -5.95011        -5.72586        -5.39149
LJ          -5.05229        -1.68289       -0.734972
LJ         -0.926711         3.61258         2.39151
LJ          -2.12766        -1.27254        -4.67346
LJ            5.9665         2.89283        -4.06297
LJ          -6.33367         3.40646         3.87657
LJ          -5.85132         5.15895         5.72198
LJ            5.7938        -4.55986         4.24009
LJ          -1.92566        -4.73286        -3.26199
LJ         -0.962653       -0.778602       -0.502285
LJ          -0.52159         2.44894        -3.49641
LJ          -2.13445         4.67186        -4.10507
LJ          -2.88255         6.26022        0.105191
LJ           4.11463        -4.06553         4.71701
LJ          -5.18062         4.35058         0.72004
LJ           3.13586         3.10495        -2.24114
LJ         -0.270367          -5.556        -5.99282
LJ          -3.39568          3.4059       -0.544263
LJ          -2.60999        -1.69498        -1.41753
LJ           4.82784        0.743921        -5.38439
LJ          -5.76142         1.63188          4.8648
LJ           2.42374       -0.179291         5.10924
LJ          -5.69599         4.41973        -6.22147
LJ           5.14768        -6.46179        -6.20353
LJ            -5.195         6.16787        -0.43241
LJ          -4.77528        -5.61318       -0.479067
LJ             3.759         3.46163         3.21949
LJ            5.7701        -2.94853         -1.5416
LJ          0.221472         4.53431         2.74598
LJ           4.96799           2.433        -3.89422
LJ          -3.90769        0.696745         2.58426
LJ          -2.83491        -3.20563        -3.92757
LJ           4.86279        0.858017       -0.724882
LJ         -0.234558        -5.56276         1.74923
LJ          -4.26305         4.10704         5.45453
LJ            -1.497         5.30378        -5.82737
LJ           2.37283         4.55818         3.15531
LJ           4.88372         3.65804       -0.566979
LJ          -5.13692        -2.42401        0.772782
LJ          -1.06861        -1.09237        -4.52047
LJ          -2.31666           5.838         4.99856
LJ           3.45521       0.0852149       -0.412249
LJ          -1.93076         1.53539        -5.51242
LJ          -4.44489        -3.73392        -5.24919
LJ           4.01704        -1.45116        -4.11348
LJ          -4.62441        -5.59163        -6.13424
LJ           5.22065        -4.78244           3.217
LJ           2.50556         4.25958         5.00635
LJ          -4.88695        -5.83667         1.77171
LJ          -2.62312         4.56381       -0.302999
LJ           6.44563        -5.97319         3.77629
LJ          -4.68047         5.24748        0.107163
LJ             -5.25         -2.8194           2.011
LJ          -1.92442         1.35839       0.0726468
LJ          -5.94909           2.886         -5.5741
LJ          -1.87724         2.36489        -1.15434
LJ           6.25051        -6.31134        -4.33901
LJ           2.18266       -0.789608         1.06509
LJ          -3.16697        -4.35549        -2.57576
