108
#Comment!
LJ        -0.0838071         6.16654          5.8605
LJ          -3.65589        -5.98178        -2.77263
LJ          -3.58096       -0.109501        -2.24879
LJ           4.81394        -2.92591        -4.63141
LJ          0.346702         4.65479         4.77745
LJ          -3.89596        -1.02158        -6.18533
LJ         -0.406363        -3.29898         4.49401
LJ          -4.38481         1.26439         4.21912
LJ         -0.224048        -5.20777         5.68736
LJ           1.76274        -2.55587         3.58595
LJ          -1.13143         -5.3278        -3.57952
LJ          0.249751        -2.43732         2.83282
LJ          -4.82337        -1.13711          4.7671
LJ         -0.913593         3.76505        -6.20311
LJ          -6.41533        -1.77104        0.463894
LJ          -2.21501         6.11529         4.04406
LJ           2.17899        -1.81685          1.6733
LJ          -4.45209       -0.997973        -4.80369
LJ          -5.77818        0.304075         1.23322
LJ          -2.35013        -4.03639         1.00233
LJ          -3.21866         5.26512         6.45615
LJ          -4.76094         5.53235        -2.24751
LJ           1.68716         4.11993          5.0881
LJ          -4.86918        -5.85819       -0.944716
LJ         -0.291868         1.82787        -2.35655
LJ          -3.66342        -5.72256       -0.800765
LJ           1.61277        -4.86927         3.62741
LJ          -5.36711         1.22812         2.44523
LJ          0.757131        -3.32037         4.42163
LJ           1.77827         3.49667        -1.05587
LJ          -2.29822        0.571113        -4.66586
LJ           1.72613           4.044        -4.94271
LJ         -0.170757         3.17516         5.94767
LJ           1.56837        -3.31431         5.65734
LJ          -1.33079         4.81788          -5.331
LJ           5.25308         5.47989         4.08044
LJ           2.49603        -4.26555        -2.18539
LJ         -0.216424        0.234901         1.95403
LJ          -3.54551         6.16332        -0.66885
LJ          -1.39339        -4.31257         -4.8749
LJ           4.95337         4.28516         4.26412
LJ        -0.0696594         4.28963         2.89035
LJ          -5.71357         5.50858        -3.78577
LJ           1.59666       -0.976675         2.85743
LJ          -3.21718         -6.4594        -3.70523
LJ           -3.5163         4.62506        -5.75814
LJ           4.77109       -0.147976         4.15202
LJ           5.71036       -0.235944         5.32649
LJ           2.96101        -1.15406        -3.47892
LJ          -3.76543      0.00863983         2.19119
LJ           6.05322         6.36048        -4.16498
LJ           1.08997         1.41195         4.48715
LJ          -2.95314          1.6105        -4.42895
LJ          0.133185        -4.83455        -3.26313
LJ          0.979286        -3.50754        -6.17397
LJ          -3.59701        -5.06779       0.0728321
LJ           5.76219         4.48309        -2.07933
LJ          -4.24951        -2.35397        -5.75908
LJ           1.08402       -0.769878        0.861488
LJ          -5.66393        -4.77739         3.01625
LJ           5.85904         6.06144         3.17973
LJ           2.27185         5.55338         3.40895
LJ           5.10448        -0.72039        -3.64407
LJ          -1.80471         3.07479       -0.776235
LJ           1.39022         2.61712       -0.598799
LJ            3.4247        -5.66465         6.06653
LJ          -5.53811         4.80939         5.25808
LJ           2.18265        -4.03661         -3.1222
LJ           1.29048        -3.97594         3.30582
LJ           4.41566        -6.33413         5.39058
LJ           1.19894        0.046216         2.41545
LJ          -4.78294        -2.31161        0.184973
LJ         -0.408776         4.92816        -0.41657
LJ           5.29359         6.23094        -1.63246
LJ          -1.04939       0.0890608        -3.94666
LJ          -1.95862         5.71586        -4.70369
LJ          -2.68823        -5.93674        0.456099
LJ          -5.73397       -0.201917         -5.0646
LJ           -4.5367         6.14679        -1.15816
LJ           4.75436        -4.43159        -5.60103
LJ          -5.54815        -3.27706        -2.19565
LJ           4.46007         3.80496         5.83728
LJ           3.73897         4.86685        -2.24072
LJ          -4.97298        -4.86413        -3.14327
LJ           5.18356         5.03305          5.1995
LJ           3.75841        -5.75363        -3.13476
LJ          -4.11264         3.36489         5.12149
LJ           2.97227       -0.475819        -2.32894
LJ            5.5082        -2.10999        0.774818
LJ           1.72135        -1.65324         4.99527
LJ          -2.66579         1.58691        0.587717
LJ          -1.19723        -6.05237         4.25032
LJ         -0.174654        -3.53266          2.1282
LJ          0.503969        -5.53436         4.05439
LJ          -2.35965        0.682063         4.28327
LJ           1.78695       -0.390999         -4.4308
LJ           1.32099         4.69539         2.51194
LJ         -0.978922         3.29223        -3.87489
LJ            4.9789          2.4437         5.79112
LJ          -3.53911         3.00298          2.2801
LJ           -2.8207          -3.509       -0.721747
LJ         -0.875521         2.52299        -6.38704
LJ           4.25467        -5.58928        -2.11687
LJ           5.98195       -0.765606        0.574909
LJ           4.97359         6.42098        -3.54319
LJ           3.13382         3.50916       -0.661004
LJ          -4.02157         5.64399         2.32435
LJ          -2.22759         0.13266         6.03666
