108
#Comment!
LJ           5.69106        -4.21959        -5.80476
LJ          -3.19927         2.97562         -4.6108
LJ          -1.05134        -2.80991        -6.19723
LJ          -3.67901        -6.24694        -1.71297
LJ           3.12531         4.62777        0.352349
LJ          -2.78118        -4.62838        -5.19997
LJ          -2.08471        -1.58435         5.35857
LJ          -1.80474         5.61407          3.4821
LJ           3.44478         5.01727        -1.84119
LJ         -0.982149        -2.60501         5.24457
LJ           1.89572        0.661646        -2.99541
LJ          -4.71088        -1.31265         2.95263
LJ            4.4861        -4.16212        0.996549
LJ          -4.72231        -6.24406         1.77801
LJ          0.599745         4.27734        -3.46442
LJ           4.11532         5.67726         3.34033
LJ           -2.0436         4.20169         5.10451
LJ           4.99326        -3.03586         1.59964
LJ          -3.25861         1.21398       0.0377295
LJ          -1.68595        0.358714       -0.618705
LJ          0.789482         5.72396         2.56052
LJ           3.15206          6.1083         0.84054
LJ          -2.61914         4.41295         2.42009
LJ           5.22916        -1.16597        -3.38896
LJ          -5.26705        0.319342        -2.01129
LJ           1.80009        -5.41571        -2.89661
LJ          -1.38928       -0.457529        -4.94646
LJ           5.11647        -2.40924         2.69004
LJ           4.20108        -2.97111          5.8124
LJ          -3.97153        -4.82883        -4.89906
LJ          0.973516        -4.83532        -1.09166
LJ          -5.56244        -4.56369          1.1888
LJ           6.27972        -1.12267         4.30911
LJ          -1.52644       -0.504636         1.26618
LJ           3.55366        -4.59342         1.33915
LJ           1.90045        -5.33363         1.05204
LJ          -3.01862        -2.20395         4.75638
LJ        -0.0642659         3.57705         4.00437
LJ          -1.68593        -1.50186        -4.59702
LJ          -6.40059         4.99738         -2.6067
LJ          -2.00362         1.87945         5.54177
LJ          -2.02453        -1.07383        -3.21865
LJ           2.34423        -2.14612          1.6912
LJ           6.21231         3.29454       -0.417027
LJ           1.39044        0.616827         -5.8065
LJ          -4.91638       -0.710553         5.08489
LJ           1.61355          4.9007         -2.8838
LJ           4.95216        -5.52041         6.29668
LJ           3.86243        -2.17593        -0.84456
LJ         -0.778181         4.64557         2.16977
LJ          -1.77507         -5.9694        -2.03474
LJ          -6.23972         4.61469        -1.56152
LJ           2.19556         5.25826         1.72396
LJ         -0.819608        -5.42589       -0.893079
LJ          -4.46164        -3.29182         5.15879
LJ           -3.5108        -0.41314         6.30613
LJ           -1.8755        -1.43863        -6.08565
LJ          -1.56505        -0.31215         5.70721
LJ          -5.05945         4.30708        -2.86411
LJ           6.24727       -0.196759        -3.45635
LJ         -0.317289        -3.62489        -1.12925
LJ           2.88953        -5.39224       -0.059826
LJ          0.390499      -0.0869176         -4.0687
LJ          -4.96753         3.09695        -1.94397
LJ           5.85219        -1.77253        -4.97337
LJ           1.80592        0.891014        -4.14412
LJ           1.55181        -5.92851        -1.77398
LJ          -2.79053        -4.56738        -3.94881
LJ           3.88021        -6.14679        -3.92966
LJ          -3.41921        0.207223       -0.692138
LJ          -4.50973         0.82409           -1.46
LJ           3.54467        -1.21828        0.667275
LJ          -1.87486        0.631965         -5.7781
LJ           3.91881         2.29297         -0.3976
LJ         -0.946248        -1.26714        -3.53837
LJ           1.69827        -5.93553         4.57937
LJ          -4.78409        -3.86065         3.47274
LJ           1.43893          3.1608         5.35089
LJ           5.78931         1.95712        -2.41667
LJ           1.33723         6.13975        -5.30266
LJ          -3.57198         2.66854         5.90122
LJ            6.0818        -3.83855         3.82158
LJ          -3.11685       -0.275382         1.49409
LJ          0.446016        -1.22775         6.43409
LJ          -2.18953        -2.88116           1.068
LJ         -0.154498        -4.18154        -3.73267
LJ          -1.65436         5.25984        -6.00467
LJ           3.45514         3.68143        -4.59867
LJ          -3.14405         1.49874         5.87189
LJ           5.68875        -4.93629         6.00046
LJ          -1.07926         3.93383          4.6231
LJ           4.42443         3.73383        -1.99504
LJ           3.94952        -1.57256        -5.50741
LJ          -3.99222        -4.81098         5.51849
LJ          -2.87802        -5.62615         2.05389
LJ          -2.07518         3.54661       -0.526997
LJ         -0.110234         3.97334         5.93705
LJ          0.380658         2.95358         -5.3448
LJ          -4.33657        -2.82138        -1.55516
LJ          0.801033       -0.526515        -5.13756
LJ          -3.54802       -0.957717         4.89428
LJ          -1.40981         4.93387         1.12803
LJ         -0.999246        -3.13223         1.87886
LJ           4.55568        -4.60664        -5.16379
LJ          -5.88128         2.00838        -4.17192
LJ          -3.83952         2.43497        -3.84267
LJ          -4.70119       -0.613985        -2.82256
LJ          -2.60533        -5.11267         5.58474
