108
#Comment!
LJ          -2.12112      -0.0573904         1.72467
LJ          -1.72041         6.12881        -1.39449
LJ          -3.83037         5.79599         5.46616
LJ          -3.71321         2.69028         -6.3982
LJ          -4.80645         4.13067         4.25075
LJ         0.0413486        -2.29874         6.14672
LJ           4.46019        -4.67142         5.41993
LJ           2.04789       -0.924872        -5.53562
LJ          -1.19178         5.24998        -3.96617
LJ          -6.45763        0.789873          6.2291
LJ           3.02831        -1.89684         5.13804
LJ          0.931431        -1.53473        -1.23221
LJ          -3.19158        -1.05765        -3.95503
LJ          -1.78141        -5.77269        -5.91864
LJ          -5.34753         1.70218        -2.48246
LJ          -3.85963         1.06058        -2.28576
LJ           2.75333        -3.72497         2.17296
LJ          -5.76525        -4.66257         2.06604
LJ          -3.27265        -5.21012         1.15007
LJ           1.57355        -4.46258         -1.4937
LJ          -5.17397       0.0753883         3.87689
LJ          -3.30163         2.09575         1.38292
LJ          -2.90198         3.48139        -4.59582
LJ          -2.22495          2.3663         -5.6545
LJ          -1.02278        -1.56669         1.71635
LJ           4.92181        -2.47566         3.38105
LJ           -2.7545      -0.0639638         5.63284
LJ           3.34019        -3.18184        -6.38442
LJ           5.06292       -0.882043        -2.99696
LJ           3.45193          5.0415          4.2806
LJ           5.85288         3.12951         6.29339
LJ            6.2566        0.884626        -5.27016
LJ           2.09958        -0.08595         1.96364
LJ           1.43865         3.51125        -5.03892
LJ          0.611465       -0.609491         1.64072
LJ           6.03597        -6.03792        -2.68554
LJ          0.941615         0.92101         -2.2935
LJ           2.16893        -3.93131         4.74658
LJ          -6.29756        -1.51447         2.15217
LJ          -1.70265        -1.21476        -2.96592
LJ           3.97457       -0.427849        0.978006
LJ          -1.76695         1.71223        -2.58627
LJ          -2.87014        -1.92079         4.03702
LJ           6.28123          2.1454         6.09739
LJ           2.06585       -0.685896        -4.08082
LJ           5.48143        -4.50103         1.28793
LJ          -5.88925        -3.69263        -2.80502
LJ           5.87003        -2.55569        -1.59021
LJ          -3.04171          6.0154        -2.51088
LJ           5.46637         6.13666        -6.16685
LJ           5.93712       -0.491891        -1.81901
LJ         -0.653451         2.57895          2.2294
LJ          -2.74925        -1.27663        -5.71334
LJ            6.3295         2.95016        -4.35052
LJ           6.00007         4.30406         4.22433
LJ          -6.06323         6.39638         5.12888
LJ           6.01562        -3.19418         4.25032
LJ          -1.74594        -6.15886        -2.49093
LJ          -1.59666        -1.31145        -1.95496
LJ        -0.0515212         1.01844        -2.86616
LJ          -1.03886         4.87936        -5.15658
LJ          -2.96801         6.07469         2.13289
LJ           2.24026        -1.85212        -5.15028
LJ           -3.9134         3.59657        0.913725
LJ          0.302201         3.37844       -0.859475
LJ          0.902628         5.25378        -5.65269
LJ          -1.85461         5.08714      -0.0299411
LJ           -2.1603        -1.60616        -4.09219
LJ          -6.18284       -0.456409        -4.43219
LJ           5.25681         5.48453         4.72617
LJ         -0.273323      -0.0639873          4.0986
LJ          -5.77423         3.99033         4.84658
LJ           4.08132         3.87032         6.08753
LJ          -5.35197        -6.41795       -0.476767
LJ          -4.58548           5.834        -2.41752
LJ          -5.57193         5.91238         3.94774
LJ           6.31126        -3.40152        -2.19269
LJ          -1.35348         4.83336         3.74665
LJ           6.37219         2.43338        -2.84548
LJ          -3.27168         1.39149          2.5559
LJ          -2.51556        -3.94729         -3.1655
LJ           5.32421        0.612989        0.122557
LJ         -0.347361        -6.14973         1.78584
LJ          -3.90222         5.37037         4.38419
LJ          0.473077         4.80595         6.40212
LJ           2.44944         5.07062         4.55833
LJ           3.97329           4.295       -0.786252
LJ            5.9512        -4.74745        0.486129
LJ           -1.9891       -0.596004        -4.71386
LJ         -0.949267          6.3625         5.23831
LJ           2.64502      -0.0433245        -1.67511
LJ         -0.518699       -0.385907         -2.4244
LJ          -5.47851        -1.90987         -6.0737
LJ           2.26127        0.263192        -3.40464
LJ          -4.51652        -6.10377         -5.5665
LJ           3.61381        -5.24898         1.72687
LJ           2.79479         5.14871        -6.02465
LJ          -4.66035         6.11707        0.197245
LJ          -4.67372        -5.42067        -1.57095
LJ           5.00052        -4.08756         3.85437
LJ           -2.3056         6.36573        0.900202
LJ            5.6133          6.3037         2.35077
LJ          -1.11474        0.683866         1.40288
LJ          -5.36497         5.79611         -4.8367
LJ          -3.67534         1.85005        -1.13808
LJ           3.70927        -3.67418        -3.41357
LJ           4.06249         1.08072         1.22576
LJ          -5.06287        -6.12087        -2.56342
