108
#Comment!
LJ           5.59596        -4.07938        -4.39161
LJ          -2.04866         2.90316        -3.67992
LJ         0.0485042        -3.89633        -5.66361
LJ          -3.97759        -3.70377        -2.36954
LJ            2.4545         3.86313         1.01455
LJ          -3.13051         -6.1026        -5.97236
LJ           -1.6103        -2.57797         4.44127
LJ          -2.20155         5.32879         5.45629
LJ            3.1645         5.32365        -2.72257
LJ           1.30837        -2.38419          4.4889
LJ           3.55875         1.78012        -1.59678
LJ          -5.40756       -0.752308         2.25329
LJ           5.34933        -4.84164         1.48217
LJ          -5.31143         -5.5088        0.724328
LJ         -0.182502         3.65549        -4.58352
LJ          -6.15535         3.12638         3.13369
LJ          -3.00012         1.53617         3.31592
LJ           4.29674        -4.14248         1.59685
LJ          -4.30088        -1.96104          2.0359
LJ         -0.478006        0.156155        0.661833
LJ          0.690855         5.21694         2.17423
LJ           3.37795        -5.62305        0.707708
LJ          -1.45754         3.32646         2.12667
LJ           4.66701       -0.860678        -4.37335
LJ           -4.4595          2.1217        -3.34827
LJ           2.97419         6.01091        -1.94749
LJ         -0.213374         2.44138         -6.2049
LJ           5.52811        -3.64991          1.0833
LJ           3.81416        -1.85563         5.76405
LJ          -4.15542        -5.70901        -5.78358
LJ           2.05098         -3.5809       -0.126092
LJ            -4.904         -3.6476        0.161584
LJ           4.96384        0.960795         4.40911
LJ          -1.14933        -2.25847          1.6846
LJ           3.46971        -2.87785         1.12216
LJ           1.52785        -5.89999        0.354347
LJ          -4.48825       -0.747656         4.84829
LJ         -0.645278         4.90895         4.91598
LJ          -1.62847         -3.4924        -3.46783
LJ          -5.71169           5.149        -2.86582
LJ          -1.92166         2.42798        -6.26506
LJ          -1.87819        -1.97122        -2.84166
LJ            1.5033        -3.29423         2.30751
LJ           5.68521         3.26018        -2.10703
LJ          0.192471       -0.158985        -4.52515
LJ          -5.51332        -1.19367        -5.18914
LJ           2.02193         4.50825        -1.01255
LJ           4.09117        -5.90091        -4.92518
LJ           1.79234        -1.15316        -1.30818
LJ        -0.0995139         4.16012        0.550113
LJ         -0.558528         5.89356       -0.580921
LJ          -5.35131         4.42638        -2.07264
LJ           2.40688        -5.07245         1.44691
LJ          -1.76193        -4.83014       -0.491963
LJ          -3.40257        -3.15477         5.49494
LJ          -3.37339       -0.873537         5.21801
LJ          -0.95483       -0.761004         6.15448
LJ          -2.48709        -1.49105           5.249
LJ          -4.66688         5.38606        -3.17935
LJ           4.62274       -0.630462        -3.07512
LJ         -0.647617        -5.02417        -1.28074
LJ           2.48925        -6.17352        -1.44012
LJ          -0.60946        -1.23993        -5.49163
LJ          -5.92114         3.06867        -2.35449
LJ           5.40438        -2.40263         6.46062
LJ           1.35584      -0.0102745        -4.91993
LJ           2.64016         4.63751       -0.208219
LJ          -1.98204        -4.38737        -2.82637
LJ           4.23077        -5.28375        -4.10162
LJ          -2.36045        0.973071       -0.909559
LJ          -2.91382        0.504424        0.887878
LJ            3.8017        0.594471       -0.338452
LJ          -3.58913         1.42466         5.23608
LJ           4.55205         1.08766       -0.780002
LJ          -1.14637        -2.55843        -3.32373
LJ           1.38494        -5.53774         4.52928
LJ          -2.80608        -3.20213         4.33798
LJ           1.70526         3.50939         6.41258
LJ           5.93837         1.76478        -1.99872
LJ           1.20894         5.79689        -6.00621
LJ          -3.77472         1.53343         4.22386
LJ           4.99763       -0.875561         3.12625
LJ          -4.34533        -0.14101         2.81191
LJ          0.331566         -1.5233          5.6671
LJ           -3.1153        -3.38058         1.83036
LJ         -0.163613       -0.807117        -3.66382
LJ          0.236791         6.41291        -5.16308
LJ           1.12107         3.60827        -4.82752
LJ          -4.18533          1.2885         6.30064
LJ           5.90243        -5.11509         4.82508
LJ          0.412275          5.2675           5.346
LJ           3.75682         4.28921        -1.60237
LJ           4.20516       -0.278028        -5.15719
LJ           -5.2222         6.02783         5.60091
LJ          -1.13657        -5.83889         1.42196
LJ          -3.88919         5.48672        -1.08755
LJ        -0.0682288         3.93072         5.25323
LJ          0.595125         2.96023          6.2953
LJ          -4.04954        -4.99689       -0.477274
LJ          0.650718        0.309966        -5.97451
LJ          -3.48942       -0.388622         4.32521
LJ         -0.339965         4.94598         1.42622
LJ          -3.33487        -3.51441         3.02059
LJ           2.51707          -3.796        -3.07606
LJ          -5.56787         2.76948        -4.12834
LJ          -5.29112         3.96884        -6.02434
LJ          -2.76259        -2.10637        -2.23345
LJ          -1.61367        -4.20165        -6.11386
