108
#Comment!
LJ            2.0147           2.073        0.468526
LJ           2.06018          2.1882        -2.18977
LJ          -4.41333         5.40906        -4.27274
LJ          -5.45359         1.30369        -6.17914
LJ          -4.47979         3.98639         4.37114
LJ          -4.53407        -2.32085         6.41795
LJ          -3.42258        -5.10956        -5.08848
LJ          0.394552         1.41086        -5.91217
LJ          -1.42953         3.81014        -5.10399
LJ           4.82464        -1.45664        -5.75378
LJ          0.961665       -0.190973         2.12399
LJ         -0.820831         1.33311         -2.3736
LJ          -5.07398         0.71301       -0.443355
LJ          -4.83095         4.60466        -4.71602
LJ           2.76483       -0.381231        -5.30946
LJ         -0.231054         3.73743        -6.07687
LJ           4.55396        -3.24331         6.44032
LJ          -4.56273      0.00348681       0.0380371
LJ          -1.00533       0.0315477         1.24696
LJ          -1.32865        -1.05169        -1.46554
LJ          -2.85272         -3.6849           3.199
LJ          -4.51568         4.68685        0.531652
LJ          -1.16098        0.813309        -3.93327
LJ          -4.57993        -6.20534        -5.35884
LJ          -2.16239        -5.02849         4.03137
LJ           3.90406         -2.1481        -5.45876
LJ          -5.97035        0.954399         3.39941
LJ           1.15128        0.632473         3.12095
LJ           3.77468        -3.17779        -5.61003
LJ           5.04399         2.10022        -1.71933
LJ          -3.32659         3.56016         4.04653
LJ           5.53303        -1.53116        -4.22421
LJ           1.70089         2.64865         1.35295
LJ        -0.0926971         2.68396        -4.98484
LJ          0.871336          2.7028          4.7381
LJ          -5.14937        -3.57035          2.5206
LJ          -5.12508         2.79829       -0.200179
LJ          -5.20273         4.76001          3.5102
LJ          -4.86624        -2.68441         4.04728
LJ          -3.05433          1.9365        -5.24172
LJ           4.49784        -1.65504       0.0101963
LJ          -3.78689          2.6812         2.89684
LJ          -4.12424        -2.90359        -5.69979
LJ           4.21038        0.706277         4.80296
LJ           1.03862         1.74349         5.86455
LJ           1.56885         5.13357        -4.38579
LJ           -3.5172        -3.02093         3.81913
LJ          -5.81013        0.429444        0.577104
LJ         -0.355149         5.38804          2.1936
LJ          -5.56485        -4.82889        -6.18149
LJ          -3.04206        -2.82958        -2.15643
LJ          -1.81174         4.00711         2.30431
LJ          -1.38474        -1.79583        -4.51325
LJ          -6.29641         2.54253         -5.7267
LJ           5.81549         2.96016         3.28339
LJ           6.36102         4.75538         4.37728
LJ           6.34263        -4.95973        -5.93337
LJ          -1.77116        -3.44948        -4.37797
LJ         0.0642254       -0.172998        0.541431
LJ         -0.299261         4.95197        -4.15333
LJ          -4.68135         4.25301         -3.1557
LJ          -2.50042        -5.18774        -2.77017
LJ           5.37171        -5.53972        0.465787
LJ           4.54414         4.70818       -0.263336
LJ           4.28038         3.42299        -3.02748
LJ          -1.83767        -3.47578        -6.42844
LJ          -4.58568         1.81163         -1.0171
LJ          -2.32812        -1.14502         2.11943
LJ            3.8096         2.18008        -6.24757
LJ           -3.5581        -1.94659         4.60126
LJ           5.29649        -1.24936         6.05365
LJ          -5.58984         4.22394        -4.10394
LJ          -5.96009        -3.47867        -5.86895
LJ          -2.95051         6.44134       -0.607907
LJ          -4.52775        -5.69431        0.718049
LJ         -0.101816        0.888873         2.75242
LJ           5.92661        -3.43266        -1.96528
LJ           2.52715         5.16811         2.16778
LJ           4.03573         4.30606        -3.80655
LJ          -4.96363        0.313898         2.83885
LJ          -3.94703          -3.678        -4.98052
LJ           3.76927        0.194157       -0.466961
LJ         -0.145117        -4.94041         1.70774
LJ          -6.21738         2.50301         3.62666
LJ          -3.51694         5.44845        -5.21519
LJ           2.87252         3.75146         1.42008
LJ           5.29856         2.68646      -0.0555268
LJ           -4.0346       -0.850536         1.95245
LJ         -0.616732        -1.18044        -3.89031
LJ          -1.64292         6.39422         5.62286
LJ           5.07771        0.741808        -0.02926
LJ          -1.05337          3.4001         5.73194
LJ          -3.50454        -4.61697        -4.18014
LJ           4.77941         -4.7583        -4.71709
LJ          -4.06905        -2.75752         5.37612
LJ          -5.44278        -6.21334         2.90351
LJ           2.18946         3.02723         2.78652
LJ          -5.13677          6.0597         6.37954
LJ         -0.358988         3.71912         1.38851
LJ          -4.67308          5.4187         2.70875
LJ          -5.92212         4.14016       -0.501758
LJ          -3.04003        0.633914         2.66444
LJ          -3.52565         2.89787        -1.81753
LJ          -6.35404        0.682274        -4.09464
LJ           1.06652         1.64162        -1.72553
LJ          -5.07089         3.21245        -3.24457
LJ           0.35974        -2.53397        0.777037
LJ          -1.26767        -2.20229        -2.28323
