108
#Comment!
LJ          -4.40862        -6.17222        -4.98455
LJ           2.24905         3.95441         -3.8742
LJ           2.87121         3.64079         -2.2908
LJ            4.5186        -3.47791       -0.539038
LJ           2.92294         2.21386         5.56126
LJ          -4.33941         1.28997         6.26955
LJ          0.347156        -1.42429         6.38972
LJ          -3.00498         4.27961        0.789215
LJ           3.04082         3.30533         4.67322
LJ          -5.90145        -4.81347     -0.00679794
LJ          -2.44109         2.75324          2.6997
LJ           3.34376         1.05229         1.85576
LJ           1.66879         -2.6218         -1.6908
LJ           2.65323       -0.253893        -6.38625
LJ         -0.232392       -0.568099        -4.95963
LJ          0.794598         4.63729         -4.2699
LJ         -0.609298        0.569731        -1.62273
LJ           3.95499        -1.55951        -3.79777
LJ        -0.0687846         3.88496         -1.6755
LJ          0.802941        -1.69298         4.50046
LJ          -2.75193         1.31326         2.45571
LJ          -3.35626        -1.25188         4.88265
LJ           4.04067         5.67273         5.37169
LJ         -0.084344        -3.01084         6.18827
LJ           0.31895        -2.28327         3.07116
LJ          -1.40886        -0.32319         4.19633
LJ            5.1042        -2.43615         5.53063
LJ           1.92983        -2.10403       -0.406807
LJ           4.98293       -0.398568        -4.66053
LJ          -5.97924        -1.26336         5.82215
LJ           -4.2338        0.246853         2.53682
LJ          0.861581        -5.49078        -5.57115
LJ          0.807166         5.12886         2.03347
LJ           2.90821         3.26461          2.8429
LJ          -4.22752         1.31414         2.07664
LJ          -4.84123         2.85596          3.5666
LJ           6.35903        -6.11173        -5.37774
LJ            3.2135         4.09078        -3.35752
LJ           1.79878         3.32912        -2.97696
LJ          -1.81357        -6.26439        -3.78862
LJ          -1.64753        -4.79849         -3.9051
LJ           1.85039        -6.00126        -5.26678
LJ          -2.18441        -4.45411        -5.52788
LJ         -0.642093         3.30925        -5.53611
LJ          0.847948        -2.77943         4.46936
LJ          0.139828       0.0792586        -4.12132
LJ         -0.180788       -0.571566        -2.12599
LJ           3.37798         4.15443        -1.20898
LJ           1.38256         1.99903        -2.98786
LJ           2.83976         4.92746        -2.69737
LJ          -3.01478        -6.36155        -3.62893
LJ         -0.656521        -5.91193        -4.27949
LJ           5.08883        -5.83668         4.05644
LJ          -3.64339        -2.74956         5.05623
LJ          -2.23848        -5.68857          6.2141
LJ           4.48757        -3.27035         5.21688
LJ         -0.157167        -3.50074         4.24045
LJ          0.854641       -0.164458        -2.68915
LJ           -1.3114         5.40927        -5.27168
LJ         -0.289349        -3.65126         5.25366
LJ           3.56936        -2.44767         5.52557
LJ           3.89704         4.49511        -2.37975
LJ          -3.52565        -2.12666        -4.09027
LJ          -4.81359         -3.6665         5.24663
LJ           5.27001        0.434467        -5.86952
LJ          -4.44348        -2.45114         5.76621
LJ           1.56167          5.6194        -1.02737
LJ          -5.54674         -1.7228         4.64973
LJ          0.194583     -0.00981605        0.578478
LJ           6.42929        -2.43996         1.12835
LJ           6.08242        -5.04585        -3.31874
LJ          -2.17959          -3.883        -3.35158
LJ          -6.18582        -2.15731        -4.83578
LJ          -4.59517        -4.56344        -2.06276
LJ           4.01314         5.28804        -2.99128
LJ          -2.48086         -5.7005        -5.49256
LJ          -1.84807        -6.45908          3.6573
LJ         -0.818882        -1.20484         3.26372
LJ           3.51314        -6.34515        -1.19538
LJ          0.716987        -2.15486        -0.80118
LJ          -2.92842        -3.62146         2.44549
LJ          0.122336         -4.5848        0.867448
LJ           2.01982        -5.09665       -0.195148
LJ             4.573        0.283775         6.18679
LJ           4.99322         5.21333        -4.02339
LJ          -4.60472           2.587         0.12623
LJ          0.077852         1.97595        -3.68496
LJ         -0.955917         5.91048        -4.37917
LJ           4.81966         6.34089         4.82025
LJ          -5.34287        -4.77099        -6.11899
LJ          -1.54781        -2.93548         -5.0375
LJ           4.77247         2.77654         1.96436
LJ           4.14627          -4.446         4.64269
LJ          -2.86766         -3.9963       -0.895581
LJ          -2.03702         4.37369         3.33463
LJ           3.73017        -1.77592        -0.76826
LJ           4.11198         5.77716        -5.00743
LJ           6.04331        0.137446        -3.11025
LJ          -2.11003         5.24788         2.18109
LJ          -1.37897         3.78469        -3.05948
LJ           6.39872         6.02072         4.03009
LJ           6.36045         6.41821         5.37525
LJ           5.65004         6.05246        -4.20334
LJ           6.16438      -0.0922973         5.46513
LJ          -5.40339        -5.57861         4.17284
LJ          -1.64925        -1.97448        -1.41154
LJ           3.53022        -2.90895          2.2983
LJ           5.97839        0.766024         1.71082
