108
#Comment!
LJ           1.03025         6.30746         3.53706
LJ          -3.36912         4.77323        -3.60042
LJ          -2.56002         1.02991        -1.99178
LJ           5.60426        -2.05059        -2.82108
LJ           3.46299         3.77703         6.21528
LJ          -3.60592       -0.297287          5.6326
LJ          -3.85078         6.18135         3.13479
LJ           -5.5269         1.27858        -1.84443
LJ         -0.680209        -3.55946         5.06352
LJ           1.33019        -1.07802         -2.4799
LJ          0.898204        -3.46359        -3.94475
LJ          -4.26523        -2.96527         2.71459
LJ          -6.18415         2.10839         6.12601
LJ           -2.9882        -3.20047         6.22137
LJ          -3.66753         5.21979        -1.33869
LJ         -0.793926        -3.11233        -4.45789
LJ           2.79799        -2.16773           3.267
LJ           4.69211        -1.18833         6.20488
LJ            1.2748        -1.07779        0.700686
LJ           2.76498         4.44518         3.04952
LJ          -2.08249        -5.48171        -5.73562
LJ          -2.82094         5.75392        -3.42274
LJ           0.69713        -5.87665         4.29009
LJ           2.98205        -4.60762        -2.03321
LJ        -0.0472846          4.1552          6.2586
LJ         -0.385024        -5.03315        0.427752
LJ         -0.871954         -3.6244         3.60506
LJ          -2.39382         1.93937        0.574078
LJ          0.213976        -3.07178         -5.1265
LJ           5.03776         5.40465        -5.22404
LJ          -3.88353         1.00629        -1.64671
LJ           4.90694       -0.868286        -2.72949
LJ          0.278414       -0.448238         3.45286
LJ          0.889216        -4.06199        -5.71766
LJ           3.48422         2.29663        -5.41591
LJ            4.6622         3.04264        -6.41795
LJ          -1.05006        -5.11452        -3.53157
LJ            2.4282         1.68949         3.77977
LJ          -4.72129         3.84292         1.75768
LJ          -3.97196        -3.90247        -4.23484
LJ           3.77647        -6.22541         4.39293
LJ           0.20329         5.18669          2.3407
LJ          -1.91409         4.11942          4.9443
LJ           3.23969        -1.98605         4.32444
LJ          -2.17831        -5.03206        -4.03335
LJ           3.74691         5.05553         5.83942
LJ           3.04349         -2.0525         5.96888
LJ           3.80981         2.04784         3.67058
LJ           6.28381         3.14599        -4.23653
LJ          -3.01291         1.20969       -0.242541
LJ          -5.35822         2.74077        -5.50029
LJ           2.28029        -3.52411         6.31364
LJ          -2.96753         1.84376         5.20831
LJ          -1.01539        -4.12171        -3.87567
LJ           1.06035        -4.03984         6.01132
LJ         -0.941847        -5.85194       -0.636546
LJ           3.04374        -6.42537         3.64878
LJ          -6.27291        -1.47435         2.63256
LJ           -5.9131        -5.44891        -1.26065
LJ           6.16066        -5.16548           2.997
LJ          -2.79263        -6.06479        -0.40646
LJ           2.04097         2.46538         5.59525
LJ           2.26166        -3.78064        -4.41186
LJ          -5.04352         -5.0757         1.06805
LJ           1.38378         5.64559         2.15269
LJ           2.15227        -3.42012          2.7711
LJ          -5.77814        -4.50715         0.57526
LJ          -0.92586        -3.60726        -2.61443
LJ           5.59856        -1.21589         1.01876
LJ           5.71057        -3.35785         4.87196
LJ          0.955847        -1.23791         4.65575
LJ           -5.1677         -1.8571         2.83586
LJ           2.21575         3.65143        -3.00687
LJ          -5.26243         4.81239        -1.64618
LJ          0.803847         5.81567       -0.293497
LJ           -5.6896         6.19289         4.56462
LJ          -1.72889        -2.98083         3.18065
LJ          -2.27215       -0.802275          5.2543
LJ          -1.41647         2.99242        -2.03742
LJ           4.08826         3.27506        -4.10358
LJ           2.22656        -2.22565        -1.72398
LJ            4.8985         4.45698         5.59075
LJ         -0.293648          2.4268        -1.89678
LJ           5.69522        -5.21231        -2.36883
LJ           4.73709         2.57747        -5.23807
LJ           1.99037        -5.90682        -3.89066
LJ          -2.71477          -6.088         -3.2752
LJ           5.22995        -1.25345        -5.59134
LJ          -2.62609        0.687304         2.54154
LJ             5.461        -1.71583         5.54129
LJ           3.92803        0.849683         2.52508
LJ          -3.33075         4.90821         0.60833
LJ          0.162388        -3.14182         5.59016
LJ          0.525976        -5.79082         3.09543
LJ          -5.85903        0.647699         2.05264
LJ           3.66685         2.04839          6.0455
LJ           1.75085         1.44206         4.76456
LJ          -4.28512         4.76609        -5.62933
LJ           5.64451         4.06016         4.12414
LJ          -3.60806         1.56313         3.31763
LJ          -3.64046        -3.42792        -1.74984
LJ          -3.05772        0.894739        -3.03048
LJ           3.44801         5.45533        -1.99287
LJ           5.67412         0.40959         1.23843
LJ          0.119474         -4.0366        -3.13467
LJ           2.84841        -1.50796        -3.44467
LJ          -4.64859       -0.148073         2.93295
LJ          -5.40364         1.99952         3.26538
