108
#Comment!
LJ          0.988458         6.08982         3.66723
LJ          -2.38737          4.7082        -4.10895
LJ          -2.69671        0.935084        -1.65816
LJ           6.13398        -2.61813        -2.55704
LJ           3.74524         3.48966        -6.23421
LJ           -3.1484      -0.0106191         4.90035
LJ          -4.44219         5.46629         2.81953
LJ          -5.60692         1.17894        -0.49669
LJ         -0.541218        -2.99626          4.9484
LJ           1.37645       -0.832696       -0.973475
LJ          0.695967        -3.57801        -3.88388
LJ          -5.41663        -2.82456         2.71146
LJ          -5.95019         2.69799         5.64023
LJ           -3.4042         -1.9952          6.3203
LJ          -3.89451         4.34358        -1.55288
LJ          0.157619        -2.42231        -3.75595
LJ           3.13305        -2.14632         3.77007
LJ           4.02341        -1.65287         5.95348
LJ           2.60751        -1.33703        0.730214
LJ           3.65902         3.47873           3.783
LJ          -1.61598        -4.96575        -5.51559
LJ           -2.7762         5.86707        -3.60588
LJ          0.572522        -5.23688         3.99396
LJ           1.99618        -4.35956        -2.32145
LJ          0.199079         4.36646          5.2737
LJ          0.392314        -5.26069        0.541341
LJ         -0.795137         -3.3883         3.91554
LJ          -2.01941         2.45059       -0.198139
LJ           0.30301         -2.7542         -4.7466
LJ           5.60058         5.45432        -6.36928
LJ          -3.78706         1.26568        -1.63853
LJ           4.92616        -1.22766        -2.12538
LJ          0.365249        -1.21783         3.30626
LJ           1.08189        -4.45268        -5.75498
LJ            4.0177         1.55616          -5.839
LJ           4.85838         2.57836         -6.1923
LJ         -0.546119        -4.57121        -3.91899
LJ           2.41864         1.77834         3.86676
LJ          -5.41188         3.05222         2.15743
LJ          -4.41669        -3.80819        -4.15508
LJ           4.11807         -5.3023         4.61233
LJ          -1.02022          5.5991         2.51462
LJ          -1.12824          3.8851         4.04324
LJ           3.58971        -1.74116         4.67421
LJ          -1.67041        -5.09943        -3.85551
LJ           2.84049         4.47487         5.47855
LJ           2.76942        -2.92933          6.1238
LJ           4.52112         2.54249         3.39776
LJ          -6.45166          4.2867        -3.69781
LJ          -2.89218         1.73095       -0.297773
LJ          -5.22511         1.89604        -6.10857
LJ           1.91488        -4.53869        -6.32485
LJ          -2.90527         1.97285         4.16329
LJ          -2.03793        -3.25757        -3.98206
LJ           1.02485        -3.99524         6.26587
LJ       8.16464e-06        -5.33389         -0.4449
LJ           2.29456        -6.11649         4.75021
LJ           6.28147        -1.22625         1.55752
LJ           5.79795         6.29306        -1.85022
LJ           5.96357        -5.24514         2.95671
LJ          -2.10216         5.98686       -0.528041
LJ            2.0656         2.02292         5.92279
LJ           1.32466        -4.14327        -4.56687
LJ           -5.5592        -4.22777         1.42337
LJ           2.06767        -6.45605         2.66156
LJ           1.77255        -3.56685         2.00671
LJ          -5.95059         -3.7043       -0.491649
LJ          -1.25673        -3.99457        -3.38184
LJ          -6.41472       -0.497117         0.81716
LJ           6.18304        -3.45298         3.63079
LJ          0.699607        -1.99585         4.91873
LJ          -5.06387        -1.91596          3.3341
LJ           2.69327         3.31616        -3.54206
LJ          -4.89204         4.55893        -1.25653
LJ            1.1991         -5.8358        0.263113
LJ          -5.41421         -5.8953         4.13862
LJ          -2.05526        -1.88854         3.42299
LJ          -2.04897       -0.997348         5.20572
LJ          -1.84189         2.77145        -2.14749
LJ           3.92382         2.45725         -3.7661
LJ           1.26138        -1.82687        -1.58095
LJ           4.18533         4.57043         5.37983
LJ           0.25293         1.63773        -1.38976
LJ           5.32838        -5.36959        -2.08274
LJ           4.96394         1.84158        -4.27598
LJ           1.37456        -6.03308        -4.10807
LJ          -4.00395        -5.93449        -3.05401
LJ            5.4038       -0.156209         -5.5117
LJ          -2.07885        0.890925         3.06543
LJ           6.04808        -1.55559           6.071
LJ           5.63455        0.779447         2.90214
LJ          -3.46455         4.63502       -0.181008
LJ         -0.132609        -3.17215         6.44571
LJ          0.844209        -5.91246         2.53441
LJ          -5.59427        0.863066         2.26505
LJ           4.07514         2.89354         5.87967
LJ           1.88119        0.742612         5.85118
LJ          -5.51358         5.18613        -6.03396
LJ           5.23541         3.83481         3.88171
LJ          -2.97287        0.788538          3.7032
LJ          -3.87119        -2.67298        -2.49947
LJ          -3.48097        0.191596        -2.00035
LJ            3.6064         5.39788        -2.55417
LJ           4.89809        0.293324        0.895977
LJ        -0.0942469         -3.3189         -2.6086
LJ            2.7282         -2.4965        -4.01837
LJ          -5.37817       -0.989443         2.88243
LJ          -6.18341          2.1104         2.64621
