108
#Comment!
LJ           5.99793        0.330734        -1.92167
LJ          0.959554         3.01325        -2.10483
LJ           1.36064          6.2875        -2.93525
LJ          -3.56527         3.35631         4.54095
LJ           3.42998       -0.119792         4.92068
LJ           6.14674         3.19592         6.29775
LJ         -0.870951         -5.4201         5.59504
LJ          -1.80371         6.14561         -2.6521
LJ            2.4581         4.24516        -5.91792
LJ            5.6259        -2.52652         2.51651
LJ          -5.65332         2.84892         2.44913
LJ           4.96609       -0.889982       -0.597345
LJ           3.91482         -3.9784        0.692386
LJ           6.17988        -2.79338        -3.05898
LJ         -0.183933         3.16601        -4.82958
LJ          -3.63801          3.3962       -0.882604
LJ          -4.44155         3.53475       -0.122058
LJ           5.07209        -5.46344        0.466211
LJ           5.62622        -5.57508         6.25828
LJ         0.0154848        -2.03974         4.60543
LJ           4.24958         3.73199         2.26944
LJ           1.76321         1.47164         2.42596
LJ           1.73298        -1.33897         2.65155
LJ           1.69685        -2.09703        -4.17209
LJ            4.1871        -5.77721         5.34004
LJ           -6.3586         2.50132        -1.81168
LJ          -1.15414        -4.01746         5.60101
LJ           3.18847        -5.26976         0.16811
LJ           3.59124       -0.673541         5.85611
LJ          -5.95994         2.61055         5.87643
LJ           5.22081       -0.692736         0.67437
LJ           5.70262        -3.14441         4.29726
LJ          0.621118         5.13795           4.478
LJ        0.00974714         4.98295         2.04095
LJ           5.80071       -0.314408         2.30528
LJ           4.89383         5.78611          1.6499
LJ          -5.57162         3.38461         4.56015
LJ          0.975372         5.30061        -5.20296
LJ        -0.0969537        -5.63329        -1.74205
LJ          -2.00429         5.31288        -3.37979
LJ          -1.63783         5.10536        -5.81385
LJ          0.429208        -5.26549        -2.73647
LJ         -0.774551        -6.11453         3.90593
LJ           2.52079         2.02553        -4.04404
LJ          -2.55796        -1.46099         5.10684
LJ          -4.38632       -0.844973        -1.08598
LJ          0.280063         2.97696         0.83506
LJ           1.61558         5.45676        -1.51875
LJ          -5.43353        0.762901        -3.60174
LJ         0.0212457         6.40568        -2.72609
LJ          0.315675         5.32519        -2.22903
LJ          -3.38596         4.78962        -3.71062
LJ            4.1152         1.12291         2.86484
LJ          -3.61385        -4.11714         1.54355
LJ          -1.80804        -6.24645        -6.39201
LJ          -5.76379        -2.31698         5.40957
LJ          -1.57261       -0.850093         5.57882
LJ          0.146093        -1.24499         1.88289
LJ          -4.14663        -6.20818        -4.23985
LJ           2.79706        -1.70696        -4.24819
LJ           1.42185         2.34719       -0.246458
LJ          0.604844         6.28882        -4.03408
LJ         -0.877665       -0.572935        -6.13958
LJ          -3.20664         5.35022         -6.0682
LJ           4.32456         -1.3712         1.43993
LJ          0.145606        -1.08093         5.47852
LJ          -4.04339         -1.5384        -2.07969
LJ          -2.60362         -3.7901         1.78122
LJ           3.33771        -2.16667        -2.68035
LJ           0.12896         3.02055       -0.662762
LJ           3.58316         1.52469         4.97449
LJ          -5.76215         4.76389        -2.29384
LJ           6.32796        0.644041         4.15145
LJ           5.64253        -2.35095        -1.42657
LJ           1.57892        -5.33902        -3.94575
LJ         -0.436031        -4.44156         4.19701
LJ          -1.90105        -5.14135         6.27954
LJ           2.63864         6.17574          5.2133
LJ           2.89026         5.40916       -0.283829
LJ           2.46288         2.46489         2.71203
LJ          -3.24651         4.77842         2.06116
LJ           2.32342         6.04364        0.586427
LJ          -5.28475         1.68819        0.349545
LJ          -4.95719        0.195772         3.95555
LJ           4.51235        -4.99103        -6.18127
LJ          -3.97479        0.520665         3.55778
LJ           1.04628        -2.42174         -3.3614
LJ          -1.81752         4.00918        -4.06059
LJ          -5.31461         2.43296         4.13711
LJ           5.85201        -4.82206       -0.626318
LJ          0.340561        -5.54165          5.3542
LJ          -1.59992          4.2793         1.72325
LJ           4.09309         3.86799        -6.26307
LJ          -4.99172        -5.38886         2.26389
LJ          0.682272         4.81554       -0.838034
LJ           4.64242        -5.02563       -0.841498
LJ           1.94189         5.87919         6.27579
LJ           1.82714        -3.72103         1.21398
LJ          -3.02248          1.9474         3.03792
LJ           1.72689         3.02865        -6.42602
LJ          -4.56757         3.00059         5.61179
LJ           3.80663         2.27603         4.39573
LJ            3.2185         3.80755         1.52585
LJ           -3.2295        -2.09955         2.78643
LJ          -3.98155         4.97011        -5.11907
LJ           1.99811         1.20649         -5.3093
LJ          0.307803         4.77033        0.555528
LJ            5.4099         -1.1026        -3.47551
