108
#Comment!
LJ          -2.88035        0.562642         1.68076
LJ          -2.70719        -5.03961       -0.359793
LJ          -3.41363         5.34103         4.37178
LJ          -3.63804         2.11838        -5.82502
LJ          -3.70779          4.3528         3.55265
LJ           1.31534        -2.35466         6.34016
LJ           3.01787        -3.63331         4.42399
LJ           2.27935        0.558078        -5.49951
LJ          0.268672         5.68271        -4.22014
LJ          -5.98855         1.67727         6.43876
LJ           3.71833        -2.50722         6.32041
LJ           1.19009        -2.17731        -1.01827
LJ          -2.78927       -0.900491        -4.87048
LJ         -0.689245        -4.20426        -6.23211
LJ           -3.7842         2.79842        -1.73827
LJ          -2.19126        -1.79529        -3.42649
LJ           1.98719        -3.40843          1.2986
LJ          -6.26911        -5.05138         3.36872
LJ          -3.71194          5.6801         1.31218
LJ            2.4294         -5.9253        -1.38462
LJ          -5.85762         1.26389         4.02056
LJ          -3.44775         1.51061         1.56011
LJ          -3.39276         4.43664        -4.44386
LJ          -1.14842      -0.0404996        -5.53596
LJ         -0.939802        -2.12606         1.14903
LJ            5.4729        -3.25479         3.01564
LJ          -1.74033       -0.313584         4.87551
LJ           4.14387        -4.21172        -4.71647
LJ           5.12047        0.555444        -3.88714
LJ            4.1375         6.16685         5.77033
LJ           5.18656          3.0757         6.24723
LJ           5.66729         1.03977        -5.79572
LJ           2.72153        -0.81034         2.12712
LJ           2.92464         3.83129         5.97835
LJ           0.68343         -1.4998        0.905166
LJ           5.14852         6.31124        -4.98096
LJ           1.23025        -1.45002        -1.94851
LJ         -0.358164        -2.69411         4.72571
LJ           5.97787        -1.03773         1.71232
LJ          -1.31523        -1.65306        -2.75306
LJ           3.47887       -0.373739         1.58677
LJ          -1.15221         1.79444        -4.75682
LJ          -2.36554        -1.53934         2.71807
LJ           -5.9166         3.18351        -6.14664
LJ           2.59416        -1.07647        -2.91306
LJ           5.24606        -2.80921         1.12515
LJ          -5.59581        -2.70363        -2.80316
LJ           5.59036         -2.9843        0.217553
LJ          -4.07597         6.38004        -3.60545
LJ           4.70511         5.12696         6.36577
LJ           4.74827        0.655349        -2.35478
LJ         -0.645831         1.66916         2.05011
LJ          -3.25389        -0.98942         6.38472
LJ          -6.26528         2.74276        -4.02972
LJ           4.29994         5.76772         4.49056
LJ          -5.27703        -4.73839          5.8064
LJ           5.65927        -2.14785         3.53675
LJ          -1.98224         5.95863        -4.06916
LJ          -1.53859        -1.45063        -1.65293
LJ          0.887351       -0.221892        -1.86761
LJ         -0.922875         5.45467        -4.10365
LJ           -2.1625        -5.47211          2.3586
LJ           1.06816        -2.38828        -3.30219
LJ          -4.26488         2.67748      -0.0312554
LJ          -1.69461         3.53826       0.0649362
LJ            1.0404         4.28984        -5.36704
LJ          -1.78496         5.74898         1.01709
LJ          -1.12203        -3.12638        -5.09889
LJ           -4.4754       -0.687934         -4.1018
LJ           3.35551        -6.46064         3.86968
LJ          -2.14145      -0.0523127         3.24174
LJ           6.38949         3.66013         5.11233
LJ           3.42982           2.204         5.64968
LJ          -5.46612        -5.87852        -1.59754
LJ          -3.87276         4.95753        -3.13608
LJ          -5.08246         -4.8903         3.68101
LJ           -6.2044        -4.62936        -2.93875
LJ          -2.44541         5.22803         4.46775
LJ          -4.78719         2.30128        -2.41082
LJ          -2.60271         1.37061         3.35725
LJ          -2.34599        -5.12249        -2.80686
LJ           5.32345        0.304811        0.925105
LJ          0.356874        -6.39288         2.03105
LJ          -2.79974         5.14344         3.41315
LJ           1.78122         4.08704         6.26326
LJ           2.28756         5.81194         5.31415
LJ           3.34417         4.73257        -0.93969
LJ            5.8405         6.12528        -1.39789
LJ          -3.04976         0.31753        -5.22142
LJ        -0.0474631        -6.26547         5.48694
LJ           1.84598      -0.0305414        -2.96028
LJ          0.752235        -1.39346       -0.463829
LJ          -6.34818       -0.579453         6.41919
LJ          0.719815        0.728331         -2.7648
LJ          -4.45878        -6.39578        -5.30167
LJ           3.41338        -6.22766        0.636147
LJ           2.96874         5.62975         -4.8359
LJ          -4.18744         5.43624       -0.545401
LJ           6.42972        -5.75263        -2.06839
LJ           4.21843        -2.34292         3.79985
LJ          -1.59189        -6.43129         2.16428
LJ           4.02837         4.01911          2.4703
LJ            -1.267       -0.321389         2.66037
LJ          -4.91614        -4.96625         -3.7464
LJ          -3.52073         1.56536        0.433373
LJ           2.07408        -1.79547        -2.28258
LJ            5.2561         2.85884         1.39011
LJ          -5.54185         5.68481         -2.0555
