108
#Comment!
LJ          -2.76625        0.642203         1.56116
LJ          -2.14602        -5.96405        -1.07646
LJ          -3.66202         5.61034         4.97984
LJ          -3.68419         2.43698        -6.15098
LJ          -4.34979         4.11618         3.91284
LJ          0.604978        -2.31424         6.24818
LJ           3.79403        -4.24596         4.99852
LJ           2.15068        -0.24036        -5.55514
LJ         -0.423836           5.511        -3.94057
LJ          -6.33882            1.22         6.43861
LJ           3.33408        -2.15297         5.66424
LJ           1.10047        -1.90703        -1.09982
LJ          -3.11005         -1.0145        -4.35588
LJ          -1.29881        -5.07067        -6.05395
LJ          -4.63868         2.15908        -2.16393
LJ          -3.16424       -0.185808        -2.76352
LJ           2.40888        -3.58171         1.78478
LJ          -6.00756        -4.82752         2.63069
LJ          -3.52757        -6.07973         1.17889
LJ           1.95293        -5.11358        -1.44582
LJ          -5.47829        0.602726         3.93863
LJ          -3.30464         1.66143         1.44743
LJ          -3.12041         3.90269        -4.53047
LJ          -1.70553         1.31839        -5.62841
LJ         -0.682085        -1.68736          1.4306
LJ           5.13601        -2.76733         2.98961
LJ          -2.47502       -0.422139          5.6674
LJ           3.69937        -3.64435         -5.6334
LJ           5.12873       -0.209337        -3.21346
LJ           3.69419         5.56897         5.00652
LJ           5.47166         3.17316         6.28292
LJ           6.06646        0.974462        -5.62414
LJ           2.33542       -0.401287         2.06976
LJ           1.92897         3.84248         -5.7869
LJ          0.340161        -1.15944         1.34717
LJ           5.62604         -6.2955        -3.70933
LJ           1.19211      -0.0788828         -2.0828
LJ           1.04265        -3.39285         4.71884
LJ           6.35068         -1.2974         1.95406
LJ          -1.53262        -1.50051         -2.9542
LJ           3.78564       -0.420503         1.22625
LJ          -1.49454         1.76385        -3.53924
LJ           -2.6562        -1.76823         3.44845
LJ          -6.20389         2.46492         6.41674
LJ           2.27315        -1.09244        -3.69065
LJ           5.36723        -3.75415         1.21675
LJ          -5.48728        -3.85112        -2.51921
LJ           5.78242        -2.80539       -0.858112
LJ          -3.53509         6.16442        -2.99869
LJ           5.15221         5.68165        -6.31113
LJ           5.36705      -0.0162431        -2.23398
LJ         -0.638666         2.19316         2.15129
LJ          -2.82036        -0.92952          6.4232
LJ          -6.46133         2.87338        -4.22678
LJ            5.2377         4.95446         4.26631
LJ            -5.728        -5.71796         5.45479
LJ           5.78606        -2.82277          4.0337
LJ          -1.83264         6.39165        -3.02848
LJ          -1.60964        -1.39932        -1.87014
LJ          0.264216        0.531678        -2.46979
LJ          -1.07738         5.04621         -4.8433
LJ          -2.64748        -6.20097         2.36795
LJ            1.8956         -1.9596        -4.11591
LJ          -3.87187         2.85346        0.815565
LJ         -0.582438         3.44811       -0.451048
LJ           1.15553          4.5474        -5.47438
LJ          -1.72852          5.5125        0.597293
LJ          -1.62367         -2.2544        -4.37915
LJ           -5.4278       -0.561768        -4.27524
LJ           4.48219         5.93726           4.332
LJ           -1.0949      -0.0599182         3.76594
LJ          -6.10598         3.84513         4.95991
LJ           3.76482         3.11143         5.87902
LJ          -5.33408         -6.1421       -0.868169
LJ           -4.2389         5.39403        -2.73507
LJ          -4.92439        -6.31232         3.88018
LJ           6.26009        -3.84783        -2.48194
LJ          -1.79017         4.98953         4.08235
LJ          -5.78362         2.40209        -2.62044
LJ          -3.00374         1.49135         2.83586
LJ          -2.44015        -4.45679        -3.00729
LJ           5.35106        0.470556        0.455596
LJ         -0.425802        -6.34369         1.78279
LJ          -3.77956          5.5969         3.89625
LJ           1.19539         4.74457           5.982
LJ            2.1364         5.18912         5.09035
LJ           3.69317         4.48858       -0.855069
LJ           6.07811        -5.76033        -0.53342
LJ          -2.41914       -0.141608        -4.93914
LJ         -0.545059        -6.42982         5.34418
LJ           2.32742      -0.0639646        -2.12753
LJ        -0.0370542       -0.831477        -1.48231
LJ          -5.86538        -1.32906        -6.27412
LJ           1.56645        0.602195        -3.26468
LJ          -4.53311        -6.26615        -5.40653
LJ           3.52308        -5.68902         1.24085
LJ           2.89915         5.38952        -5.48012
LJ          -4.41044         5.74777       -0.100704
LJ          -5.53225        -5.02427        -2.10153
LJ           4.77728        -3.24374         3.95581
LJ          -1.57271         6.32352         1.33963
LJ           4.90875         5.28457         2.37992
LJ          -1.11604        0.246639         1.91767
LJ          -5.12648        -6.12557        -4.42073
LJ          -3.60648         1.70823       -0.518334
LJ           2.87997        -2.87464        -3.04467
LJ           4.58177         1.89857          1.3133
LJ          -5.63826        -6.44059        -2.24969
