108
#Comment!
LJ          -2.85863        0.502932         1.70618
LJ          -2.76353        -4.94795       -0.288263
LJ          -3.49301         5.31451         4.26976
LJ          -3.63368         2.08561        -5.79177
LJ          -3.62212         4.40697         3.52366
LJ           1.38582         -2.3597         6.34744
LJ           2.94383        -3.56758         4.36519
LJ           2.29222        0.637662        -5.49329
LJ          0.314959         5.69225        -4.25312
LJ          -5.96429         1.73419         6.44803
LJ           3.75639        -2.54404         6.38482
LJ           1.21186        -2.21098        -1.04338
LJ          -2.76084       -0.882394        -4.91901
LJ         -0.628801        -4.11543        -6.24802
LJ          -3.69602          2.8582        -1.69321
LJ          -2.08013         -1.9587        -3.49458
LJ           1.94492        -3.39049          1.2498
LJ          -6.27608        -5.07483         3.45072
LJ          -3.72625         5.56296         1.32423
LJ           2.47742         -6.0067        -1.37797
LJ          -5.89557         1.33023         4.02938
LJ          -3.46287         1.49551         1.58978
LJ          -3.42211         4.49418        -4.42855
LJ          -1.10097       -0.177038        -5.52223
LJ         -0.974262        -2.17315         1.12201
LJ           5.50106        -3.28537         3.03647
LJ          -1.66964       -0.302752         4.79297
LJ           4.18829         -4.2683        -4.62521
LJ           5.11746        0.633644        -3.94085
LJ           4.19617         6.20866         5.82865
LJ           5.16506         3.06547         6.24193
LJ           5.63956          1.0519        -5.81963
LJ           2.71533       -0.877414         2.16424
LJ           3.00216         3.84067         5.85847
LJ          0.727013        -1.52842        0.850444
LJ           5.10031         6.27868         -5.1092
LJ           1.14897         -1.5591        -1.89115
LJ         -0.497428        -2.62337         4.72868
LJ           5.93768        -1.01114         1.68684
LJ          -1.30951         -1.6617        -2.72336
LJ           3.49484       -0.342928         1.59037
LJ           -1.1186         1.79436        -4.88093
LJ          -2.33145        -1.50691         2.64616
LJ          -5.89682         3.24075        -6.11658
LJ           2.62563         -1.0215        -2.85505
LJ           5.20979        -2.69879         1.18459
LJ          -5.61552        -2.59863        -2.83196
LJ             5.596        -3.01661         0.26168
LJ          -4.13251          6.3862        -3.66348
LJ           4.64933         5.08254         6.32943
LJ           4.68875        0.721137        -2.38186
LJ         -0.648516          1.6145         2.04046
LJ          -3.29279       -0.991072         6.38668
LJ          -6.24457         2.72889        -4.01054
LJ           4.19965         5.85016         4.52881
LJ          -5.23134        -4.64122         5.83947
LJ           5.62179        -2.09913         3.47675
LJ          -1.98399         5.90495         -4.1783
LJ          -1.52846        -1.45774        -1.64907
LJ          0.955638       -0.312345         -1.8094
LJ         -0.900938         5.51245        -4.02043
LJ          -2.10207        -5.41599         2.34791
LJ          0.954687        -2.41517        -3.25136
LJ          -4.33221         2.71268       -0.157787
LJ          -1.80644          3.5475        0.117027
LJ           1.03652         4.26424        -5.36813
LJ          -1.79702          5.7684          1.0578
LJ          -1.07148        -3.21466         -5.1721
LJ          -4.37663       -0.700543        -4.08612
LJ           3.24017        -6.40602         3.83857
LJ          -2.26436      -0.0459226         3.19505
LJ           6.34415         3.63849         5.13439
LJ           3.39664         2.11939         5.62979
LJ          -5.49317        -5.86742        -1.68119
LJ          -3.83314         4.93127        -3.18831
LJ          -5.11804        -4.74635         3.65526
LJ          -6.14399        -4.71537        -2.97698
LJ          -2.41332         5.23956         4.50563
LJ          -4.69118         2.29579        -2.39077
LJ             -2.56          1.3485         3.40017
LJ           -2.3371        -5.19107        -2.78704
LJ           5.32009         0.28523        0.975052
LJ          0.460835        -6.39113         2.06537
LJ          -2.71657         5.08186          3.3975
LJ           1.83889         3.99544         6.32584
LJ           2.32746         5.89012         5.31755
LJ           3.30933         4.75748       -0.947988
LJ            5.7444         6.06276        -1.42215
LJ          -3.10351        0.355436        -5.25301
LJ        0.00231655        -6.24896         5.50158
LJ           1.77512      -0.0450947        -3.04204
LJ          0.828225        -1.42451        -0.35322
LJ          -6.39686       -0.502191         6.39663
LJ          0.661518        0.724667        -2.71378
LJ          -4.45299        -6.40613        -5.28263
LJ           3.40222        -6.28157        0.575189
LJ           2.97524         5.65234        -4.77358
LJ          -4.16581          5.4082       -0.588903
LJ           6.32427         -5.7911        -2.06503
LJ            4.1899        -2.25574          3.7734
LJ          -1.63164        -6.40214         2.24734
LJ           3.94094         3.89262         2.48029
LJ          -1.27369       -0.383771         2.72974
LJ          -4.89411        -4.85625        -3.67884
LJ           -3.5107         1.55135        0.547133
LJ           2.08666        -1.75518        -2.16663
LJ           5.32312         2.95465         1.39812
LJ          -5.43322         5.55751        -2.09857
