108
#Comment!
LJ           5.46254         -4.0877         -3.8601
LJ          -1.63323         2.87983        -3.35495
LJ           0.35702        -4.28976        -5.48702
LJ          -3.88925        -2.76915         -3.1542
LJ             2.279         3.00149         1.44076
LJ          -3.54205        -6.45991         6.37755
LJ         -0.630542        -2.14343         4.97274
LJ          -2.17429         5.49937          6.1092
LJ           3.06922         5.19868        -3.21996
LJ           2.12471        -2.23322         4.28676
LJ           4.36944         2.02124       -0.929487
LJ          -5.59466       -0.653165          1.8634
LJ           5.37108        -4.76225         1.80601
LJ          -5.48844        -5.16603        0.271615
LJ          -1.28847         3.45398        -4.86029
LJ          -5.13957         2.14954         3.05761
LJ          -3.38934       0.0555572         2.65546
LJ            4.4148        -4.47728         1.33588
LJ          -4.71198        -3.07524         2.89961
LJ        -0.0580049       0.0733166         1.14791
LJ          0.855035         5.06201         2.24315
LJ           3.15162        -4.81499        0.827807
LJ          -1.09023         2.80366         2.14927
LJ           4.64571       -0.831365         -4.1608
LJ          -3.94821         2.78571        -3.96754
LJ           3.53509         5.45408         -1.5047
LJ         -0.448171         3.20143          6.4326
LJ           5.24273        -4.43922        0.490218
LJ           3.72491        -1.43916         5.78101
LJ          -4.42622        -6.31247        -5.71492
LJ           2.49677        -3.17144         0.30163
LJ           -4.9259         -3.3326        0.279697
LJ           4.18756         1.75752         4.23853
LJ          -1.03463        -2.93735         1.84701
LJ           3.67661        -2.40682         1.14738
LJ           1.52463        -5.95996        0.534914
LJ           -4.6056      -0.0228705         4.76962
LJ         -0.546391         5.30475         5.73783
LJ          -1.51302        -3.94294        -3.24957
LJ          -5.26826         5.13941        -2.88791
LJ          -1.86383         2.54235        -5.82622
LJ          -1.58377         -2.1537        -2.86499
LJ           1.23287        -3.75906         2.50782
LJ           5.20044         3.19885        -2.63614
LJ         -0.239218         0.39185        -5.14425
LJ          -5.45008        -1.40551        -3.99086
LJ           1.77868         4.36025       -0.888576
LJ           3.74129        -6.22115        -4.55679
LJ          0.966429       -0.907819        -1.65145
LJ        -0.0749239          4.2656        0.111417
LJ        -0.0769274         5.53523       0.0644983
LJ          -5.28836         4.06434        -2.08615
LJ           2.59202        -3.88406         1.53244
LJ          -2.05407        -4.70165        -0.43928
LJ          -2.93529         -3.0529         5.57291
LJ           -3.5979        -1.17942         5.31925
LJ          -0.44669       -0.704545         6.05404
LJ          -2.44963        -2.34404         5.05029
LJ          -4.48681         5.90391        -3.52781
LJ           3.97846       -0.891418         -3.2776
LJ         -0.853748        -5.54555        -1.29169
LJ           2.17644        -6.25193        -1.77278
LJ         -0.684413         -1.5188         -6.1503
LJ          -5.72272         3.32243        -2.69802
LJ           5.16684        -2.61408         5.88713
LJ           1.14688       -0.438426        -5.54278
LJ           3.55707         3.89498        -0.15843
LJ          -1.85082        -4.70245        -1.87604
LJ            4.4495        -4.65266        -3.89006
LJ          -2.06671          1.2317       -0.852936
LJ          -2.18467        0.353432         1.70514
LJ           3.51705         1.26549       -0.378364
LJ          -4.53021         1.73677          4.9625
LJ           5.02089        0.836855        -1.21242
LJ         -0.801352        -3.00814        -3.60294
LJ           1.25948        -5.39506         4.51213
LJ          -2.66963         -3.2031         4.54001
LJ           1.63221         3.63485        -5.97342
LJ            5.2958         1.90823        -1.62742
LJ           1.55302         5.52228         6.42346
LJ          -3.90431         1.08945          3.6433
LJ           4.58083        0.263178         2.81821
LJ           -4.9294       0.0516499          2.7506
LJ          0.104456        -1.62873         5.34285
LJ          -3.53196        -3.48338          2.1978
LJ         -0.781866       -0.592417        -2.65144
LJ          0.523762         -5.9867        -4.69149
LJ           1.00428         3.49601         -5.1962
LJ          -4.17268         1.20995         6.01146
LJ            5.9747        -5.18737         4.40337
LJ          0.674535         5.23413         5.45862
LJ           3.43151         4.37282        -1.39832
LJ           4.15617        0.380661        -5.28475
LJ          -5.64857         5.29643          5.6431
LJ         -0.462867        -5.93432         1.15461
LJ           -4.6044         6.22679         -1.3244
LJ         -0.025668         4.45474          4.9398
LJ           1.21539         3.57441         5.33719
LJ          -3.84843        -5.79924       0.0182036
LJ          0.725368        0.767512        -5.84345
LJ          -3.65933       0.0928625         4.25297
LJ          0.186772         4.80897        0.973807
LJ          -4.51727         -4.0416         2.81044
LJ           1.77476        -3.54163        -2.28642
LJ            -5.116         3.07097        -4.21467
LJ          -5.83194         4.50247         6.12288
LJ           -2.4516          -2.753        -1.77962
LJ         -0.678356        -3.80832        -5.87095
