108
#Comment!
LJ           3.09187         5.04617       -0.299601
LJ          -6.20912       -0.538304        -4.06229
LJ          -4.72392         5.47901         2.96956
LJ           2.54808         2.62494        -6.24455
LJ          -3.17686         3.60688         4.41354
LJ           -5.6796        -1.30501         6.07006
LJ         -0.879411         -4.6738         5.14525
LJ         -0.916887         2.80457          6.1882
LJ          0.274194         3.85188        -6.33546
LJ           6.00065        -2.37439        -5.99314
LJ         -0.815487         1.84519        0.175391
LJ          -1.91293          5.2476        -4.55067
LJ           5.65641         4.40379        0.347595
LJ           5.77782         4.50349        -3.65597
LJ         -0.605733        -2.43725         4.68124
LJ           5.43512         2.61792        -4.38349
LJ          -4.27604        -3.63764        -5.00703
LJ          -3.05273           6.052         1.00417
LJ          -1.20933         3.42856         3.67509
LJ          -3.91558        -3.04433        -2.68803
LJ         -0.709957         5.05861         3.40086
LJ           5.26593         2.81963        0.094566
LJ          0.713358        0.117169        -1.90845
LJ             4.533        -5.35219        -5.84783
LJ          -2.31369         5.13255         5.59141
LJ           2.25653        -1.38436        -1.62483
LJ           5.62162        -1.06178        -2.05942
LJ          -2.20023         2.98016         3.09847
LJ           2.23894        -4.67138          5.8829
LJ          -5.01832        0.867935        -6.35851
LJ          -2.06415        -4.91251        -6.39797
LJ            3.9475        -3.54321        -3.22935
LJ           1.40757         3.57852        -1.60021
LJ          -1.30415         4.12516         6.15151
LJ            3.0283         5.48671         6.32405
LJ          -5.03798       -0.205116         4.32128
LJ           1.46889         3.75051          3.3075
LJ          -3.42165        0.559265         2.40378
LJ          -4.98859        -5.54756         6.09594
LJ          -2.11947         5.31561        -5.84036
LJ           3.18228        -1.71482         1.51864
LJ          -2.70482         1.54507         1.95249
LJ          -4.77642         6.14262        -4.10495
LJ           2.67233       -0.550723         4.19383
LJ          -1.01099         3.05795         4.61952
LJ            -2.229         2.50659          1.5908
LJ           -1.3399        -4.48186       -0.806771
LJ            5.8364        -1.55595         3.50166
LJ           3.45976        -6.31158         3.00201
LJ          -5.14969        -3.35211         4.28519
LJ           1.38728        -4.39879         -5.1468
LJ          -3.67895         4.58907         3.95413
LJ         -0.148736       -0.323494        -3.52175
LJ          -1.57487         1.92728          2.7609
LJ           2.94711         2.64594         2.76789
LJ          -6.14497         3.79395        0.268512
LJ          -6.14802         6.45303       -0.596314
LJ         -0.886996        -1.73404         -5.0895
LJ           1.57878        0.972248         1.36462
LJ          0.405914        -4.93149        -6.08867
LJ          -4.60551          2.0253       -0.448881
LJ          0.134231         -4.5987        -2.90688
LJ          -5.47934          5.7748        -3.38777
LJ          0.231339         3.90127        -1.62451
LJ           2.50795         5.40151        -2.26665
LJ          -5.04777        -0.30908         6.41114
LJ          -4.67513         5.97178          -5.856
LJ           3.18286        -3.06645       -0.732262
LJ           1.67022         4.89413         5.58697
LJ           2.25711        0.892029         5.96783
LJ          -3.40072        -2.05735        -4.69095
LJ          -5.76746         2.15044        -3.50587
LJ          -4.98184        -5.29868        -3.09702
LJ          0.813017        -5.51007        -2.02021
LJ          -4.53206        -5.31346         3.26006
LJ          -3.95689        -2.16505        0.453641
LJ          -5.99344        -4.00762         -3.0835
LJ           3.67894         5.87393       -0.210237
LJ           3.41973         6.16201        -2.20468
LJ           5.10321       -0.183983         4.15746
LJ          -4.13125        -5.62482        -5.37033
LJ           4.06612        0.352299         2.45058
LJ          -1.38679        -3.66165         1.00957
LJ           3.62283         -1.2346        0.684011
LJ          -4.86439         4.64486        -5.14257
LJ           5.79411         6.26559       -0.767513
LJ            5.6945         1.00352         0.63957
LJ           -5.6416        -1.94635         2.21343
LJ         -0.571815         -2.1787        -2.75148
LJ          -1.00745        -5.06844        -6.33634
LJ          -6.19651        0.899373        -1.73741
LJ         -0.459363         4.70238        -6.27667
LJ          -3.12491       -0.957148        -1.42668
LJ            5.0011         3.01774        -6.18333
LJ           5.56565       -0.858973        -5.78493
LJ          -1.66156          4.6588         2.59096
LJ            1.7244         1.33555        0.368977
LJ          -6.15232         4.80296         -1.4343
LJ           4.27843         1.69284        0.334526
LJ          -4.05384         2.58561        0.668363
LJ          -5.88017         3.20022         -1.2774
LJ          -1.27953        -5.81619         5.75506
LJ           6.27872         2.26782        -1.54343
LJ           5.53375        -2.63764        -1.84836
LJ           4.03014         2.32206         -1.2516
LJ          -2.20205       -0.215565        -1.25964
LJ          -1.71535        -4.64405         1.37949
LJ          0.547155        0.758248        -3.50141
