108
#Comment!
LJ          0.946564         6.42107         3.66952
LJ          -4.07377         5.05235         -3.1389
LJ           -2.6103        0.901359        -2.57309
LJ           5.57911         -2.1743        -3.13023
LJ           3.50196         4.05867         5.76872
LJ           -3.7643       -0.590249         6.14891
LJ          -3.38815        -6.17266         3.38968
LJ          -5.37974         1.34653        -2.91823
LJ         -0.776706         -4.0238         4.90285
LJ           1.42715         -1.4302        -3.66355
LJ          0.808438        -3.57721        -4.14857
LJ          -3.47386         -2.8482         2.76819
LJ          -6.33001         1.66651        -6.31081
LJ          -2.64239        -4.16406         6.14262
LJ          -3.60654          5.9199         -1.1406
LJ          -1.36772        -3.69763        -5.26821
LJ           2.52899        -2.20822         2.93473
LJ           5.37772       -0.940096         6.41316
LJ          0.208887       -0.872445        0.675459
LJ           2.02953         5.25827         2.44407
LJ          -2.45143        -5.86497        -5.81787
LJ          -2.93747         5.60614        -3.29943
LJ          0.836505        -6.37731          4.9668
LJ            3.7631        -4.80256        -1.81552
LJ         -0.253068         3.98411        -5.89187
LJ          -1.06618        -5.00492        0.182858
LJ         -0.587495        -3.94464         3.84411
LJ          -2.77895         1.42447         1.16042
LJ         0.0476807         -3.5833        -4.99286
LJ           4.57284          5.3313        -4.32893
LJ          -3.69706        0.851937        -1.72372
LJ           4.47395     -0.00971933        -3.12141
LJ          0.282752       0.0877186         3.68639
LJ          0.686935         -3.6019        -6.10127
LJ           2.69234         2.72826        -5.34622
LJ            4.3954         3.70008         6.11948
LJ           -1.1108         -5.5659        -2.92829
LJ            2.2426         1.54736         3.47121
LJ          -4.14023         4.48357         1.43059
LJ          -3.58062        -3.99769        -4.28926
LJ           3.79169         6.03855          4.4443
LJ          0.516386         4.56195         2.54956
LJ          -2.53339         4.30389          5.6746
LJ           2.88756        -2.23922          4.0234
LJ          -2.47355        -5.02953        -4.04479
LJ            4.6596         5.19385         6.17355
LJ           3.27882        -1.39988         5.77519
LJ           3.69586         1.67808         3.90026
LJ           6.13722         2.23416        -4.73247
LJ          -3.18324        0.998358        0.109336
LJ          -5.57157         3.40104        -5.07302
LJ           2.28087        -2.75558         6.05622
LJ          -3.03807         1.68423          5.9728
LJ         -0.456795        -4.04704         -4.0491
LJ           1.42199        -4.08271         6.10822
LJ          -1.63344        -6.15855       -0.634744
LJ           3.28711         6.12195         2.52784
LJ          -6.01236        -1.60904         3.47278
LJ          -5.01585         -4.4422       -0.834085
LJ             6.328        -5.09903         3.03181
LJ           -3.3251        -5.38963       -0.320263
LJ           2.10364         2.83542         5.26425
LJ           2.83429        -3.38429        -4.06432
LJ          -4.46109        -5.87471        0.845865
LJ           1.69565         5.37559         1.26375
LJ           2.51399        -3.22253         3.46534
LJ          -5.80858        -5.03333         1.35389
LJ         -0.494134        -3.52524        -2.51708
LJ           4.87838        -1.69738         1.28454
LJ           5.31819        -3.21425         5.87239
LJ           1.09564       -0.579411         4.33736
LJ          -5.07165         -1.9657         2.33332
LJ           1.85933         3.91755        -2.58712
LJ          -5.40341         5.03912        -1.95047
LJ          0.441331          4.8371       -0.729296
LJ          -5.91263         5.51875         4.89104
LJ          -1.76476        -3.69997         2.81845
LJ          -2.65627       -0.571606          5.3446
LJ          -1.65498         3.42028        -1.91631
LJ           4.13239         3.94565        -4.43807
LJ           2.93277        -2.39177         -1.9075
LJ            5.1834         4.27424         5.82071
LJ         -0.170919         2.79125        -2.32922
LJ            6.0724        -5.14066        -2.52936
LJ           4.92609         3.19775        -5.84117
LJ           2.48016        -5.77397        -3.71737
LJ          -1.92987        -6.41919        -3.71895
LJ           5.02251        -2.14047        -5.84671
LJ          -3.18768        0.619625         2.19267
LJ           4.84552         -1.8109         5.25766
LJ           2.55613        0.978723         2.29099
LJ          -3.26772         5.11511         1.20651
LJ          0.294994        -3.04814         4.94924
LJ          0.259325        -5.73404         3.05879
LJ          -5.79644        0.508493         2.12702
LJ           3.36963         1.58279         6.39456
LJ           1.42061         1.98807         4.15672
LJ          -3.30491         4.42324        -5.29164
LJ           5.91786         4.25489         4.40341
LJ          -4.03164         2.12142         2.96809
LJ           -3.4565        -4.04465        -1.15629
LJ          -2.73903         1.53396        -3.73189
LJ           3.31621         5.49842        -1.55034
LJ           6.09535        0.355295         1.37053
LJ          0.585217        -4.75218        -3.28758
LJ           2.88575       -0.734935        -2.94433
LJ          -4.12519        0.530614         2.91066
LJ          -4.76345         1.82476         3.74008
