108
#Comment!
LJ          -2.71804        -5.39095        -4.40907
LJ           4.64195         3.22495        -2.83274
LJ           4.01232         1.14985        -2.27938
LJ            3.3613        -2.46796        -4.48287
LJ           1.20107         5.26856         3.55265
LJ          -1.82831        0.555675         5.86797
LJ        -0.0735472       -0.614006        -5.15818
LJ          -5.82174         2.78311        0.674626
LJ           2.25441         2.16462         5.65841
LJ          -5.71883         6.19693        -2.05886
LJ         -0.518897        0.850909         3.44735
LJ            2.3991         3.05679         2.92337
LJ           2.78356         -1.4084        -3.12423
LJ          0.581096        0.511905         4.91982
LJ          -2.51405        -3.37186        -4.47901
LJ           3.85256         3.20892        -1.93752
LJ           2.61083        -2.49438        -5.48824
LJ           1.83105        -0.72779        -5.15141
LJ          -1.71203        0.984084          3.1295
LJ           1.21091        -2.42857         2.77281
LJ          0.567082          1.3058         3.09599
LJ            6.4132        -1.28514         4.89042
LJ          -5.30168         3.45989        -5.17504
LJ         -0.211086        -3.61705         1.57293
LJ         -0.243012         1.37154         4.99322
LJ           2.44806         3.61096          1.9259
LJ          0.804469        -1.99465        -6.24116
LJ           1.21361        -1.43892        -1.92059
LJ          -5.57554         1.52135         4.07157
LJ            4.8202       -0.703393         5.18668
LJ          -3.53048        0.465997         2.13374
LJ         -0.489065        -4.63834           6.184
LJ           1.30447         2.00435         0.31405
LJ           5.57425         3.27023         4.83901
LJ          -3.57653       -0.387479         3.45384
LJ          -2.74647           2.385         5.16699
LJ          -6.19264        -4.42231       -0.084506
LJ           5.71283         2.83358        -2.99217
LJ           3.91227         2.30778        -2.39347
LJ         -0.319853        -5.70012        -4.13852
LJ          -1.71953        -4.18883        -1.39734
LJ          0.385615        -3.94598          2.3426
LJ          -1.65418        -5.15807         -2.2299
LJ          -4.72641         6.28723         5.97363
LJ          0.182158        -2.90777         2.57106
LJ           4.69042         0.26068         5.34767
LJ           2.10709        -1.94982         -4.4441
LJ           4.08619         -1.6061          -2.514
LJ          -1.29135         4.39742        -2.39572
LJ           4.83736         2.81785        -1.85657
LJ          -2.31604        -6.46077        -4.42515
LJ          -1.23584        -5.73429        -3.47053
LJ           4.34315        -2.85471         4.42392
LJ          -2.50588        -2.61804        -5.39917
LJ          -3.21727         -4.0801         4.38951
LJ           1.75074        -3.41396         5.20719
LJ            1.7107        -1.79817          3.8636
LJ          0.893867        -1.19487        -5.63281
LJ          0.922234         4.16582         6.23154
LJ         -0.363619        -3.84989           3.262
LJ           4.66452        -5.21936        -2.16928
LJ           4.16949         2.38058         -3.5514
LJ          -4.58276        -4.36798        -2.34197
LJ           4.93131          1.0356         3.38119
LJ          -5.08408         1.50875         5.03441
LJ           5.72319        -5.83282        -5.97583
LJ           5.06654          2.1129       -0.595397
LJ            5.2599       0.0109594         6.43935
LJ          -5.10293         4.79731       -0.818588
LJ          -2.52678         5.67713         3.43925
LJ           5.97712         2.21224      -0.0912104
LJ          -1.40382        -1.34767          -3.809
LJ           6.01367        -3.24262        0.151343
LJ          -4.41765         6.08384        -2.06483
LJ           5.11479         4.40695        -3.11223
LJ          -2.15759        -5.84828        -5.40199
LJ          -1.03619        -1.01338        -0.70318
LJ           5.05225        -4.99855         2.64057
LJ           4.37011        -3.72897        -1.45596
LJ           1.79495        -2.24603        -2.30936
LJ           4.84951        -3.75067          5.0023
LJ         0.0236839        -5.00689       0.0594482
LJ          -2.59394         2.79869         3.35555
LJ           1.40326       -0.615064         2.76852
LJ           6.41098         4.60248        -1.55724
LJ          -6.15474         4.37231        -5.81603
LJ         -0.263268         4.72498        -2.41951
LJ         -0.691622         6.35697        -2.85818
LJ           3.83577        -4.01683         4.77608
LJ          -5.97516         -3.8288         3.97263
LJ          -1.80403         2.86131        -6.29123
LJ           1.95251        0.264588       -0.532599
LJ           3.67931        -4.36659        0.800577
LJ          -1.55224         -2.3716        -2.40252
LJ          -1.84931        -4.75464         5.30731
LJ           6.04412         1.09341        -5.24459
LJ          -5.44814         4.28009        -1.68368
LJ          -2.45161         1.99033        -5.03142
LJ          -2.65004         5.90053         6.17723
LJ          -1.83848         4.58327       -0.295938
LJ           5.37938        -6.36137          6.1049
LJ           4.04011        -1.75367         4.09998
LJ           4.90306          5.2793         4.86681
LJ          -6.23172       0.0805747         5.64046
LJ           4.82553        -4.86736          4.3914
LJ           -3.2374        -4.94813       -0.630257
LJ          -5.00383        -5.83119         3.55423
LJ           5.44382         1.01774         6.16766
