108
#Comment!
LJ          0.405952        0.749779         1.21133
LJ           0.48726         3.79554        -1.62535
LJ          -4.63905         6.41861        -5.46806
LJ          -3.10378         2.32086        -6.31959
LJ          -3.45166         5.28208         4.81467
LJ          -2.19282        -2.20576         5.77969
LJ          -5.95687        -5.47713         5.92337
LJ          0.898171       0.0785021        -5.79645
LJ          -2.47937         3.72344        -5.57271
LJ           5.66031       -0.688932          -6.223
LJ           1.87091        -1.00361         3.20879
LJ         0.0863377      -0.0315275        -1.76264
LJ            -4.273      -0.0950309        -2.13038
LJ            -4.333         4.77933        -5.99694
LJ           4.63884        0.615564         -3.8782
LJ           3.72573         3.68701        -4.06004
LJ           3.47027        -3.30979         4.33681
LJ          -5.48711        -3.33759        0.264955
LJ          -2.08161        -2.30759         1.14389
LJ         0.0912792         -1.8795        -1.67871
LJ          -4.10479        -2.06889         3.52379
LJ          -3.82078         4.44663        0.611273
LJ          -2.02761         1.99172        -4.08437
LJ          -3.71763          5.5459         6.19295
LJ           -1.6607        -3.29599         3.07214
LJ           4.51289        -2.27896          5.5598
LJ          -3.84703         1.19856         5.63416
LJ           1.94758        -1.29635         4.55034
LJ           3.85028        -2.98138        -3.86658
LJ           4.16665           3.205         1.09868
LJ          -5.58522         3.12986         4.65893
LJ           6.29043       -0.395144        -4.65004
LJ           2.15614          1.7004           1.491
LJ          0.622296          2.7485        -4.46451
LJ          0.516228         1.24346         3.33783
LJ          -5.14955        -5.10145         1.23658
LJ          -2.13601         2.94651        -1.93866
LJ           6.01622        -6.23348         4.68351
LJ          -5.13993        -2.29004         3.20215
LJ          -2.96942        0.461039        -4.68878
LJ           5.08795         -1.6831       -0.487768
LJ          -3.06773         2.11471         1.03562
LJ          -3.65928        -2.43633         6.33666
LJ           4.99198         1.30945         5.22928
LJ           1.65238        0.941215        -5.77543
LJ           3.21933          6.4257         5.43777
LJ          -5.25133        -2.87175        -6.32726
LJ           6.33397       -0.259006       -0.595966
LJ          -1.34102         5.52117      -0.0389062
LJ          -5.31138        -5.63173        -5.49421
LJ          -4.71544        -1.87974       -0.478576
LJ          -1.05935         3.66147         2.34325
LJ          -2.04515        -1.37135        -4.66144
LJ           5.88199         2.87607         -3.9787
LJ          -6.30312         3.27249         3.97253
LJ           -5.6469         4.88994         5.97473
LJ           5.83975        -4.61015         4.53649
LJ          -2.07629        -4.42647        -3.36136
LJ         -0.805589       -0.659416       -0.274308
LJ         -0.536275         2.92919         -3.5373
LJ          -2.55937          4.6021        -3.89881
LJ          -2.80172        -6.38877       -0.403882
LJ           4.44984        -4.40714         3.94742
LJ          -5.80234         4.46591        0.592706
LJ           3.68715         3.05027        -2.52423
LJ         -0.533806        -5.19702        -6.07197
LJ          -3.77063         3.00856       -0.543024
LJ          -2.63093        -1.52041       -0.747169
LJ           4.64309         1.01442        -5.56359
LJ          -5.46488        0.924062         4.79761
LJ           2.93933       -0.314653         5.26624
LJ          -5.71183         4.43436        -5.97719
LJ           5.39289        -5.93316         -6.1015
LJ          -4.80494         6.17014       -0.336883
LJ          -4.69305        -5.67016       -0.335457
LJ           3.12131         2.96014          3.1461
LJ           5.65538        -2.80717        -1.40803
LJ          0.609237         4.62695         2.63226
LJ           4.70893         2.76624        -4.04246
LJ          -4.02871        0.562076          2.5861
LJ          -2.90929        -3.26473        -4.08481
LJ           4.71978        0.819876        -0.87086
LJ         -0.215968        -5.45235         1.74199
LJ          -4.63182         3.96794         5.30298
LJ          -1.87101          5.4168        -5.71809
LJ            2.4175         4.42459         2.90196
LJ             5.055         3.53109       -0.524532
LJ          -4.78644        -2.08011        0.649945
LJ         -0.929405        -1.09769        -4.40174
LJ           -2.5871         5.72604         4.99701
LJ           3.67172        0.123434       -0.157896
LJ          -2.22274         1.95764         -6.0046
LJ          -4.43835        -4.01941        -5.06434
LJ           4.34867        -1.89153        -4.23108
LJ          -4.73343        -5.21936        -6.21539
LJ           5.52627        -4.91196          3.2883
LJ           2.46412         4.09278          4.6011
LJ          -4.90608        -5.84894          2.3824
LJ           -2.1724         4.51462       0.0235459
LJ          -6.06003        -6.41047         3.64561
LJ          -5.00168          4.9091      -0.0716037
LJ            -4.839        -2.15308         1.83623
LJ          -2.17784         1.55276        -0.21704
LJ          -5.98808         2.47013        -5.33773
LJ          -1.32578         2.03489        -1.29631
LJ          -6.43471          6.0414        -4.09684
LJ           1.87363        -1.10582         1.00581
LJ          -2.71878        -4.06043         -2.6015
