108
#Comment!
LJ           5.67957        -4.23888        -5.88012
LJ          -3.26356         2.97922        -4.65869
LJ           -1.1077        -2.74731        -6.22964
LJ          -3.65517         -6.3669        -1.71024
LJ           3.15557         4.53697        0.294243
LJ          -2.81533         -4.5614        -5.29273
LJ          -2.09823        -1.50018         5.45195
LJ          -1.75997         5.72257         3.36166
LJ           3.44752         5.00758        -1.80635
LJ          -1.10405        -2.60556         5.29452
LJ           1.81395        0.608526        -3.08056
LJ          -4.66816        -1.33676         2.98771
LJ           4.47509        -4.07649        0.979375
LJ          -4.69348        -6.27356         1.82605
LJ          0.633498         4.31318        -3.40377
LJ           3.98838         5.79892         3.34969
LJ          -2.05069         4.22921         5.23228
LJ           5.02712        -2.98385         1.60343
LJ          -3.21212         1.37893       -0.039643
LJ          -1.75455        0.367292       -0.678223
LJ          0.793181         5.74227         2.57132
LJ            3.1276         6.14189        0.864589
LJ          -2.68551          4.4426         2.45878
LJ           5.28016        -1.15705        -3.34306
LJ          -5.26009        0.206659        -1.95818
LJ           1.74382        -5.35191        -2.92109
LJ          -1.47712       -0.561761        -4.92815
LJ           5.07239        -2.39203         2.74973
LJ           4.22189        -3.02371         5.81768
LJ          -3.97862        -4.81238        -4.79605
LJ          0.923352        -4.90948        -1.13904
LJ          -5.61456        -4.60554         1.27569
LJ           6.22193         -1.2123         4.21582
LJ          -1.55152       -0.420858         1.24529
LJ           3.54684        -4.69195         1.36567
LJ           1.91447        -5.28599         1.12864
LJ          -2.91976        -2.25361         4.76877
LJ        -0.0614143         3.53653         4.01623
LJ          -1.66835         -1.3927        -4.60949
LJ          -6.39042         4.96166        -2.55959
LJ          -2.03467         1.83521         5.49723
LJ          -2.03434        -1.03936        -3.25492
LJ           2.38837        -2.09256         1.65901
LJ           6.23334         3.29957       -0.344082
LJ           1.44373        0.612972        -5.87019
LJ           -4.7542       -0.700672         5.04456
LJ           1.59423         4.91778        -2.97772
LJ           4.94472        -5.53523         6.24178
LJ           3.94558         -2.2639       -0.864602
LJ         -0.856444         4.69373         2.23437
LJ           -1.8276        -5.90231        -2.08863
LJ          -6.31006         4.61718        -1.55691
LJ           2.18431         5.20487         1.79672
LJ         -0.776426        -5.45559       -0.929246
LJ           -4.5096        -3.29645         5.13701
LJ          -3.50375       -0.398176         6.32775
LJ          -1.90946        -1.46198        -6.05822
LJ          -1.54376       -0.276741          5.7413
LJ          -5.09649         4.26197        -2.85611
LJ           6.30161       -0.200135        -3.48154
LJ         -0.298141        -3.57626        -1.11923
LJ            2.9102        -5.37147     -0.00451398
LJ          0.497931      -0.0611453        -4.00148
LJ          -4.90779         3.12451        -1.93459
LJ           5.86653        -1.74019        -4.89912
LJ            1.8012        0.924901        -4.11414
LJ            1.5099        -5.82892        -1.94754
LJ          -2.83182        -4.55388        -3.90574
LJ           3.86265          -6.179        -3.92756
LJ          -3.48709        0.166405       -0.695646
LJ          -4.55353         0.83193        -1.56258
LJ           3.54809        -1.26474        0.758028
LJ          -1.80742         0.59816        -5.69329
LJ           3.88742         2.34992       -0.381376
LJ         -0.943531        -1.22094        -3.59082
LJ           1.71286        -5.95514          4.5814
LJ          -4.88276        -3.89261         3.43128
LJ              1.41         3.14549         5.30552
LJ           5.70269         1.95953         -2.3725
LJ           1.35304          6.1507        -5.27501
LJ          -3.54899         2.71439          5.9901
LJ           6.13074        -3.97656         3.84272
LJ          -3.06947       -0.280524         1.39029
LJ          0.438665        -1.22724         6.45779
LJ          -2.16357        -2.85402         1.00844
LJ         -0.170767        -4.34299        -3.72803
LJ           -1.7536         5.20696        -6.04099
LJ            3.5788         3.68399        -4.59174
LJ          -3.05279         1.50723          5.8386
LJ           5.72768        -4.88036         6.05194
LJ          -1.08666         3.82978          4.5481
LJ           4.45799         3.70313        -2.00564
LJ           3.94474        -1.63663        -5.52031
LJ          -3.91917        -4.70441         5.51834
LJ          -2.96192        -5.61669         2.08327
LJ          -1.98891         3.45483       -0.499694
LJ         -0.117709         3.98352         5.94631
LJ          0.375821         2.96276         -5.2943
LJ          -4.33506        -2.72475        -1.61387
LJ          0.803615        -0.50093        -5.03569
LJ          -3.54378        -1.00456         4.97504
LJ          -1.39639         4.93857          1.1131
LJ         -0.888596        -3.13495         1.81071
LJ           4.66717        -4.65266        -5.27071
LJ          -5.86524         1.98849        -4.22472
LJ          -3.76554         2.35982        -3.73331
LJ          -4.79561       -0.534583        -2.84336
LJ          -2.59687        -5.14406          5.4912
