108
#Comment!
LJ           -2.7816        0.268185         1.86889
LJ          -3.04487        -4.49099       0.0695724
LJ          -3.89112         5.36295         3.87145
LJ          -3.60966         1.90559        -5.62126
LJ          -3.28821          4.4122         3.24755
LJ           1.73887        -2.38605         6.38336
LJ           2.57971        -3.23293         4.06995
LJ           2.35714         1.03603        -5.46188
LJ          0.470376         5.72647        -4.40049
LJ          -5.86153          2.0454        -6.41689
LJ           3.94431         -2.7288        -6.22111
LJ           1.39487        -2.48778       -0.966119
LJ           -2.6489       -0.727597        -5.18955
LJ         -0.286615        -3.67199        -6.39208
LJ          -3.32315         3.12295        -1.47755
LJ          -1.49777        -2.74602        -3.79572
LJ           1.73078        -3.29444         1.00355
LJ          -6.23617        -5.15162         3.86546
LJ          -3.78913         4.97743         1.38222
LJ           2.72176         -6.4185        -1.33846
LJ           -6.0857         1.66315         4.07603
LJ          -3.48172          1.3321         2.08225
LJ           -3.5569         4.78839        -4.44103
LJ         -0.878975       -0.859527        -5.44918
LJ          -1.14001        -2.40174        0.988726
LJ           5.63888        -3.35658         3.15867
LJ          -1.32342       -0.248892         4.35269
LJ           4.41088        -4.55202        -4.16969
LJ           5.09849         1.02797        -4.19615
LJ           4.49641         6.32757         6.09104
LJ           5.07597         3.02301         6.20177
LJ           5.52189         1.11531        -5.94522
LJ           2.69915        -1.19825         2.33753
LJ           3.34208         3.88869         5.29163
LJ          0.860912        -1.72941          1.0131
LJ           4.84726         6.10983        -5.77233
LJ          0.368914        -1.76992        -1.69722
LJ           -1.1941        -2.26796          4.7449
LJ           5.70791       -0.857394          1.5424
LJ           -1.2891        -1.74265        -2.67601
LJ           3.56962       -0.205671         1.61838
LJ         -0.952284         1.78943        -5.50253
LJ          -2.12341         -1.2706         2.31002
LJ          -5.80986           3.491        -5.98307
LJ           2.70037       -0.740492        -2.53714
LJ           5.00356        -2.11502         1.58474
LJ          -5.71334        -2.07651        -2.97709
LJ           5.65758        -3.19351        0.395901
LJ           -4.4155         6.39749        -3.98289
LJ           4.34794          4.9325         6.12382
LJ           4.39694         1.04828        -2.53959
LJ         -0.667833         1.33672         1.99456
LJ           -3.4762       -0.988268         6.42466
LJ          -6.13964         2.65855        -3.91803
LJ           3.64808         6.30172         4.76171
LJ          -5.00316        -4.15628         6.00174
LJ           5.38067        -1.93352         3.15928
LJ          -1.93634         5.61828        -4.69775
LJ           -1.4864        -1.48305        -1.57496
LJ           1.31087       -0.844092        -1.56996
LJ         -0.780284         5.82294        -3.65097
LJ          -1.81725        -5.10449         2.29584
LJ          0.396338        -2.52353        -2.95795
LJ          -4.63927         2.87912       -0.812714
LJ          -2.36905         3.59408        0.377935
LJ           1.04137         4.13321        -5.40264
LJ           -1.8602         5.89324         1.31005
LJ         -0.858795        -3.65171        -5.47274
LJ          -3.86603       -0.761422        -4.02057
LJ            2.7036        -6.16731         3.73359
LJ          -2.82766      0.00427227         2.92113
LJ           6.10448         3.51851         5.27132
LJ           3.23161         1.70977         5.53451
LJ          -5.71272        -5.81863        -2.14399
LJ          -3.65595         4.83313          -3.362
LJ          -5.37376        -4.06302          3.5244
LJ          -5.78316        -5.17418        -3.15509
LJ          -2.26817         5.27172         4.60567
LJ          -4.16286         2.30355         -2.2495
LJ          -2.34373         1.17106         3.58647
LJ          -2.29447         -5.5366        -2.68964
LJ           5.31397        0.144137         1.24624
LJ          0.976785        -6.38234          2.2374
LJ          -2.18705         4.89155         3.41722
LJ           2.16158         3.54589        -6.28579
LJ           2.55458         6.28222          5.3192
LJ           3.13485         4.88876       -0.988686
LJ            5.3009         5.80716        -1.57598
LJ          -3.35426        0.482852        -5.40153
LJ          0.252502        -6.16634         5.57514
LJ           1.41074       -0.148684        -3.38415
LJ           1.29925        -1.55531       -0.314015
LJ           6.28137       -0.102753         6.28892
LJ          0.424286        0.641601        -2.45146
LJ          -4.41746        -6.46189        -5.14319
LJ           3.34396         6.37405        0.263235
LJ           3.00959         5.76481        -4.46562
LJ           -4.0623         5.26744       -0.810028
LJ           5.86333        -6.01881        -2.02422
LJ            4.0985        -1.82648         3.62505
LJ          -1.81915        -6.32462         2.61667
LJ           3.50821          3.2587         2.52791
LJ          -1.40538       -0.704231         3.08522
LJ          -4.84624        -4.32726        -3.31018
LJ          -3.47153         1.50273        0.784989
LJ           2.44174        -1.61026        -1.70541
LJ           5.65392          3.4351         1.44123
LJ          -4.88361         4.94566        -2.30779
