108
#Comment!
LJ          -5.43655         5.46726        -4.25155
LJ           2.00867         3.84637        -2.95966
LJ           1.30156         4.80898        -2.76925
LJ           5.90552        -5.36712        0.826018
LJ           4.28361         1.11338          5.5273
LJ          -5.35105         1.60418        -6.44674
LJ          0.510146        -2.29635         6.04905
LJ          -2.32026         4.88419        0.101427
LJ           2.94454         3.67027         5.26733
LJ          -6.14256        -3.99621        0.744288
LJ          -3.35966         3.00578         3.37304
LJ           3.52607        0.131179         1.13707
LJ           1.60424        -3.16964       -0.669406
LJ            3.7506       -0.711917        -5.46591
LJ         0.0560003        0.552111        -5.12399
LJ         -0.658716         4.67658        -4.92872
LJ          -2.09393         1.32697        -1.07945
LJ           4.77195        -2.58575        -2.84712
LJ           1.01608         5.28638        -3.67648
LJ          0.853661        -1.67199         4.58411
LJ          -3.86338         2.42708         2.05158
LJ          -2.20471       -0.673644         4.49168
LJ           3.31726        -5.73582         4.04911
LJ          0.987557        -3.24247        -5.58239
LJ          0.802428        -3.59802          3.4219
LJ          -3.04761       0.0252152        -6.26976
LJ          -5.36842        -2.28499          5.3479
LJ           1.11848        -3.26986        0.747204
LJ           4.48296        -1.35384        -3.41067
LJ           -6.0196       -0.387026         5.41936
LJ           -5.5998        0.638058         2.30731
LJ           2.48307         -5.8555        -5.15392
LJ          0.799366         4.89165         3.22211
LJ           1.61918         2.96184          2.3946
LJ          -4.46318        0.772588         2.09814
LJ          -5.70037         2.97242         2.77874
LJ           6.36532         5.55429         5.97124
LJ           2.75165         4.89079        -3.46647
LJ           1.12131         3.69303        -2.25217
LJ          -2.14211        -5.91901        -3.97393
LJ         -0.713323        -5.39232        -4.10946
LJ           1.53493         6.16889        -3.33845
LJ          -2.45999         -5.2201         5.74377
LJ           1.13003         2.41098         -4.7106
LJ         -0.423627        -2.52824         4.13507
LJ          -1.78023       0.0259639         -3.4813
LJ         -0.418979        0.580422         -1.4166
LJ           2.32145         5.14279        -2.23237
LJ           2.17781         1.93601        -3.89305
LJ           2.53105        -6.42059        -3.92255
LJ          -2.03778        -6.44677        -2.87535
LJ           -1.0727        -6.37241        -4.82058
LJ           4.97393         5.40455         4.03393
LJ          -3.80794         -3.4231         3.94389
LJ          -1.45717        -5.92559        -6.07439
LJ           5.22454        -3.09465         5.26777
LJ          -1.12311        -3.17158         4.91364
LJ          0.804995        0.529855       -0.471219
LJ          -2.63662         5.66071        -5.05879
LJ        -0.0396378        -3.07722        -6.00359
LJ           3.19607       -0.900065          3.8167
LJ           3.36235         5.49654        -2.54705
LJ          -2.92017        -1.31055        -4.81104
LJ          -3.89184        -4.40895         5.80137
LJ           4.93158     -0.00810236        -3.57739
LJ          -2.98157        -1.30832         5.33589
LJ        -0.0742641        -5.62104        -1.30852
LJ          -4.35224        -2.36411         4.16189
LJ           2.14876        -1.58976      -0.0897999
LJ           4.75863       -0.415756        0.274148
LJ           5.99751        -2.72174         -5.0571
LJ          -2.80035        -5.53248        -2.90573
LJ           -5.7537        -1.27251         5.88097
LJ          -5.32195        -3.88084        -1.87788
LJ           3.71652         5.90706        -3.73337
LJ          -2.32233        -5.34132        -5.89746
LJ          -1.69447          5.6106         5.89366
LJ           1.90615         -2.4502         2.98379
LJ           3.06137         5.90785       -0.875004
LJ          0.672439        -1.37718      0.00989381
LJ          -0.78492         -2.6936         1.17888
LJ         0.0012137        -3.25603        0.818296
LJ            3.7721        -2.67683        -1.75153
LJ           4.86275        0.337321         5.76215
LJ           4.24171          5.7335        -4.83724
LJ           -3.8057         1.80053        -2.69891
LJ          0.695569        0.568581        -3.53423
LJ          -1.78084         5.78303        -4.37215
LJ           5.81326         5.21748         4.89589
LJ          -5.61581        -5.33896        -4.35992
LJ           -1.4997        -4.09646        -5.60347
LJ            6.1834         3.98147         2.75062
LJ           4.24694        -5.68816         5.33996
LJ          -3.44515        -4.39221     -0.00731728
LJ          -2.39669         3.47142         1.86493
LJ           2.76523        -2.18453        0.719044
LJ           3.12663         6.33081         -5.4168
LJ           4.08459       -0.482433        -2.14766
LJ          -1.05372         3.16142         1.63199
LJ         -0.565083         3.70729        -4.48418
LJ          -6.32604         5.98102         4.37748
LJ           6.30736         4.49783         4.30301
LJ           5.15717         6.35921        -2.43448
LJ           5.77033       -0.814143          5.7976
LJ          -4.15991        -6.11303         5.06718
LJ         -0.881002        -1.09169        -2.38312
LJ            2.2607        -1.45565         1.42587
LJ           6.36671        0.601364       0.0175502
