108
#Comment!
LJ          0.689221         5.99666        -4.52908
LJ          -3.52216        -5.09248        -4.80819
LJ           -4.4084        -1.31433        0.724826
LJ           3.17278        -3.44055        -4.08628
LJ          -1.37021         3.31491         3.87595
LJ          -4.89225        -1.41662         6.01062
LJ           1.62865         -2.7415         5.20582
LJ          -2.77905         1.85908        -1.35917
LJ          -2.61087        -5.35273         6.14885
LJ           4.12513         -2.3507       -0.895231
LJ         -0.636569         5.69489        -1.91767
LJ         -0.124978        -2.14969        0.143896
LJ          -3.18755        -4.67751         2.04104
LJ           2.05232         4.08004         -4.5821
LJ          -5.16055        -4.77699         1.75772
LJ         -0.345602         3.25764        0.749405
LJ          0.182526       -0.740859        -2.58574
LJ          -3.37031       -0.433397       -0.677331
LJ          -6.44614       -0.212045         3.36077
LJ           -5.6917        -2.42727         5.79137
LJ          -1.94371         4.10533         5.64436
LJ           5.76939          5.1205         -1.3962
LJ           1.60307         2.74771         2.24289
LJ          -2.32827        -3.51368         1.24443
LJ          0.435428        -3.97848       -0.186923
LJ         -0.455666        -2.72276         1.62348
LJ           4.88281        -2.69774         5.85973
LJ           1.32706         1.22745         5.32678
LJ          0.954631         -4.7042         4.18023
LJ          0.160698         1.43356         1.99637
LJ          -1.22424        0.279342         6.43416
LJ          0.858208        -5.49225        -3.10428
LJ          0.960351         6.32779        -5.74179
LJ          0.820652        -4.15877         6.12053
LJ           6.42233        -5.24684         6.20029
LJ           5.69464         3.70203         5.32188
LJ           -5.6094       -0.784651        -5.24235
LJ          -1.04028       -0.718517        0.906425
LJ           -3.8786        -5.90057        -1.81528
LJ          0.519392        -5.69547        -6.00331
LJ           3.90433        0.178558         3.02929
LJ          -1.21068        -5.41815         3.30751
LJ          -4.93614         3.74665        -2.86308
LJ           1.61546        -2.16363         2.43908
LJ          -2.53359         3.57941        -5.24701
LJ          -1.74388         1.51135         -4.3137
LJ          -3.92775         2.94779         5.21711
LJ           6.13251        -3.37805         6.14137
LJ          -2.61253        -3.25154       -0.723272
LJ          -4.50194         -1.8918         2.43456
LJ          -5.72544        -5.09653         -5.4513
LJ          -2.26829         4.65686         3.87672
LJ          -1.10587         2.78855         -3.8665
LJ         -0.516715         5.66547         -3.0987
LJ         -0.208134        -1.24175          3.3025
LJ          -4.63488        -1.24165       -0.849501
LJ          -4.17243         6.25688        -5.94784
LJ         -0.736711       -0.891662        -4.51443
LJ           1.38359         1.29841         1.52136
LJ          -4.19277        -4.61209         2.55018
LJ           6.30954        -3.54813        0.685619
LJ           2.03218         1.55132        -1.34898
LJ           5.95503         2.96159        -3.38353
LJ            -1.014         1.53287        -2.45874
LJ         -0.106455        -2.36747        -1.68389
LJ           5.09912         4.30995        -5.87119
LJ          -5.38172         1.45123        -3.46995
LJ           4.34185        -4.16343        -5.44364
LJ          0.956108        -3.77989         4.72171
LJ           1.51693        -5.06652        -6.37891
LJ           0.33135        -1.95165        -0.78594
LJ          -5.33391        -2.40841        -2.11763
LJ           -3.6797         6.45333        0.776719
LJ            2.1808        -5.63927       -0.514775
LJ          -3.68136        -4.23666         6.34034
LJ           3.52499        -5.59111        -2.68889
LJ          -4.47346        -6.17248        -2.95916
LJ            6.2252        -2.47377        -1.92359
LJ           6.15557         4.56989        -2.28931
LJ           5.29311       -0.576956         4.37608
LJ          -2.25097        -6.31599        -4.24473
LJ           3.14717       -0.457357         6.33783
LJ          -4.20174        -4.48374         1.15805
LJ          -2.44673        -3.33727        -2.51416
LJ          -6.25402         5.01166        -5.62616
LJ           5.11035         5.56425        -4.35026
LJ           2.30896        0.623611         1.03915
LJ           3.94196         3.67545       -0.154599
LJ           2.48538        -3.33237        -1.85528
LJ         -0.900906        -1.94657         5.36598
LJ          -5.02343         2.30482        -2.71332
LJ          -3.29273         -5.9402        -5.40893
LJ         -0.963963        -1.38103         2.60352
LJ           3.30664        -3.77097         4.78723
LJ           1.14775        0.679912         6.34941
LJ           0.22653         -3.1545        -1.05632
LJ           1.65694        -2.68051         1.52963
LJ           1.91072         2.27344        -2.01341
LJ           2.46309         1.20179        -5.76652
LJ          -2.31044         3.16418         2.81981
LJ          -5.60123        -1.00556         -1.2901
LJ          -1.01369        -2.93971        -5.97176
LJ          -5.66864        -1.52896       -0.443699
LJ         -0.449927         4.27375       -0.375047
LJ           5.65106          5.7248       -0.400709
LJ           1.35916        -4.48191        0.957821
LJ          -4.43638        -2.87074        0.426115
LJ           2.29045       -0.670429        -6.16042
