108
#Comment!
LJ          0.861121         6.17123         3.83787
LJ          -1.92989         4.85651        -4.28979
LJ          -2.67855        0.716255        -1.87766
LJ          -6.42425        -3.05814        -2.44118
LJ           3.91271          3.4639        -5.87448
LJ          -2.86816      -0.0863431         4.74779
LJ          -4.74313         5.11123         2.66557
LJ          -5.63021         1.11878        0.179423
LJ         -0.386661        -2.67748         4.98183
LJ           1.40991       -0.846961       -0.267771
LJ          0.391164        -3.50612        -3.78822
LJ          -6.00628         -2.6079         2.79703
LJ          -5.80345         2.97133         5.45944
LJ          -3.60228        -1.38434         6.36087
LJ           -3.8747         3.87785        -1.62529
LJ          0.458801         -1.8477        -3.53046
LJ           3.28958        -2.15064         4.01947
LJ           3.70283        -1.94126          5.8785
LJ           3.27028         -1.4663        0.739125
LJ           4.19357         2.96308         4.17359
LJ          -1.36869        -4.69558        -5.32725
LJ          -2.76332          5.8165        -3.74254
LJ          0.557565        -5.00015         3.86378
LJ           1.48948        -4.22902        -2.47987
LJ          0.310467         4.46876         4.76372
LJ          0.408018        -5.10051        0.941862
LJ          -0.78594        -3.26061         4.07629
LJ          -1.91711          2.6224        -0.65548
LJ          0.442831        -2.81926        -4.61022
LJ           5.90332         5.46344         5.98528
LJ          -3.80913         1.43622        -1.56941
LJ           4.83381        -1.25417        -1.80263
LJ          0.414115        -1.62485         3.26851
LJ          0.678877        -4.73451        -5.57785
LJ           4.00429         1.02384        -5.96923
LJ           5.01413         2.64613        -6.26916
LJ         -0.197151        -4.29192        -4.12771
LJ            2.4258         1.83033          3.9437
LJ          -5.70208         2.67759           2.377
LJ          -4.62943        -3.75889        -4.10425
LJ           4.27066         -4.8516         4.73353
LJ          -1.61188         5.81497         2.61038
LJ         -0.720104         3.77474          3.6044
LJ           3.77885        -1.59042         4.82791
LJ          -1.34857        -5.11842        -3.82618
LJ           2.58694         4.12461         5.31329
LJ           2.63536        -3.36843         6.18595
LJ           4.85722          2.8447         3.26641
LJ          -6.35929         4.85613        -3.43162
LJ          -2.87194         2.15913     -0.00451238
LJ          -5.19979         1.49904         6.45285
LJ           2.09331        -5.06711        -6.41717
LJ          -2.87169         1.86201          3.5526
LJ          -2.39379        -2.93819        -3.93158
LJ          0.998587        -3.86905          6.2445
LJ          0.453633        -5.11802       -0.486745
LJ           1.90236        -5.95946         5.26404
LJ           6.11136        -1.13168         1.07443
LJ           5.12296         5.82151        -2.18647
LJ            5.8775        -5.27055         2.94787
LJ          -1.76545         5.53634       -0.588053
LJ           2.11685          1.8372         6.11752
LJ           1.03115        -4.35624        -4.52035
LJ          -5.84011        -3.77176         1.58101
LJ           2.34163        -6.00112         2.76878
LJ           1.58385         -3.6379         1.63032
LJ          -6.02012        -3.32021       -0.990259
LJ          -1.51149        -3.94906        -3.85069
LJ          -5.96492       -0.044312        0.704768
LJ           6.44972        -3.49584         2.98291
LJ          0.540929        -2.39828          5.0276
LJ          -5.02223        -2.20293         3.54174
LJ           2.99927         3.10254        -3.81865
LJ           -4.7744         4.48526       -0.986018
LJ           1.78616        -5.43213        0.351899
LJ          -5.28226         -5.4752         3.91329
LJ          -2.18785        -1.36064         3.57478
LJ          -2.02553        -1.04331         5.15747
LJ           -2.0549         2.63982        -2.17591
LJ           3.70282         2.16536        -3.51898
LJ          0.769938        -1.49968        -1.46642
LJ           3.65427         4.55944         5.31064
LJ           0.51032         1.24881        -1.13865
LJ           5.21072        -5.57111        -1.89946
LJ           5.21793         1.42715        -3.91867
LJ           1.06178        -6.06375        -4.22423
LJ           -4.5934        -5.91408        -2.97428
LJ           5.47707        0.386477        -5.49969
LJ          -1.73303         1.00781          3.2867
LJ           6.28692        -1.45938          6.3554
LJ          -6.39259        0.783504          3.0563
LJ          -3.57901         4.48433       -0.693485
LJ         -0.313957         -3.1591        -6.13915
LJ           1.14338        -6.11219         2.29342
LJ          -5.53316         1.03991         2.42573
LJ           4.39439         3.14561         5.72572
LJ           1.94959        0.373617         6.33507
LJ          -6.16109         5.39735        -6.24602
LJ            4.9415         3.68566         3.78263
LJ          -2.70221         0.70513         3.82364
LJ          -3.98614        -2.30278        -2.88544
LJ          -3.59477       -0.089663         -1.4301
LJ           3.68886          5.3687        -2.83575
LJ           4.55669        0.191624        0.740865
LJ         -0.169614        -3.23362        -2.20347
LJ            2.6524         -3.0006        -4.30425
LJ          -5.80572        -1.29547         2.77207
LJ           6.31861         2.00893         2.29335
