108
#Comment!
LJ           6.11289         -2.5979        -6.42835
LJ          -4.43892         2.86846        -5.57575
LJ         -0.878247        -1.09108        -5.69878
LJ          -3.28532         4.25201        -1.70803
LJ           3.31143         4.08929       -0.338055
LJ          -3.55861        -3.20275          5.9264
LJ          -2.10773       -0.543838        -5.51202
LJ         -0.882094        -5.78807        0.957724
LJ            3.6763         5.05164        -1.58902
LJ          -2.64695        -3.20251        -5.85533
LJ           3.08331        0.734602        -1.62007
LJ          -3.78593        -1.77167         3.78269
LJ           4.44951         -2.0136         1.24941
LJ          -4.12326         5.92256         2.74797
LJ          0.563551         4.52941        -2.39838
LJ           1.44293        -4.90164          3.6447
LJ          -1.30999         3.60161         6.19816
LJ           5.40867         -2.6048          1.5248
LJ          -2.12773         4.35168        -1.58484
LJ          -3.33807        0.458069         -1.6405
LJ           1.08338         5.92111         2.70851
LJ           2.28665        -6.04028         1.13211
LJ          -3.63761         5.17557         3.15873
LJ          -6.24367       -0.594126        -2.23809
LJ          -5.31333        -2.14275        -1.38503
LJ           1.13823        -3.10792        -5.34192
LJ          -1.86722        -1.55093         -5.0637
LJ           3.78451        -2.35604         2.98014
LJ           4.75821        -4.05166         6.06137
LJ          -4.59844        -4.61047        -3.51714
LJ            1.0392        -6.09946        -2.39421
LJ           6.37171        -5.89641         2.69854
LJ           5.86989        -2.91516           2.836
LJ          -2.18054          1.1846        0.794403
LJ            3.6379        -6.32172         2.48237
LJ           3.00688        -4.73896         2.20559
LJ          -2.65005        -2.33029           3.676
LJ         -0.542231         2.67037         4.15128
LJ          -2.05641        -2.26106        -3.00761
LJ           -6.0996         4.33928         -2.2268
LJ           -1.0029         1.31626         4.25691
LJ          -2.24776        -0.77397        -3.73561
LJ           2.07786        -1.41877         1.30202
LJ          -6.30931         3.48217        0.905911
LJ           2.35566        0.429326         6.03259
LJ          -2.54598       -0.107109         4.20753
LJ           2.10783         5.38483        -4.38477
LJ           4.56714        -5.75381         5.35777
LJ             5.518        -3.93277        -1.17239
LJ          -2.71103         6.09125         2.88398
LJ          -2.48453        -5.17289        -2.72804
LJ           5.44578         4.25941       -0.968415
LJ           1.80944         4.45969          3.1755
LJ          -1.20895        -6.14979         -1.3986
LJ          -5.20518        -3.62379         4.75878
LJ          -3.52968       -0.602278         6.03219
LJ          -3.65856        -1.29374         -5.3469
LJ          -1.33882       0.0384144         -6.3285
LJ           -5.5371         3.15224        -2.07611
LJ           -5.8057       -0.552507        -4.10992
LJ         0.0853133        -2.74905       -0.891406
LJ           2.77712        -4.88445          1.0389
LJ          -0.25316        0.177536        -2.96497
LJ           -4.3194         4.05168        -2.24542
LJ           5.90998        -1.27843        -3.64345
LJ           1.48977         1.58917        -4.36914
LJ          0.167423          -5.076        -3.36602
LJ          -3.08939        -3.53113        -3.13519
LJ            3.4875         6.12686        -3.90093
LJ          -4.72363       -0.407456       -0.901794
LJ          -5.06486        0.939678        -3.30766
LJ           4.35367        -1.66805         2.33514
LJ         -0.649181         2.71116        -5.55298
LJ           3.68049         1.89635       -0.196654
LJ         -0.825984       -0.517137        -4.88529
LJ           2.10318        -6.25199         4.37113
LJ           5.95855        -4.22152         3.25681
LJ          0.987196         2.92914         4.56422
LJ           4.05939         2.40498        -1.54502
LJ            1.5151        -6.20156        -4.95768
LJ          -3.00275         3.20776        -5.14232
LJ          -5.65196        -6.31965         4.05501
LJ          -2.08089       -0.321477       -0.757118
LJ         0.0271922        -1.25407        -6.10953
LJ          -1.50242        -2.35426      -0.0532072
LJ         -0.322085         5.55683        -3.50539
LJ          -4.17625          5.1188        -5.41243
LJ            5.9288         3.73543        -4.43176
LJ          -3.03227         1.45337         6.02538
LJ          -5.92915        -4.71835         5.08725
LJ          -1.12437         2.24058         3.24468
LJ           5.06384         2.90286        -2.05015
LJ           3.92017        -2.91473        -5.81075
LJ          -2.79453        -3.06055         5.01966
LJ          -4.58137        -5.25303         2.65923
LJ         -0.521686         1.66174      0.00680589
LJ           -0.4216         4.07953         5.96592
LJ          0.274745         3.13162        -4.36683
LJ          -4.50323       -0.756241        -2.59566
LJ           1.03858       -0.837942        -5.24088
LJ          -1.96807         -2.0004        -6.16131
LJ          -1.08965         5.04961         1.59282
LJ           1.05454        -3.14699        0.394623
LJ           5.72139         6.32928         6.31121
LJ          -5.51724         1.60581        -5.18027
LJ          -2.30858         1.10269        -1.86225
LJ          -6.24237         1.22249        -2.89233
LJ          -2.80041        -5.46428         3.80665
