108
#Comment!
LJ          -4.43123         0.55586         3.80491
LJ           6.16525         1.64786         4.98629
LJ          -3.51566        -4.83379         4.52789
LJ          -5.44164        0.979071         -3.4194
LJ           1.68499         4.17577         1.98916
LJ           5.98448         -2.8772        -6.36844
LJ         -0.711558        0.119218       -0.394956
LJ           1.17094        -1.29558         -3.3581
LJ           2.96738         5.51092        -5.27922
LJ          -5.35241        -6.37201          2.3181
LJ           5.75847        -3.84426        -2.35017
LJ            6.2947        -1.28897          1.3981
LJ          -5.61741        0.819966         5.27179
LJ           3.45587         2.24701         2.99588
LJ          -1.17724         5.06825       -0.922011
LJ           5.44498         1.82048         4.03537
LJ          0.470458      -0.0496205        -3.17169
LJ            6.3957        -4.26996        -4.15818
LJ           4.41146        -0.23078        -5.58355
LJ          -6.45158         -2.7665        -1.79856
LJ           3.83408         5.54812         3.83279
LJ          0.631121        -2.50529         3.11114
LJ          -3.19291         5.20261         6.11229
LJ           3.23483         5.57214        -3.99452
LJ          -3.55494        -5.96627       -0.142283
LJ           3.92539        -2.54287         3.75258
LJ        -0.0254462       -0.856834       -0.347815
LJ           3.10742        -5.78176          1.3431
LJ           5.88904         5.76019        -5.83604
LJ           5.40574        -4.05443      -0.0203285
LJ           3.34662          4.2858        -5.81227
LJ           4.57563         1.37286         6.40343
LJ           4.83227        -2.59124         5.22246
LJ          -4.98118         5.05345        0.645315
LJ           2.54642        -5.64932         4.71435
LJ            5.6864         6.19116         4.58936
LJ          -2.67932        -2.36841         1.11955
LJ           3.51647        0.600616         1.69447
LJ          -5.18757        -1.59726       -0.444762
LJ          -4.00811         0.91105       -0.914926
LJ           2.60717          4.1861         1.06813
LJ          0.477647        0.986695       -0.162019
LJ         -0.159626      -0.0521855         1.85099
LJ          -5.40738         4.43162         4.99565
LJ           2.55676        -0.91188         3.45473
LJ           2.08508       -0.836519        0.922861
LJ            4.1799         2.50562        -5.84995
LJ           5.13672          -5.018         2.52168
LJ          -4.16132         3.75261        -2.45555
LJ            2.6498         4.33893         3.46721
LJ         -0.396125         4.85244          -2.939
LJ            2.0779         2.38676        0.204396
LJ          -1.21403          1.6439        -6.33126
LJ          -3.83531         4.11835        -3.39159
LJ           5.69388        -3.02532         2.90461
LJ          -3.55639          -1.423         6.02918
LJ           5.50696        -1.02296         4.55612
LJ         -0.906759         2.39206         2.13896
LJ          -3.82763       0.0156949        -1.62761
LJ           5.11432         5.12904        -2.62397
LJ         0.0904683        -3.08262       -0.422325
LJ          0.976537        -4.19692         2.93358
LJ          -2.46691         3.91917         -1.8927
LJ          -5.23219          4.7809        -4.15564
LJ          -4.62435         1.62685        -2.28481
LJ           2.89008         2.59503        -5.81973
LJ          -2.67986        -5.09532         5.75612
LJ          -1.11932         3.39783        -3.54322
LJ          0.887991        -3.99383        -2.86145
LJ           -2.2013        -4.13764         1.68557
LJ           5.93626        -1.85871         5.51054
LJ            4.7555         2.28104         5.29418
LJ           1.42445        -3.57382          4.5932
LJ           4.86701         3.14008          6.1114
LJ          -3.09738         3.74771        -2.67172
LJ           5.01309         3.65847          2.3754
LJ         -0.264579        -4.13623        -6.28905
LJ          0.506755         3.58414         3.53476
LJ         0.0359274         4.17168       -0.631749
LJ         -0.556912        -2.09706         3.58852
LJ          -1.55909         4.71978        -1.91147
LJ         -0.120633         2.63797           2.945
LJ          -5.43114        -4.52332         6.45984
LJ         -0.223522         4.80756         4.22696
LJ            2.2069       -0.075348        -3.41265
LJ          0.895177        -2.19924        -1.39307
LJ           3.39047         3.66005        -1.51376
LJ          0.715758         4.49609        -2.81313
LJ          -3.86289         1.00286        -5.87228
LJ          -1.88848        -6.05991         4.67527
LJ        -0.0967274       -0.020377         4.00587
LJ           4.73363        -2.19682       -0.317465
LJ           4.77344         4.81901         5.38768
LJ         -0.832045        -1.92661         1.44882
LJ          -4.90655        -5.40863         4.84403
LJ           1.69748         1.54298        -1.39804
LJ           1.08803         5.29774        -4.60856
LJ          -1.87628         3.06833        -4.31416
LJ           4.81198         3.76546        -2.49205
LJ           2.53056        -1.38499         5.60874
LJ          -2.39535        -3.93707         5.13363
LJ         -0.273688        -5.55548         3.54176
LJ          -6.29629        -2.52572        -4.84407
LJ          -5.64127        0.870165         1.51553
LJ          -4.13177         1.47858         5.01981
LJ           2.33529       -0.363855         2.09942
LJ           5.98269        -6.06841         -2.0239
LJ          -1.62667        -2.48503       -0.923571
