108
#Comment!
LJ           1.13676         6.20164         -4.0023
LJ          -3.50603        -4.38595        -4.82281
LJ            -5.003       -0.353196        0.851903
LJ           2.91616        -3.72293        -4.01982
LJ          -1.76746          3.3583         3.64143
LJ          -4.64941       -0.870682         6.07686
LJ           2.11512        -2.60139         5.03004
LJ          -2.41853         1.93177        -2.01764
LJ          -3.05489        -5.62873         6.13213
LJ           4.51545        -2.33888        -1.75604
LJ          -1.07261         5.01103        -1.70418
LJ         -0.483972        -2.92629       -0.401096
LJ          -3.27643        -5.39491         1.41333
LJ           2.53871         4.22806         -4.3512
LJ          -4.74836        -5.29541         1.47224
LJ         0.0581123          2.7474        0.309314
LJ         -0.396084        -1.11465        -2.93393
LJ          -3.41502       -0.509236       0.0326289
LJ          -5.51292       -0.219344         2.90358
LJ           -6.1942        -2.30566         6.24684
LJ          -1.73503         3.92114         5.50695
LJ            5.3451           4.822        -1.25377
LJ           1.59704         2.40953         1.69938
LJ          -1.36143        -3.75351         1.94887
LJ          0.852664         -5.1468        0.127642
LJ            0.1023        -2.43023         1.65077
LJ           5.44198        -2.18101         6.22082
LJ          0.238937        0.906211         5.55502
LJ           1.21149        -5.06098           4.291
LJ         -0.523806         1.27432         2.54502
LJ         -0.975399        0.177194         6.22185
LJ           1.22088        -5.07127         -2.9621
LJ          0.762038         5.98936        -5.19612
LJ          0.481523        -4.55904         5.88895
LJ           5.72818        -4.93905         6.17985
LJ           5.94919         3.24843         5.32889
LJ          -4.92554      -0.0259864        -5.94761
LJ          -1.14414       -0.608881         1.05691
LJ          -4.02023        -6.13468        -2.28248
LJ          0.332671        -5.98481        -6.17546
LJ           3.48594       -0.343164         2.78652
LJ          -1.38668        -4.54546         3.32471
LJ          -4.81094         4.33596        -3.02826
LJ           1.64108        -1.98955         2.86185
LJ          -2.39256         3.07626        -5.45513
LJ           -2.1413          1.5525         -4.9959
LJ          -2.82759          3.7657         5.78619
LJ           5.26511        -3.84678         6.33928
LJ          -3.47449        -3.51489       -0.256938
LJ          -4.60227        -2.33593         2.36505
LJ          -5.51975        -4.96809        -5.90669
LJ          -2.53286         4.89437         4.24773
LJ         -0.591613         2.60999        -3.65687
LJ         -0.188169         5.39734        -2.47446
LJ         0.0125553       -0.541832         3.32164
LJ          -4.78133        -0.51171       -0.941252
LJ          -3.92614        -6.23506         6.20993
LJ         -0.111245       -0.569204        -4.51917
LJ            1.4325         1.46235         1.28477
LJ          -3.58167         -4.5601         2.88872
LJ          -6.33244        -2.91002        0.271421
LJ           1.97857        0.133129        -1.90872
LJ           6.08324         3.66885         -3.2805
LJ          -1.07457          1.6819        -2.28693
LJ         0.0302576        -3.20467        -1.81961
LJ           5.33446         3.69971        -6.07666
LJ          -5.62513         0.30671        -3.08821
LJ           4.74038        -3.94822         -5.7483
LJ          0.719744        -4.07629         5.01011
LJ           1.80789        -4.22191        -6.43784
LJ          0.149503        -1.73463        -1.28709
LJ          -5.28939        -2.07952        -2.13391
LJ          -4.33706        -6.02893        0.782778
LJ           1.65229        -5.44637       -0.345489
LJ          -4.25754        -4.79221         6.29348
LJ           4.30224        -5.25239        -2.39885
LJ          -4.68395        -5.80532        -3.13412
LJ           5.86034        -3.04181        -1.61469
LJ           5.74488         4.67058        -2.62845
LJ           4.91134        -0.40883         4.44895
LJ          -2.25892         6.05423         -4.9474
LJ           3.88136       -0.648943         6.19555
LJ          -4.02286         -4.0702         1.64107
LJ          -1.85213        -3.13414        -2.21762
LJ          -6.09814         4.99927        -5.32015
LJ           5.36057         5.66042        -3.90201
LJ          0.928242        0.209343        0.655646
LJ           4.19449         4.63816        0.155633
LJ           2.00823        -3.50094        -2.22341
LJ          -1.03954         -2.1082         5.62271
LJ          -5.14971          2.1094        -2.83796
LJ          -3.26819        -6.09672        -5.25295
LJ          -1.55405       -0.851129          2.4997
LJ           3.64091        -3.33359         5.03451
LJ           1.82812         0.69807          6.4472
LJ         -0.138562        -3.98668       -0.568021
LJ           1.65657        -1.66792         1.14855
LJ           2.54796         2.53533        -1.99146
LJ           1.94761        0.773575        -5.26012
LJ          -2.31924         2.85338         2.60528
LJ          -5.71303       -0.339177         -1.9004
LJ          -1.01688        -3.78666        -5.96201
LJ          -5.64662       -0.785935       0.0432123
LJ          -1.46496         5.01295       -0.351894
LJ           5.86792         5.21796       -0.115582
LJ           1.02394          -3.889         0.87462
LJ          -3.75679        -2.96593        0.786161
LJ           2.12709       -0.625208        -5.70031
