108
#Comment!
LJ          0.492169        -6.33768         4.31925
LJ          -0.99518         5.77251        -4.60404
LJ          -3.49255          0.2437        -2.11161
LJ          -5.16799        -4.87662        -2.71087
LJ           4.90149         2.96693        -5.17084
LJ          -2.99679       -0.540347         5.50301
LJ          -5.77738         3.87332         2.14459
LJ          -5.99568         2.67562          1.8886
LJ          -1.03459        -2.81469         5.55149
LJ           1.42669        -1.02957         1.90227
LJ         -0.390017        -2.39487        -3.12602
LJ           5.38379        -3.79112         3.25323
LJ          -5.33154         3.84793         4.88085
LJ          -4.25787        0.741025          6.3272
LJ          -4.04601         2.14999        -1.87879
LJ           1.46055       -0.354359        -2.96609
LJ           3.84591         -2.0947         4.88952
LJ           2.59272        -3.15428         6.26779
LJ           5.60872        -1.72037        0.678378
LJ           6.04761         1.99653         5.85961
LJ          -1.37458        -4.30915        -5.15065
LJ          -2.09157         5.28285        -4.49035
LJ          0.565547        -4.30266         3.37301
LJ         -0.256668        -4.00174        -3.12492
LJ          0.566728         4.65642         2.73526
LJ           0.62544        -4.21034         1.94262
LJ         -0.652934        -2.84121         4.33266
LJ          -1.83748         3.22508        -1.72879
LJ           0.76138        -2.80315        -3.97665
LJ           6.38197         5.46923         3.37834
LJ           -3.2139         1.34588        -1.42856
LJ           4.58244        -1.32275       -0.610465
LJ          0.494446        -3.14378         3.30915
LJ         -0.750359         -5.0443        -5.67781
LJ           4.10991       -0.706173        -6.37292
LJ           4.95931         3.18855         6.25619
LJ          0.520961        -3.93157        -4.30107
LJ             2.452         2.13075         4.31073
LJ          -6.33349         1.62747           2.768
LJ          -5.34211        -3.56552        -3.80689
LJ           4.75759        -3.28468         5.13167
LJ          -3.61096        -6.38462         2.94177
LJ          0.840135         3.67517         2.40035
LJ           4.27484        -1.11278          4.7294
LJ         0.0281789        -4.85058        -3.67207
LJ           1.79295         2.88023         4.72066
LJ           1.77905        -4.82749        -6.44018
LJ           6.01564         2.24478         2.06199
LJ          -6.28143         6.00678        -2.51513
LJ          -2.49742         3.73678        0.563522
LJ          -5.13288        0.133017          5.2722
LJ           2.89071        -6.24977        -6.18042
LJ          -2.54483         1.36206         1.44125
LJ          -3.28865         -2.2857        -3.79987
LJ           1.11589        -3.61297        -6.44082
LJ           2.21116        -4.31249       0.0447014
LJ         0.0280827        -5.58145        -6.44425
LJ           5.65827       -0.593573       -0.579962
LJ           4.10741         4.60252        -2.27478
LJ           5.65835        -5.22225         2.92511
LJ         -0.682229         3.94456       -0.810435
LJ           2.30923        0.757634        -6.05861
LJ           0.82434        -5.20946        -4.50197
LJ          -6.22207        -1.58276        0.544364
LJ           2.54752        -4.67734         2.83051
LJ          0.817255        -4.30119        0.336489
LJ          -6.24897        -1.71866          -2.101
LJ          -2.27239        -2.90147        -5.40518
LJ          -4.87505       -0.482564        0.707633
LJ           6.35273        -4.29031         2.92861
LJ           1.80039         -3.3768         5.53857
LJ          -5.62776        -3.17723         3.63805
LJ           4.32136         1.94511        -4.57232
LJ          -4.52251         4.03965       -0.234864
LJ           3.56706         -4.1196        0.511443
LJ          -4.98636        -3.95266         3.08936
LJ          -2.47434        0.595857         4.32865
LJ          -1.79929        -1.23308         4.61598
LJ          -2.97162         2.02103        -2.51303
LJ           2.90562         1.61828        -3.07156
LJ         -0.769814       -0.252308        -0.90285
LJ           1.99799         4.24389         5.06775
LJ           1.35611       -0.143204       -0.286186
LJ           4.81093          6.4224        -1.33365
LJ           5.95002       0.0602357         -2.7689
LJ         -0.168064        -5.90033        -4.74712
LJ          -6.36507        -4.97832        -2.69209
LJ            5.5505         2.27935         -5.5351
LJ          -0.42272         1.64819         3.88594
LJ          -5.83525        -1.10675        -5.60359
LJ          -4.46072        0.520231         4.46905
LJ          -3.51923         4.15211        -2.18477
LJ         -0.620648         -3.7149        -4.51806
LJ           2.71676         6.41511         1.90495
LJ          -3.97323         2.52903         2.36418
LJ           5.36257         3.77109          5.2573
LJ           2.29119       -0.414218        -5.06669
LJ           5.08421         6.08298        -6.31797
LJ           4.01937         4.02118         4.52422
LJ          -1.94909         1.02872          3.1872
LJ          -4.24142        -1.20133        -4.26631
LJ          -3.68238       -0.405904        0.257172
LJ           2.73817         5.11475        -4.82891
LJ           3.46778       -0.331729        0.223128
LJ         -0.221323        -3.01812        -1.27528
LJ           2.19662        -4.77627        -5.38558
LJ           6.36803        -0.51376         2.24249
LJ           4.70252         1.09995         1.54613
