108
#Comment!
LJ          -2.89896         0.72318         1.58516
LJ          -2.42578        -5.49996       -0.717878
LJ          -3.54615         5.49478         4.75143
LJ          -3.66032         2.27829         -5.9893
LJ          -4.06061         4.18373         3.72597
LJ          0.961646        -2.33094         6.30098
LJ           3.39708        -3.95164         4.71554
LJ           2.21513        0.159923        -5.52941
LJ        -0.0343055         5.61392        -4.06033
LJ          -6.14207         1.41557         6.41979
LJ           3.52635        -2.32575          5.9952
LJ           1.16782        -2.08707        -1.03669
LJ           -2.9422       -0.926086         -4.6436
LJ         -0.994436        -4.63798        -6.14326
LJ          -4.28233         2.47519        -1.98947
LJ          -2.71456        -0.97762         -3.0847
LJ           2.19783        -3.49578         1.54187
LJ          -6.16191        -4.93228         2.98536
LJ          -3.63104         6.26478         1.24569
LJ           2.19068        -5.51934        -1.41589
LJ            -5.668        0.932891         3.97843
LJ           -3.4636         1.74242         1.33656
LJ          -3.25472         4.16505        -4.49308
LJ          -1.40539        0.645315        -5.59581
LJ         -0.743008         -1.8768         1.28259
LJ            5.3266        -3.03007          2.9525
LJ          -2.10005       -0.366553         5.27215
LJ           3.92194         -3.9289         -5.1737
LJ           5.12953        0.169308        -3.58324
LJ           3.88312         5.88852         5.43916
LJ           5.31029         3.12924         6.26747
LJ           5.84049        0.993764        -5.69548
LJ           2.51196       -0.602288         2.10911
LJ           2.47377         3.80051        -6.34995
LJ          0.444176        -1.36505         1.13904
LJ           5.38659         -6.4551        -4.34423
LJ           1.19971        -0.71812        -2.03605
LJ          0.339962        -3.04689         4.71471
LJ           6.16878        -1.16689         1.83406
LJ          -1.38501        -1.59296        -2.86378
LJ           3.64453       -0.401284         1.39854
LJ          -1.32205         1.78592        -4.14127
LJ          -2.51779        -1.66543         3.08207
LJ          -6.03362         2.86113        -6.31487
LJ           2.46844        -1.10013        -3.31543
LJ           5.30223        -3.29045         1.17532
LJ           -5.5039        -3.24322        -2.66077
LJ           5.68973        -2.88884       -0.336208
LJ          -3.79853         6.31082        -3.31105
LJ           4.94761         5.39418        -6.41634
LJ           5.05262        0.322784        -2.25961
LJ         -0.638022         1.93681         2.10012
LJ          -3.04954       -0.969905         6.39469
LJ          -6.36624         2.81045        -4.12806
LJ           4.72814         5.41721         4.33455
LJ          -5.50469        -5.22584         5.63614
LJ           5.78504        -2.45857         3.80496
LJ          -1.91939         6.18999        -3.53692
LJ          -1.57967        -1.42418        -1.73278
LJ          0.597803        0.164449        -2.19657
LJ          -1.02216         5.21903        -4.50414
LJ          -2.43029        -5.80125         2.39165
LJ           1.62639        -2.21737        -3.55597
LJ          -3.90592          2.4769         0.62266
LJ          -1.13745         3.49267       -0.194169
LJ           1.07691         4.42078        -5.39262
LJ          -1.71931         5.69572         0.87816
LJ          -1.37164        -2.69309        -4.74163
LJ          -4.95714       -0.624732        -4.18595
LJ           3.98607         6.14462         4.07536
LJ          -1.61436      -0.0569176         3.53234
LJ          -6.31722         3.75915         5.02299
LJ           3.59463         2.64676         5.75704
LJ          -5.35174        -5.99873        -1.19638
LJ          -4.06384         5.13031        -2.91564
LJ          -4.97934         -5.6087         3.78836
LJ           6.44304        -4.23796        -2.72527
LJ           -2.0846         5.09901         4.29282
LJ          -5.21327         2.35456        -2.47703
LJ          -2.80605         1.44539         3.12213
LJ          -2.39236        -4.78433        -2.90705
LJ           5.34103        0.390194        0.684808
LJ         -0.186309        -6.40341         1.85869
LJ          -3.28113         5.40503         3.57203
LJ           1.55514         4.53859         5.97245
LJ           2.09786         5.40667         5.30555
LJ            3.5185         4.60994       -0.897679
LJ           6.22456        -6.39275        -1.19448
LJ           -2.7611       0.0539717        -5.05221
LJ         -0.295901        -6.34779         5.41453
LJ           2.13069      -0.0215666        -2.51672
LJ          0.312067        -1.10369       -0.943314
LJ          -6.10651       -0.958364         -6.3924
LJ           1.08622         0.68136        -3.00606
LJ          -4.48641        -6.34144        -5.37932
LJ           3.46834         -5.9585        0.938861
LJ           2.93676         5.51481        -5.15221
LJ          -4.29712         5.58151       -0.324811
LJ          -5.98922        -5.58536        -2.08679
LJ           4.42098         -2.7912         3.91364
LJ          -1.42477         6.34975         1.70705
LJ           4.46813         4.65006         2.41974
LJ          -1.17916      -0.0361288          2.2594
LJ          -5.03429        -5.52875        -4.07161
LJ            -3.574          1.6432      -0.0954462
LJ           2.33196        -2.33565        -2.84682
LJ           4.91853         2.38139         1.35236
LJ          -5.93339         6.35802        -1.94023
