108
#Comment!
LJ           -2.6817        0.198615         1.74404
LJ           -3.4358        -3.85252        0.572577
LJ          -4.34065         5.52095          3.3981
LJ          -3.55997         1.57925        -5.36084
LJ          -2.84162         4.30852         2.80172
LJ           2.23458        -2.42845          6.4328
LJ           2.08015        -2.75244         3.65227
LJ           2.45189          1.6041        -5.42581
LJ          0.578407         5.76481        -4.55476
LJ          -5.75046         2.59924        -6.28959
LJ           4.19919        -2.98724        -5.77434
LJ           1.65089        -2.78866       -0.870015
LJ          -2.64034        -0.39742        -5.63171
LJ          0.411889        -3.15229         5.94456
LJ          -2.99327         3.38024        -1.22669
LJ         -0.636161        -3.78703         -4.1596
LJ           1.40399        -3.09135        0.646989
LJ          -6.09426        -5.15745         4.42151
LJ          -3.83588         4.14081         1.46514
LJ           3.12085         6.04695        -1.25352
LJ           -6.3551         2.13529         4.15177
LJ          -3.32295        0.965999         2.69901
LJ          -3.66507         5.19144        -4.93434
LJ          -0.60197        -1.81625        -5.33966
LJ          -1.36681        -2.70635        0.810918
LJ           5.83835        -3.32335         3.33109
LJ         -0.875162       -0.182156           3.634
LJ           4.72431        -4.95254        -3.53236
LJ           5.07157         1.58462        -4.56129
LJ           4.60657        -6.26781          5.4478
LJ           4.97684         2.97921         6.11902
LJ           5.41292         1.16616        -6.13582
LJ            2.7661         -1.5858          2.5359
LJ           3.82878         3.98847         4.57534
LJ            1.0193        -2.10168         1.54729
LJ            4.6927         5.50875        -5.81956
LJ          -0.56305        -2.01216         -1.5575
LJ          -2.16719        -1.74569         4.75148
LJ           5.56774        -1.03649         1.34048
LJ          -1.20818        -1.92397         -2.5949
LJ           3.66136      -0.0955202         1.71009
LJ          -0.72291         1.77822        -6.37256
LJ          -1.77198       -0.739984         2.00215
LJ          -5.71218         3.70695         -5.8493
LJ           2.65344       -0.496876        -1.92407
LJ           4.60486        -1.21612         2.00434
LJ          -5.84604        -1.34921        -3.18259
LJ           5.71988        -3.40361        0.633938
LJ          -4.87251         6.37015        -3.98308
LJ           3.92365         4.86514         5.81926
LJ           3.99945         1.50227        -2.79547
LJ         -0.713455        0.936085         1.93895
LJ          -3.66996       -0.932993        -6.34591
LJ          -5.99266         2.55827          -3.799
LJ           3.58547        -5.91727         4.67419
LJ          -4.68505        -3.47882         6.22439
LJ           4.94074        -1.89566          2.9633
LJ          -1.82735          5.2069        -5.36205
LJ          -1.41556        -1.52806        -1.54599
LJ           1.70561        -1.67424        -1.68542
LJ         -0.580218         6.25312        -3.24859
LJ          -1.43335         -4.8296          2.2644
LJ         -0.447666        -2.56227        -2.41149
LJ          -4.93315          3.1034        -1.83415
LJ          -3.18784          3.6735        0.750858
LJ            1.1118         3.93168        -5.49433
LJ          -1.95907         6.13204         1.79337
LJ         -0.782001        -4.13962        -5.47446
LJ          -3.10817       -0.832119        -3.98775
LJ           2.01944        -5.89188         3.70807
LJ            -3.568      -0.0367725         2.99484
LJ           5.75511         3.32496         5.51573
LJ           3.00237         1.15224         5.41378
LJ            -6.261        -5.87502        -2.58964
LJ           -3.5148         4.83313        -3.12864
LJ          -5.85803        -3.19298         3.36375
LJ          -5.06058        -5.65116        -3.63149
LJ           -2.1028         5.23406         4.47381
LJ          -3.36332         2.46868        -1.88984
LJ          -2.07823        0.765897         3.74796
LJ          -2.23402        -6.02795        -2.55981
LJ           5.13311        0.304559         1.57754
LJ           1.70971        -6.36443         2.49766
LJ          -1.49555         4.76172         3.63825
LJ           2.58662         2.94753        -5.82158
LJ           2.15085        -6.13353         5.70913
LJ           2.87566          4.9901       -0.990205
LJ           4.75126         5.60102        -1.85304
LJ          -3.64598         0.55238        -5.61449
LJ          0.612787        -6.05114         5.67773
LJ          0.892209       -0.297546        -3.75609
LJ           2.12133        -1.79998       -0.325739
LJ            5.8923        0.534815         6.17974
LJ          0.160231        0.450481        -2.11744
LJ          -4.28881         6.37848        -5.34736
LJ           3.23363          5.9631       -0.263816
LJ           3.06061           5.922        -4.04198
LJ          -3.93254         5.04473        -1.15996
LJ           5.33116        -6.44634        -1.93592
LJ           4.13409         -1.2587         3.30665
LJ          -2.07638        -6.15603         2.97976
LJ            2.9076         2.37116         2.59443
LJ          -1.79627        -1.16803         3.51585
LJ          -4.91963        -3.71436        -2.76358
LJ          -3.39845         1.39193         1.18499
LJ           2.81898        -1.24978        -1.10089
LJ           6.11291         4.10748         1.50431
LJ          -4.07747         4.06499        -2.56691
