108
#Comment!
LJ          -4.71673        0.704578         4.32318
LJ           5.62799         2.36814         5.54327
LJ          -3.17923        -4.39008         5.22708
LJ          -5.78752         1.11622        -3.03295
LJ           2.63103         4.14699         2.48012
LJ           6.46218        -2.80038         6.43288
LJ         -0.813862        0.152577       -0.707302
LJ           1.15397        -1.64653        -3.12758
LJ           3.22372         5.80124        -5.01978
LJ          -5.03583        -5.80576         1.40185
LJ           5.83817        -2.75807        -2.24838
LJ           -5.9474        -1.11469         1.68603
LJ          -6.34865        0.940422         5.21582
LJ           3.73364         2.88575         2.81473
LJ         -0.960037         5.16634        -1.28769
LJ           6.39258        0.923124          3.8796
LJ          0.356797        0.357076        -3.61811
LJ             6.188        -4.03142        -3.61715
LJ           3.63481        -1.07251        -5.31521
LJ          -6.14625        -2.43557        -1.85295
LJ           3.39946          5.7562           3.712
LJ           0.79263        -3.23637         2.87672
LJ          -3.17002         5.17593         5.87697
LJ           3.73109          4.9556        -3.74534
LJ          -3.86124        -6.43738       -0.211288
LJ           3.46351        -2.29325         3.71234
LJ         -0.128747       -0.636866         -1.0218
LJ           2.96313        -4.90472         1.71412
LJ           5.87669         6.13801        -5.86318
LJ           5.77117        -4.13935       -0.357312
LJ           3.61483         3.95047        -6.20023
LJ           4.82771         1.41863          6.2075
LJ           5.16469        -2.71085         5.09443
LJ          -4.44954         5.19072        0.203346
LJ           2.63893        -6.12678         5.05048
LJ           5.63634        -6.40098         4.37788
LJ          -2.80275        -2.31501         1.40109
LJ           2.46798        0.700261         1.27748
LJ          -4.73687         -1.7193       -0.660333
LJ          -4.45056         1.25018        -1.02656
LJ           2.14264         3.71061         1.28596
LJ          0.202268        0.446491       -0.906533
LJ       -0.00731065       -0.143995         1.92339
LJ          -5.47073          4.3273         4.51485
LJ           2.86321        -1.08914         3.68222
LJ            1.6142       -0.899616         1.52151
LJ           4.16583         3.12169         6.45068
LJ             4.848        -5.18592         2.71042
LJ          -3.84099         4.38175        -2.14465
LJ           3.18726         4.36655         3.25915
LJ          -1.18761         5.20248        -2.41095
LJ            2.4822         2.54196      0.00694632
LJ         -0.774789         2.02604         6.37116
LJ          -3.70438         4.46328        -3.52584
LJ           6.02485        -3.05832         3.03904
LJ          -3.55864        -1.36962         5.87395
LJ           5.95488        -1.09993         4.93321
LJ          -1.14077         2.07191         1.15021
LJ          -3.90599        0.356755        -1.40983
LJ           5.61795         4.22288        -2.67359
LJ          0.117162        -2.53144        -0.14679
LJ           1.10746        -4.11935         3.22115
LJ          -2.10903         3.27709        -1.84463
LJ          -5.12216         4.93157        -3.84269
LJ          -4.70724        0.980056        -2.51998
LJ           2.71165         2.49396         -5.6607
LJ          -2.86114        -4.78166         6.11809
LJ          -1.36603         2.68752        -3.21132
LJ           1.45918        -4.77574        -2.91196
LJ          -2.65175        -3.77013         1.39604
LJ           5.77565        -1.57395         5.92619
LJ           4.46643         1.83265          4.7365
LJ           1.24876        -4.19061         4.40516
LJ           4.81396         2.77861         5.79983
LJ          -2.99868         3.22391        -2.95777
LJ           4.79913         4.40775         2.33015
LJ          0.334056        -3.95678         6.27462
LJ          0.592446         3.32944         3.53497
LJ          0.523683         4.04362       -0.662068
LJ        -0.0499045        -2.34617          4.5357
LJ          -2.04107         4.72923        -1.92143
LJ         -0.763011         3.06807         3.08917
LJ          -4.63599        -4.25459        -6.00281
LJ         -0.321262         4.85418         4.14768
LJ           1.69986       -0.717284        -3.12617
LJ          0.615417        -1.74795       -0.576143
LJ           3.93493         3.87696        -2.08677
LJ        -0.0207647         4.39407        -3.12643
LJ          -3.68652         1.03737        -5.90079
LJ          -2.31087        -5.99852         4.56376
LJ        -0.0306219       0.0761797         3.15422
LJ           4.79694        -1.58724       -0.506292
LJ           4.65012         5.41844         5.56243
LJ         -0.724993        -2.08857         1.32396
LJ          -5.05422        -5.41994         4.54554
LJ           1.35879          1.0295        -1.29052
LJ          0.872516         5.13051        -4.94851
LJ           -1.5284         3.08657        -4.50585
LJ           4.73484         3.58145        -2.56855
LJ           2.17374        -1.57831         5.87319
LJ          -2.14037        -3.76527          5.1793
LJ         -0.344399         6.28558         3.66496
LJ           6.03118        -2.64321        -4.26075
LJ          -5.72607         1.43408         2.05086
LJ          -4.21708         1.49007         5.27975
LJ           1.96171       -0.138034         2.19133
LJ           5.98973         6.17234        -2.12752
LJ          -1.75586        -2.93867       -0.495641
