108
#Comment!
LJ           1.19074         6.22682        -3.92179
LJ           -3.5039         -4.3079        -4.83179
LJ          -5.00659       -0.199534        0.937309
LJ           2.88388         -3.7587        -4.01061
LJ          -1.79234         3.38094         3.65409
LJ          -4.62639        -0.79595         6.09739
LJ            2.1762        -2.59065         5.00736
LJ          -2.36325         1.93893        -2.10305
LJ           -3.0468        -5.71135         6.13139
LJ           4.57063        -2.34045        -1.86391
LJ          -1.11902         4.92766        -1.67735
LJ         -0.519574        -3.03451       -0.481946
LJ          -3.31177        -5.47261         1.33344
LJ           2.59907         4.24717        -4.32227
LJ          -4.67183        -5.33675         1.44845
LJ          0.109397          2.6835        0.254904
LJ           -0.4677        -1.16215        -2.97916
LJ          -3.43315       -0.521571        0.119128
LJ           -5.3964       -0.220965         2.84604
LJ           -6.2675        -2.28855          6.3042
LJ          -1.71999         3.89615         5.48599
LJ           5.30426         4.78918        -1.23193
LJ           1.59685         2.37732         1.63498
LJ          -1.24052        -3.78513         2.03964
LJ          0.842223        -5.24959        0.215576
LJ          0.174304        -2.39297         1.65106
LJ           5.52529        -2.12668         6.26731
LJ          0.106308        0.860769         5.59436
LJ           1.23563        -5.08618         4.32092
LJ         -0.606394         1.25374         2.61197
LJ         -0.940626        0.165877         6.19413
LJ            1.2667         -5.0191        -2.94476
LJ          0.733559          5.9598        -5.15171
LJ          0.429408        -4.63275          5.9059
LJ           5.67864        -5.00602         6.17285
LJ           5.97945          3.1931          5.3341
LJ          -4.83599       0.0588677        -6.04814
LJ          -1.15759       -0.597988         1.08419
LJ          -4.04847        -6.16237        -2.35688
LJ          0.317687        -6.02392        -6.18943
LJ           3.43404        -0.40877         2.75703
LJ          -1.40915         -4.4341         3.32334
LJ          -4.79737         4.40791        -3.04893
LJ           1.64218        -1.96435         2.91142
LJ          -2.37396          3.0099        -5.48191
LJ          -2.18999         1.56315        -5.08133
LJ          -2.67966         3.87153         5.85707
LJ           5.15121        -3.77939         6.31413
LJ          -3.58885        -3.54119       -0.184311
LJ          -4.61387        -2.39291         2.35282
LJ          -5.49158         -4.9514        -5.96993
LJ          -2.56266         4.91653         4.29695
LJ         -0.530141         2.58346         -3.6282
LJ         -0.156769         5.36005         -2.3857
LJ         0.0434335        -0.45402         3.32688
LJ          -4.82112       -0.422446       -0.939608
LJ          -3.91896        -6.18504         6.10185
LJ        -0.0329739       -0.529562        -4.51566
LJ           1.43197         1.45782         1.24401
LJ          -3.50371        -4.56854         2.96499
LJ          -6.29589         -2.8294         0.21845
LJ           1.97208      -0.0410133        -1.97889
LJ           6.09769          3.7721         -3.2583
LJ          -1.09142         1.70505        -2.26673
LJ         0.0459816         -3.2996        -1.81159
LJ           5.36727         3.62358        -6.10537
LJ          -5.66353        0.139989        -3.04781
LJ           4.76113        -3.92984        -5.73078
LJ          0.713558        -4.10352         4.99283
LJ           1.83743        -4.12355         -6.4487
LJ          0.121107        -1.72921        -1.35881
LJ          -5.28818        -2.03299        -2.13152
LJ          -4.41021        -5.97178        0.782423
LJ           1.64939        -5.44188       -0.364172
LJ          -4.38983        -4.82405         6.30395
LJ            4.3991        -5.20976         -2.3628
LJ          -4.69931          -5.761         -3.1409
LJ           5.81277        -3.10839        -1.57544
LJ           5.68977         4.67558        -2.66334
LJ           4.86282       -0.388054         4.45794
LJ          -2.27484         5.99443        -5.04282
LJ           3.96819       -0.673281         6.17998
LJ          -4.00826        -4.02689         1.64999
LJ          -1.77603        -3.10859        -2.17866
LJ          -6.08114         4.99695        -5.28138
LJ             5.394         5.66922        -3.84365
LJ          0.756613        0.171599        0.616065
LJ           4.22969         4.75995        0.192289
LJ           1.94734        -3.52318        -2.27044
LJ          -1.05639        -2.12926          5.6559
LJ          -5.15826         2.10684         -2.8397
LJ          -3.23736        -6.10149        -5.22052
LJ          -1.62796        -0.78434         2.47363
LJ           3.67919        -3.27681          5.0669
LJ           1.89346        0.687782         6.41846
LJ         -0.179603        -4.07619       -0.500695
LJ            1.6525        -1.54605         1.10404
LJ           2.62693         2.56481        -1.98822
LJ           1.89992        0.717862        -5.16385
LJ          -2.34699          2.8022         2.54033
LJ          -5.71186       -0.255277        -1.97742
LJ          -1.01596        -3.89239        -5.96294
LJ          -5.69449       -0.728893       0.0162974
LJ          -1.58879         5.10659       -0.360737
LJ           5.88603         5.14398       -0.102566
LJ          0.972377        -3.82457        0.846756
LJ          -3.66756        -2.99196        0.826134
LJ           2.10791       -0.602352        -5.64717
