108
#Comment!
LJ           5.73832        -3.86183        -6.03994
LJ          -3.67286         2.95688        -4.89041
LJ          -1.46756        -2.26939        -6.39089
LJ          -3.50251          5.8437        -1.69707
LJ           3.33767         4.00235      -0.0545695
LJ          -3.09276        -4.17864        -5.76196
LJ          -2.19363        -1.00889         6.06442
LJ          -1.47914         6.32032         2.60805
LJ           3.47643           4.927        -1.59556
LJ          -1.84769        -2.58509          5.6697
LJ            1.7747        0.409972        -2.96266
LJ          -4.41036        -1.48019         3.21023
LJ           4.39451        -3.53906        0.945526
LJ          -4.49746        -6.42869         2.11673
LJ          0.656026          4.4058        -3.04881
LJ           3.22179        -6.39693          3.4025
LJ          -2.02508         4.35335         5.95014
LJ           5.17755        -2.69967          1.6771
LJ          -2.93031         2.32421       -0.528596
LJ          -2.19947        0.420968        -1.02261
LJ          0.835534         5.83636         2.62263
LJ           2.96012         6.36977         1.00543
LJ          -3.05231         4.63581         2.68954
LJ           5.66272        -1.05369        -3.11327
LJ          -5.35834       -0.590895        -1.70615
LJ           1.54999        -4.66906        -3.61878
LJ           -1.7075       -0.579946        -5.04069
LJ           4.82329        -2.32758         3.01836
LJ           4.35481        -3.34392         5.85983
LJ          -3.93682        -4.69218        -4.20894
LJ           0.60472        -5.40079        -1.45859
LJ           -5.9219        -4.86058         1.80669
LJ           5.86938        -1.75979         3.64626
LJ          -1.78189       0.0810088          1.1122
LJ           3.49818        -5.26644         1.44155
LJ           2.07698        -5.01021         1.54626
LJ          -2.37727         -2.4281         4.83124
LJ        -0.0264733         3.30244         4.11197
LJ          -1.81402        -1.92189        -4.10278
LJ          -6.27241         4.78005         -2.5269
LJ          -1.78026         1.70244         5.04781
LJ          -2.02107        -0.87853        -3.58801
LJ           2.62482        -1.77198         1.45986
LJ           6.36016          3.3411       0.0762474
LJ           1.74584         0.56552        -6.21617
LJ          -3.98815       -0.523969         4.75166
LJ           1.66224         5.14673        -3.53539
LJ           4.80693        -5.66165         6.00632
LJ           4.44348         -2.7902       -0.975817
LJ          -1.38968         5.03757         2.54397
LJ          -2.13359        -5.49528        -2.39397
LJ           6.20871         4.53334        -1.29437
LJ           2.10909         4.91386         2.22701
LJ         -0.490227        -5.61987        -1.17496
LJ          -4.76481        -3.36408         5.00714
LJ          -3.43531       -0.360729         6.36532
LJ          -2.06029        -1.58725        -5.94246
LJ          -1.48663       -0.165018         5.97444
LJ          -5.36831         3.97298        -2.72725
LJ          -6.33057       -0.284653         -3.6015
LJ         -0.177215        -3.30413        -1.05922
LJ           3.02555        -5.25836        0.442152
LJ          0.695925       0.0123302        -3.72217
LJ          -4.57787         3.34814         -1.9351
LJ           5.93981        -1.52849        -4.42077
LJ           1.74387         1.19337        -4.20278
LJ           1.07514        -5.48901        -2.39646
LJ           -3.0883        -4.47531        -3.71247
LJ           3.75582         -6.3708        -3.91622
LJ          -3.89236      -0.0207138       -0.723823
LJ          -4.65107        0.961855        -2.07893
LJ           3.60502        -1.55297         1.30475
LJ          -1.42433         0.96209        -5.47917
LJ           3.70019         2.70552        -0.28718
LJ          -1.03245       -0.937571        -3.99872
LJ           1.80152        -6.07489          4.5905
LJ          -5.49474        -4.08749         3.19874
LJ           1.21079         3.06332         5.03038
LJ            5.1816         1.98376        -2.10621
LJ           1.44829         6.21487        -5.10449
LJ          -3.36381         2.90952        -6.41622
LJ           6.44585        -4.79612         3.96302
LJ          -2.70964       -0.306791        0.756835
LJ          0.387213        -1.21153        -6.30346
LJ          -1.97563        -2.69623        0.669358
LJ         -0.261726        -5.31445        -3.69363
LJ          -2.36114         4.89677        -6.25041
LJ           4.32018         3.69997        -4.54767
LJ          -2.98086         1.49129         5.85201
LJ           6.16696        -4.74213         5.85737
LJ          -1.17944         3.22536         4.14454
LJ            4.6527         3.53045        -2.06097
LJ           3.92417        -2.02573         -5.5994
LJ          -3.43209        -4.05963         5.49727
LJ          -3.49018        -5.57655          2.2577
LJ           -1.4777         2.89988       -0.332899
LJ         -0.171044         4.03188         5.97692
LJ          0.346571         3.02091        -4.99594
LJ          -4.32637        -2.14096        -1.96709
LJ          0.828088       -0.448863        -4.71942
LJ          -3.19753        -1.42922         5.59835
LJ          -1.28768         4.94986         1.13993
LJ         -0.256684        -3.14386         1.38226
LJ           5.08781         -5.1761        -5.80357
LJ          -5.76567         1.86794        -4.53565
LJ          -3.30648         1.95125        -3.13796
LJ          -5.38673      -0.0329875          -2.991
LJ          -2.62159        -5.28947         4.94336
