108
#Comment!
LJ           6.22692        -2.13698         6.32834
LJ          -4.65243         2.82752        -5.83629
LJ          -1.15881        -1.03282        -5.91133
LJ          -3.50264         3.65912        -1.78786
LJ           3.23023         4.01729       -0.150205
LJ          -3.57215        -2.72573         5.37952
LJ          -1.76905       -0.530588         -5.0346
LJ         -0.661508        -5.51722        0.331401
LJ           3.81936         5.32995        -1.88504
LJ          -2.85878        -3.41275        -5.21948
LJ           3.59682        0.892063        -1.08992
LJ          -3.49943        -1.89428         4.07081
LJ           4.53589        -1.41378         1.49875
LJ           -4.2708         6.16011         2.75431
LJ          0.516884         4.60355        -2.18228
LJ           0.76183        -4.41027         3.79876
LJ          -1.20562         3.17662         6.39635
LJ           5.48862        -2.72977         1.02314
LJ          -1.57376         5.05866        -1.94172
LJ          -3.85666        0.331771        -1.77857
LJ           1.22631         5.91503         2.75633
LJ           2.03682        -5.83042         1.22176
LJ          -3.45479         5.05129         3.54714
LJ          -5.81468       -0.392787        -1.83604
LJ          -5.22976        -2.68768        -1.32237
LJ          0.970948        -2.49763        -6.00171
LJ          -1.76059        -1.60409        -4.62516
LJ           3.36688         -2.3715         2.80265
LJ           4.92822        -4.31409         6.16631
LJ          -4.79523        -4.55865        -3.22935
LJ           1.22774        -6.30103        -2.88341
LJ           6.14758         -6.4276         2.97425
LJ           6.13845        -3.42855         3.00071
LJ          -2.33191         1.57999        0.623889
LJ           3.65532         6.32658         2.90592
LJ           3.39163        -4.72771         2.50496
LJ          -2.79746        -2.32505         3.30339
LJ          -1.00785         2.27577         4.02347
LJ          -2.19323        -2.30028        -2.65534
LJ          -5.98456         4.01297        -2.04927
LJ         -0.696088         1.07302           4.125
LJ          -2.28452       -0.797957        -3.66612
LJ           1.89055        -1.29298         1.24256
LJ          -6.21592         3.54255         1.21154
LJ           2.58219        0.372941         5.77979
LJ          -1.99165       0.0349736          4.0255
LJ            2.3892         5.28572        -4.50532
LJ           4.51624          -5.796         5.12184
LJ           5.93141        -4.36961        -1.24261
LJ          -3.36069         6.45206         3.04167
LJ          -2.48918        -5.27552        -2.70782
LJ           5.15774         4.11718       -0.906882
LJ           1.65545         4.34052         3.53533
LJ          -1.54523        -6.36249         -1.4839
LJ          -5.38184        -3.70627         4.67575
LJ          -3.60022       -0.719969         5.93861
LJ            -4.236        -1.14016        -5.17191
LJ          -1.36046       0.0515027        -5.92525
LJ          -5.51108         3.01976        -1.82357
LJ          -5.59899       -0.583621        -4.23472
LJ          0.188626        -2.54178        -0.77539
LJ           2.65914        -4.78996         1.19971
LJ         -0.627907        0.229134        -2.70937
LJ          -4.34545         4.32633        -2.36573
LJ           5.94623        -1.20538        -3.43969
LJ           1.37307          1.7438        -4.43038
LJ         -0.169793        -5.00562        -3.65125
LJ          -3.22783        -2.92197        -3.07496
LJ            3.3283         5.93463        -3.91339
LJ          -5.03388       -0.573245        -1.05263
LJ          -5.36411          0.9038         -3.7613
LJ           4.33357        -1.55227         2.73465
LJ         -0.346804         3.42635        -5.59278
LJ           3.72682         1.45318       -0.272363
LJ         -0.818287       0.0985739        -4.48223
LJ            2.2254        -6.24499          4.1772
LJ           5.39061        -4.12952         3.42083
LJ          0.983896         2.87291         4.44632
LJ           3.73085         2.68415        -1.32646
LJ             1.466        -5.79058        -5.06691
LJ          -2.95914         3.30433        -4.66052
LJ           -5.3439         6.09076          4.0319
LJ          -1.86277       -0.235059        -1.36807
LJ           0.31705        -1.37739        -6.37975
LJ          -1.29525        -2.22111       -0.346109
LJ         -0.298333         4.77394        -3.38961
LJ          -4.86567         5.17826        -5.09363
LJ            -6.375         3.74725        -4.37875
LJ          -3.03976         1.42354         6.10042
LJ          -5.60409        -4.74644         4.75707
LJ         -0.952438         2.12359         2.83918
LJ           5.10947         2.55921        -1.93935
LJ           3.94342        -3.28368         -5.9188
LJ          -2.75922         -2.8117         4.65207
LJ          -4.97033        -5.14145         2.83783
LJ         -0.182345         1.17813        0.140283
LJ         -0.325041         4.18049         5.90633
LJ          0.218609         3.14843        -4.17134
LJ          -4.66425       -0.185764        -2.74996
LJ           1.18408       -0.904552        -5.27299
LJ          -1.90748        -2.30313        -6.38194
LJ          -1.02475         5.11601         1.79417
LJ           1.53449        -3.13412      -0.0225002
LJ           5.93836         5.83138         5.98238
LJ          -5.39046         1.52742          -5.416
LJ          -1.86647        0.820451        -1.41035
LJ          -6.42499         1.64352        -2.87935
LJ          -2.88769        -5.57584         3.33525
