108
#Comment!
LJ           -5.8544        0.775342         5.40664
LJ          -6.05976         1.83993         5.77109
LJ          -2.86339        -2.95471         6.03011
LJ          -6.00812        0.841089        -2.04499
LJ           3.09305         3.88219         1.58178
LJ          -5.42992        -2.36703         5.85369
LJ          -0.83488       0.0184539        -1.64404
LJ          0.574516        -3.39753        -2.51712
LJ           3.96151         6.35183        -4.14443
LJ          -4.15853        -4.56732        -1.05988
LJ           6.20432       -0.144064        -2.03396
LJ          -4.18464       -0.664186         2.46074
LJ           4.96329        0.900277         4.50481
LJ           5.18795         4.65632         2.63797
LJ         -0.352913         5.00909        -1.59299
LJ          -3.87443        -1.09637         4.29746
LJ          0.182191         1.30246        -4.69242
LJ           5.82591        -3.34292        -2.06245
LJ           1.60293        -3.23212         -4.6892
LJ          -5.44831        -1.42981        -1.95994
LJ            2.3648         5.85664         3.38537
LJ          0.913972        -4.16859         2.07984
LJ          -3.10472         5.14148         5.24549
LJ           5.11456         3.22212        -3.04991
LJ          -4.54853        -5.94952        -0.62855
LJ           2.50043        -2.68487         3.78801
LJ         -0.446351        -1.23179        -2.46324
LJ           2.50501        -2.75664         2.49268
LJ           5.75323        -5.85402        -6.01617
LJ          -6.20809        -4.31346        -1.27705
LJ           2.78972         5.29297        -6.09539
LJ            5.2698         3.06066         5.05076
LJ           5.60951         -3.4133         4.46212
LJ          -3.22964         4.05419        -0.61515
LJ           3.01416         5.71871         5.44053
LJ           5.32647        -5.55508         3.78166
LJ          -2.99634        -2.39466          2.1115
LJ         -0.368874        0.250999         1.57493
LJ           -3.6912        -2.04378        -1.28634
LJ           -5.2986          2.1775        -1.48119
LJ           1.25116         2.62658           2.335
LJ         -0.867924       -0.217558        -2.93119
LJ           1.02266        -1.04796         1.27044
LJ          -5.65855         4.01523          3.2788
LJ           3.42452       -0.386787         4.29591
LJ          0.190793       -0.404942         2.69162
LJ           3.46416         4.08416        -5.78912
LJ           4.19069        -5.69439         3.31286
LJ          -4.16931          5.8323        -2.19841
LJ           5.71506         5.22012         3.77484
LJ          -2.39787         6.33857        -2.32715
LJ           3.45371         3.00445       -0.410899
LJ          0.333083         3.03886          5.7679
LJ            -3.205         5.15027        -2.91435
LJ          -6.10936        -3.13957         3.46834
LJ          -3.59138        -1.22992         5.45087
LJ          -6.07056         -1.2777         6.35896
LJ          -1.66605         1.20774        -1.41634
LJ          -4.44767         1.45194        -1.11412
LJ          -6.15781         2.13258        -2.91555
LJ          0.141059        -1.90282       0.0649924
LJ           1.83524        -4.50763         2.75398
LJ          -1.51006         2.29313        -2.34639
LJ          -4.60781         5.21623        -2.85717
LJ          -5.58209       -0.336126        -2.68754
LJ           1.64613         2.29876        -5.20244
LJ          -2.25724        -4.65128        -5.38066
LJ          -2.35326        0.937602        -2.75014
LJ           2.94731         6.13134         -3.0599
LJ          -3.73622        -2.61478        0.514232
LJ           6.27985       -0.616748        -5.93003
LJ           4.14621        0.105615         3.56096
LJ          0.732861        -5.90509          5.4471
LJ           4.51516         1.86059         3.49997
LJ          -2.13022         2.36972        -3.23726
LJ           3.94196         5.90294         2.72943
LJ           1.96905        -3.68669         5.12689
LJ          0.900954         3.08643         3.73939
LJ           1.71641          3.7503       -0.771004
LJ           1.08476        -3.25507        -5.90309
LJ          -2.90323         4.03892        -1.65124
LJ          -2.58037         3.93496         3.28542
LJ          -3.04849        -3.08956        -4.59111
LJ         -0.411097         2.70973         4.73143
LJ          0.633961        -1.33415        -2.32335
LJ         0.0759546        0.726045       -0.442146
LJ           4.01569         5.02419        -2.94723
LJ          -2.27242         4.17994        -3.82663
LJ          -3.38802         1.18831        -6.23275
LJ          -3.44004        -5.75355         4.35832
LJ          0.148167        0.698979         2.59356
LJ           5.03813      -0.0656601        -1.07537
LJ            4.3128        -5.94702         6.00199
LJ          -1.05549        -2.37146         1.99433
LJ          -5.40362        -5.43106         3.79889
LJ           1.05229       -0.109399       -0.577529
LJ          0.322403         4.67612        -5.78799
LJ         -0.626766         3.08444        -4.39669
LJ           5.88259         2.62303         -3.5282
LJ           1.46387        -1.78061        -6.40352
LJ          -1.55503        -3.52831         5.46982
LJ         -0.586539         5.55849         3.11116
LJ           4.33924        -2.91825        -2.75038
LJ          -5.95241         2.88503         3.50373
LJ          -4.29329         1.42896         6.16268
LJ           0.77736        0.553295         1.59102
LJ           5.97465         4.30222        -2.44332
LJ           -2.0903        -4.01138        0.789158
