108
#Comment!
LJ            2.7314         5.23623       -0.720162
LJ          -5.40194        -1.00555        -4.38514
LJ          -4.83426         5.55411         4.39945
LJ           2.43944         3.96422        -5.69408
LJ           -2.6318         3.83911         4.52278
LJ           -5.2621        -1.02221         6.10561
LJ        -0.0949319        -4.08588         4.63111
LJ          -1.16706         2.63844        -6.41916
LJ         0.0233021         3.98725         6.12985
LJ           5.95468         -2.4749        -5.49887
LJ          -1.03374         2.24554       -0.145058
LJ          -1.95204         5.88725        -4.16097
LJ           6.33739         4.78181       -0.374998
LJ           5.34037         4.54224        -3.67932
LJ          -1.17758        -2.79849         4.18939
LJ           4.35484         2.45041        -3.77043
LJ          -3.76076        -3.42719         -4.7395
LJ          -3.32784        -5.59957        0.926854
LJ          -1.19484          3.2313           3.367
LJ          -4.42507        -3.11716        -3.14847
LJ         -0.650252         4.08718         3.34105
LJ           4.79842         2.89921      0.00102226
LJ          0.916222        0.592744        -1.41204
LJ           3.86409        -5.07565         6.37802
LJ          -2.02142         4.73992         4.82218
LJ           2.01613        -1.26857       -0.976198
LJ            5.5287        -1.05342        -2.77843
LJ          -2.29002         2.72062         3.66648
LJ           1.93686        -4.91487         5.69849
LJ          -4.48876        0.711062         5.74645
LJ          -2.26605        -3.92572        -5.82746
LJ           3.67942        -3.85711        -3.05099
LJ           1.17962         4.13747        -2.30058
LJ          -1.11141         4.89498         5.89098
LJ           3.43022         5.78942         6.27664
LJ           -5.0711        0.355778         4.62311
LJ          0.462356         3.90846         4.10507
LJ          -3.40085        0.569547         2.12301
LJ          -4.97784        -5.71729        -6.19405
LJ          -1.81436         5.72093        -5.68879
LJ           2.94173        -1.84128         1.90319
LJ          -2.14626         0.62983         2.18326
LJ          -4.66661         5.80925         -4.3897
LJ           2.42265         -0.7441         4.09236
LJ          -1.19439         2.78024         5.40855
LJ          -2.69738         2.27519         2.83352
LJ          -1.06795        -5.05262        -1.72939
LJ           5.67593        -1.90053         3.84643
LJ           4.32517        -5.85744         2.76986
LJ          -5.08776        -3.29837         3.87463
LJ           2.31934        -4.44509        -5.22854
LJ          -3.76713         4.90555         4.09257
LJ        -0.0646588        0.244986        -3.19859
LJ          -1.07884         2.44365         1.97762
LJ           2.21025          2.5749         2.98305
LJ          -6.04779         3.51581        -0.31191
LJ          -5.79828        -6.39857        0.425795
LJ         -0.641917        -1.46393        -5.01304
LJ            1.4095        0.976181          1.4064
LJ          0.145969        -4.78288         6.12796
LJ          -4.75601           1.283       -0.619601
LJ          0.517969        -4.34755        -3.05941
LJ          -5.50851         5.61846        -2.84943
LJ        -0.0217459         3.44327        -1.72339
LJ           2.23941         5.81992        -2.07633
LJ          -5.82801        0.218877        -6.45955
LJ          -4.97024         6.11536         5.80013
LJ           4.23362        -3.42608        -1.49921
LJ           1.29391         5.62423         5.60957
LJ           2.44912        0.301711         5.87901
LJ          -2.72172        -2.14402        -4.56323
LJ          -5.61154         1.34547         -3.4184
LJ          -4.98648        -5.67373         -2.6558
LJ           1.60857        -5.60264        -1.98008
LJ          -4.52606        -5.27699         3.71366
LJ          -4.56516        -2.59256      0.00543237
LJ           -5.6602        -4.01758        -3.19897
LJ           3.71359         -6.4436       -0.913219
LJ           3.27623         6.36087        -1.82974
LJ           4.62785        -0.23774         4.45446
LJ          -3.98491        -6.28341        -5.23642
LJ            4.2872        0.144147         3.05712
LJ          -1.77831        -3.53551         1.02935
LJ           2.98326         -1.8058        0.205066
LJ          -4.99503         4.92288        -4.84795
LJ           5.89832        -6.32033        -1.12853
LJ          -6.28929        0.549468        0.696036
LJ          -6.14121        -2.80906         1.80101
LJ         -0.424015        -2.30158         -2.7934
LJ          -1.15888        -4.48406        -6.41833
LJ          -5.98691         1.10367        -1.95377
LJ         -0.754012         4.77883         -5.6649
LJ          -3.05851       -0.525288       -0.823331
LJ           5.07482         2.13356        -6.37769
LJ           4.97987       -0.645315        -5.95515
LJ          -1.49005         5.28314         2.08311
LJ           1.74939         1.10806        0.245921
LJ          -6.39798         4.02724        -1.05567
LJ           4.01627         1.64748       -0.399045
LJ          -3.69221         2.21154        0.910435
LJ          -5.92221         3.17687        -1.32428
LJ           -1.0206        -5.85157         5.98337
LJ            5.9523         1.89679        -1.17265
LJ           5.30697         -3.5018        -1.63786
LJ            4.6078         2.42709        -0.96393
LJ          -1.68595         -0.7998       -0.925019
LJ           -1.7961        -4.58934         1.48848
LJ          0.916632        0.550896        -3.93504
