108
#Comment!
LJ          -5.40971        0.891178         5.08352
LJ          -6.45296         2.04802         5.72612
LJ          -3.05679        -3.45751         5.68997
LJ          -5.84096         1.21963        -2.21559
LJ           3.09398         3.89901         1.99767
LJ          -5.87429        -2.43872         6.09781
LJ         -0.914556        0.131058        -1.23417
LJ          0.804596        -2.75585         -2.7603
LJ           3.67946         6.14887        -4.49399
LJ           -4.5104        -4.96257      -0.0797249
LJ           5.96639        -1.12653        -2.14985
LJ          -4.87231        -0.83905          2.1445
LJ           5.38188         1.22044         4.82629
LJ            4.5142         4.05887         2.78661
LJ         -0.567977         5.08058        -1.49067
LJ          -4.92959       -0.364096         4.05516
LJ           0.25005        0.933517         -4.2824
LJ           5.91897        -3.53662        -2.73372
LJ           2.40568        -2.39488        -4.91303
LJ          -5.64167        -1.87387        -1.90247
LJ           2.73022         5.84481         3.50886
LJ          0.842314        -3.76919         2.36312
LJ          -3.13132         5.14826         5.49649
LJ           4.50819         3.95786        -3.35953
LJ          -4.29996        -6.37501       -0.444539
LJ           2.84478        -2.48578         3.59536
LJ         -0.367814        -1.06988        -1.97411
LJ           2.72934        -3.52732         2.33204
LJ           5.82627        -6.21081        -5.93724
LJ           6.35029        -4.25573       -0.903501
LJ           3.08402         4.93826        -6.38968
LJ           5.23947         2.22612         5.48826
LJ           5.40773        -3.15163         4.72244
LJ          -3.67127          4.6437        -0.35863
LJ           2.82776         6.00995         5.52721
LJ           5.50797        -5.89426         4.05369
LJ          -2.91649        -2.37519         1.87304
LJ          0.650775         0.49945         1.00589
LJ          -4.07065        -1.91578        -1.03187
LJ          -5.14949         1.66391        -1.44563
LJ            1.5596         3.02834         1.89198
LJ         -0.334302       0.0820814        -2.15555
LJ          0.516833       -0.674691         1.12236
LJ          -5.57607         4.16153         3.76303
LJ           3.21909       -0.768499         4.06733
LJ          0.748777       -0.843343         2.36835
LJ           3.79731         3.64723        -6.06358
LJ           4.39483         -5.4632         3.03254
LJ          -3.36508         5.43328        -2.14503
LJ           4.71714          4.7193         3.56038
LJ          -2.41474         5.79853        -2.27421
LJ           3.08753         2.81749       -0.254716
LJ        -0.0882937         2.63315         6.02698
LJ          -3.65099         4.91459        -3.24895
LJ          -6.39993        -3.10651         3.27585
LJ          -3.56729         -1.2838         5.62859
LJ          -6.30775        -1.34814         5.68855
LJ          -1.47872         1.56855       -0.379667
LJ          -4.20933         1.02689        -1.20939
LJ           6.46278          2.9741        -2.78953
LJ        -0.0172739        -2.17816        0.207985
LJ           1.53599        -4.43287         3.04051
LJ          -1.65239         2.57916        -2.13961
LJ          -4.66394         5.07572        -3.27358
LJ          -5.14101       0.0605511        -2.71216
LJ           2.05635         2.36749         -5.3763
LJ          -2.73505         -4.5228        -5.73643
LJ          -2.01141         1.76194        -2.86334
LJ           2.35722        -6.00394        -2.99233
LJ          -3.36656        -3.04142        0.854639
LJ           6.01472       -0.947902        -6.22777
LJ           4.24432        0.915623         3.99697
LJ          0.923933        -5.26515         4.95663
LJ           4.61254         1.94041         4.35323
LJ          -2.53139         2.60066        -3.20709
LJ           4.29281         5.45877         2.43074
LJ           1.28758        -3.67949         5.60616
LJ          0.824789         3.16128          3.6534
LJ           1.25051          3.8664       -0.729741
LJ          0.816716        -2.77204         6.03292
LJ           -2.7042         4.29658        -1.68202
LJ          -1.89535         3.58877         3.19427
LJ          -3.42322        -3.75612        -5.26871
LJ         -0.424094         3.77426         4.43732
LJ           1.12652        -1.08463        -2.66141
LJ          0.345639       -0.237733        0.206397
LJ           3.94963         4.60222        -2.57924
LJ          -1.38092         4.30338        -3.55291
LJ          -3.44044         1.10656         -6.0237
LJ          -2.99623        -5.84885          4.4314
LJ         0.0739316        0.511168         2.72211
LJ           4.91813       -0.647198       -0.824005
LJ           4.46029          6.3796         5.82622
LJ         -0.794996        -2.29909          1.5109
LJ          -5.26444        -5.42603         4.08804
LJ           1.15649        0.317541       -0.930843
LJ          0.536771         4.85809        -5.46259
LJ         -0.958259         3.06095        -4.49321
LJ           5.37123         2.86945        -3.19667
LJ           1.60155        -1.90683         6.27173
LJ          -1.70976        -3.64386          5.3204
LJ         -0.487935         5.65067          3.4058
LJ           5.03112        -2.89579        -3.30403
LJ          -5.86617         2.30081          2.9248
LJ          -4.29462         1.46915          5.7333
LJ           1.37422        0.423895         2.07436
LJ           5.99362         5.05293        -2.30677
LJ          -1.93117        -3.62112        0.255264
