108
#Comment!
LJ           2.65382         2.75975        0.393018
LJ           2.89756         1.60533        -2.55741
LJ          -4.60091          5.4961        -3.28539
LJ           6.38688         1.30855        -6.21182
LJ          -4.48969         3.19691         4.30179
LJ          -5.20123        -2.18955         6.35011
LJ          -2.65875        -4.95656        -4.71546
LJ          0.268234         2.14377        -6.07323
LJ         -0.817451         3.74228        -5.13515
LJ           4.81942        -1.47317        -5.96478
LJ          0.500199        0.248749         1.81793
LJ          -1.06208         2.11408        -2.82773
LJ          -5.95265         1.67217        0.295737
LJ          -4.86961         4.25106        -4.30422
LJ           2.10869       -0.772672        -5.87661
LJ          -1.83772         3.58956        -6.28848
LJ           5.41762        -3.21098        -6.02512
LJ           -3.9069        0.992771        0.360013
LJ         -0.771196         0.83792         1.65864
LJ          -1.90654        -1.55252        -1.40951
LJ          -2.34353        -4.43965         3.16721
LJ          -4.86502         4.44842        0.564153
LJ         -0.805789        0.378477        -3.80829
LJ          -5.22962         -6.0532        -4.87549
LJ          -2.41452        -5.57713         4.34489
LJ           3.46868        -1.97221         -4.6526
LJ           6.31617        0.756806         2.27645
LJ          0.513043         1.41589         2.29318
LJ           3.52661        -3.52922        -5.99387
LJ           5.58906         1.85026        -2.62399
LJ          -2.91806         4.34955         4.70131
LJ           5.27174        -1.94103        -3.97781
LJ           1.25344         2.41458         1.24999
LJ         -0.402529         2.83016        -5.41236
LJ           1.07209         3.11872         5.31728
LJ          -5.10744        -2.95665         3.07318
LJ          -6.08671         2.67668        0.163648
LJ          -4.19268         3.99949         3.25791
LJ          -4.93193        -3.31941          4.0685
LJ          -2.81436         2.41186        -5.14944
LJ           4.19577        -1.45853        0.297906
LJ           -4.0757         2.51219         2.89763
LJ          -4.27106        -3.11989        -5.75652
LJ           3.91292        0.458884          4.6818
LJ          0.636732         2.09599         5.47181
LJ          0.881195         4.63349        -3.23139
LJ           -3.1548        -3.11598         2.92313
LJ          -5.93529        -0.24691         1.15978
LJ       -0.00515558         5.19686          2.9987
LJ          -5.47497         -4.4104         6.22777
LJ          -2.37629        -3.18975         -2.8571
LJ          -2.14871         4.15437         2.51345
LJ          -1.11078        -2.04004        -4.36322
LJ          -5.50333          2.1726         6.04906
LJ            5.3668         2.96952         2.98656
LJ           6.01903         4.83917         3.45189
LJ           6.29172        -5.00426        -4.88985
LJ          -1.60924        -2.99771        -4.68943
LJ          0.680179       0.0403522        0.739503
LJ         -0.159069         5.59971        -4.47445
LJ          -4.93366         4.37005        -2.57536
LJ          -2.35559        -4.81095         -3.7096
LJ           5.69139        -5.94896       -0.799631
LJ           3.64875         4.68613       -0.636619
LJ           3.94159         3.79099        -2.92622
LJ          -2.36595         -2.8263         6.41089
LJ          -4.18449         2.31429        -1.62585
LJ          -1.65995        -1.30929          2.7643
LJ           3.50098         2.58996         6.42441
LJ          -2.00125        -1.33376         3.77233
LJ            6.0852        -1.72989        -6.23762
LJ          -6.04155         3.93232        -3.81363
LJ          -5.25135        -3.31517        -5.61673
LJ          -2.24842        -6.27765       -0.899307
LJ          -4.54149        -5.58002         1.16411
LJ         -0.981063      0.00217221         2.55661
LJ           6.10034        -3.78842        -2.28636
LJ           3.18217         5.30196         1.94174
LJ           3.92751         4.68553        -3.50557
LJ          -5.62678        0.555167         3.07446
LJ          -4.33581        -4.34454        -5.14565
LJ           3.73621        0.015237       0.0446669
LJ         -0.125057        -4.75243          1.6953
LJ          -6.41403         1.57971         2.88386
LJ          -3.67159         5.28775        -5.35511
LJ           3.34372         3.96458         0.96989
LJ           5.19688         2.21693      -0.0166529
LJ          -4.11489       -0.380227         2.50957
LJ         -0.613374        -1.27356        -3.72068
LJ          -1.33195        -6.28286         5.86048
LJ           5.33576        0.992248        -0.34221
LJ         -0.568617         3.95434         5.18554
LJ          -3.14001        -3.86071        -3.51509
LJ           4.74792        -5.77584        -5.00908
LJ          -4.38645        -2.91682         6.19622
LJ          -4.59247         6.21373         2.81697
LJ           2.00599         2.55112         1.95498
LJ          -5.16869         5.70345        -4.87784
LJ           0.40341         3.51788         1.72158
LJ          -4.74058         5.12894         2.17242
LJ          -6.11225         3.73271       -0.486384
LJ          -2.67981         1.82594         3.23767
LJ          -4.27624         3.32315        -2.36708
LJ            6.4008       0.0765724        -3.64502
LJ             1.666         1.81655        -1.66437
LJ          -4.53978         2.25319        -3.00014
LJ         -0.223754        -3.03612        0.704246
LJ         -0.820371        -1.35156         -2.1508
