108
#Comment!
LJ           2.39369         2.44538        0.395065
LJ           2.45914         1.83972         -2.3596
LJ          -4.51055         5.48777        -3.71696
LJ          -6.06102         1.27333        -6.19389
LJ          -4.50856         3.51415         4.38095
LJ          -5.03645        -2.42466        -6.38319
LJ           -2.9821        -5.04128        -4.88683
LJ          0.328589         1.78198        -5.98792
LJ          -1.11658         3.80105        -5.06846
LJ            4.8243        -1.44307        -5.88137
LJ            0.7465        0.132288         2.03357
LJ         -0.955293         1.77437        -2.61674
LJ          -5.56625          1.2342       -0.045518
LJ          -4.82073         4.40615        -4.53172
LJ           2.39691       -0.595534        -5.62546
LJ          -1.13865         3.65281        -6.31057
LJ           4.98601        -3.23861        -6.19449
LJ          -4.17701        0.548991        0.212972
LJ         -0.910181        0.493825         1.43665
LJ          -1.66185        -1.31792        -1.41585
LJ          -2.57485        -4.09448         3.18299
LJ          -4.70228         4.55806        0.551319
LJ         -0.965867        0.572364        -3.87239
LJ           -4.9346        -6.08623         -5.0679
LJ          -2.30055         -5.3442         4.21278
LJ           3.63844        -2.04179        -4.98525
LJ          -6.37275        0.844859         2.77011
LJ          0.815748        0.987488         2.61267
LJ           3.68053        -3.39559        -5.87566
LJ           5.34757         1.95975        -2.22488
LJ          -3.06628         4.00505         4.41518
LJ            5.3931        -1.75939        -4.07744
LJ           1.41098          2.5062         1.28112
LJ         -0.252982         2.75923        -5.19051
LJ          0.982147         2.93278         5.04831
LJ          -5.13155        -3.24274         2.83196
LJ          -5.65198         2.72317       0.0237023
LJ          -4.65265         4.34238         3.35857
LJ          -4.92008        -3.02455         4.04808
LJ          -2.92276         2.19871        -5.19058
LJ           4.33275        -1.55558        0.172043
LJ          -3.95118         2.58454         2.88659
LJ          -4.16635         -2.9867        -5.71606
LJ            4.0449        0.568362         4.73495
LJ          0.836856         1.94279         5.61872
LJ           1.20058         4.85247        -3.73909
LJ          -3.29907        -3.08354         3.29955
LJ          -5.89527       0.0326959         0.91702
LJ         -0.159305         5.28724          2.6434
LJ          -5.50339        -4.61628         6.42902
LJ          -2.67287        -3.02222        -2.53565
LJ          -2.00069          4.0889          2.4192
LJ          -1.23999        -1.91565        -4.44897
LJ          -5.85198          2.3699        -6.37032
LJ           5.53836         2.98534         3.11385
LJ           6.16672         4.80581         3.86642
LJ           6.30419         -4.9884        -5.34315
LJ          -1.68699        -3.23222        -4.55442
LJ          0.416342      -0.0655127        0.608371
LJ         -0.231821         5.32162        -4.33344
LJ          -4.95359         4.30566        -2.92191
LJ          -2.47283        -4.92206        -3.28734
LJ           5.54912        -5.76684       -0.237104
LJ           4.04763         4.69883       -0.473812
LJ           4.09691         3.59603        -2.94647
LJ          -2.12676        -3.11474         6.44386
LJ          -4.36126         2.06379        -1.34148
LJ          -1.95281        -1.24027         2.46793
LJ           3.63839         2.40847         -6.3885
LJ          -2.69112        -1.59468          4.1558
LJ           5.75004        -1.51099         6.39708
LJ          -5.77336         4.07108        -3.80024
LJ          -5.50206        -3.16408        -5.86874
LJ          -2.55978        -6.37014       -0.769896
LJ          -4.53507        -5.62815        0.962934
LJ          -0.62321        0.392218         2.69631
LJ           6.02326        -3.63037        -2.14324
LJ           2.88901         5.25663         2.05065
LJ           3.97006         4.55098        -3.66618
LJ          -5.28733        0.426885         2.98381
LJ          -4.18347          -4.071        -5.05835
LJ           3.73397       0.0954469       -0.185251
LJ         -0.133668        -4.83752         1.70137
LJ          -6.31034         1.99404         3.22041
LJ          -3.57372         5.35775        -5.30654
LJ           3.14515         3.86954         1.16511
LJ           5.23645         2.44558       -0.028628
LJ          -4.07415       -0.597119         2.25767
LJ         -0.587933        -1.21406        -3.78669
LJ          -1.46828        -6.39504          5.7572
LJ           5.23087        0.866037       -0.205179
LJ         -0.778557         3.71729         5.48167
LJ          -3.23814        -4.27507        -3.79086
LJ           4.74924        -5.32857         -4.8742
LJ          -4.22212        -2.85011         5.78086
LJ          -4.95684         6.33663         2.81015
LJ            2.1073         2.76896         2.36748
LJ          -5.17811         5.83532        -5.65428
LJ          0.057514         3.61112         1.57142
LJ          -4.72335         5.39209         2.43145
LJ          -6.04448         3.94914       -0.513431
LJ          -2.83148         1.29018         2.98508
LJ          -3.90469         3.16634        -2.11578
LJ          -6.44875        0.345765        -3.84428
LJ           1.46519         1.76243        -1.72745
LJ          -4.78942         2.63474        -3.13269
LJ         0.0360324        -2.81222        0.735715
LJ          -1.00666        -1.74236        -2.21261
