108
#Comment!
LJ           3.20313         4.16538        0.185149
LJ            5.4929        0.152678        -3.60121
LJ          -4.75275         5.51737        0.852799
LJ           3.47682         1.75734         6.46153
LJ          -3.76442         2.91433         4.34074
LJ          -5.93921        -1.65336         5.89864
LJ           -1.7366        -4.73201           6.107
LJ         -0.199285         3.23862         6.04489
LJ           0.20603         3.76244        -5.83529
LJ           5.74437        -2.05349        -6.45212
LJ         -0.519301         1.28106        0.689061
LJ          -1.79936         4.29803        -4.42414
LJ           5.26608         3.40465         1.17156
LJ          -6.40218         4.45014        -3.60655
LJ          0.255951        -1.92632         5.43059
LJ          -5.80208         2.90948        -5.22622
LJ          -5.01598        -3.95553        -5.37537
LJ          -2.63621         4.13138         1.15297
LJ          -0.95058         2.90596         3.55091
LJ          -3.16695        -2.90346        -2.02402
LJ          -1.10823         6.25904         3.29799
LJ           6.44564         3.44304        0.170392
LJ          0.309525       -0.480307        -2.93404
LJ           5.52733        -5.77006        -4.79737
LJ          -2.81484         5.78484         5.30706
LJ           2.61369        -1.55948        -2.57772
LJ           5.77594        -0.78131       -0.802732
LJ          -1.87097         3.05613         2.05986
LJ           2.65036        -4.31214         6.20702
LJ          -5.74832         1.14386        -5.18726
LJ          -2.14519        -6.20165         6.13867
LJ            4.3649        -3.06155        -3.47151
LJ           1.22789         2.97817       -0.597331
LJ           -1.5372         3.42425        -6.28068
LJ           2.24184         4.87956         6.25262
LJ          -5.01406        -1.07299         3.88432
LJ            3.0523         3.43895         2.09948
LJ          -3.09441         1.11227         2.64698
LJ          -4.93639        -5.04167         5.36844
LJ          -2.16206         4.34553        -5.43522
LJ           3.42193        -1.64583         1.13435
LJ          -3.66673         2.16971         2.05465
LJ          -4.35225        -5.62314        -4.33979
LJ           3.06382        -0.24175         4.34636
LJ          -0.64143         3.03537         4.57469
LJ          -1.24544         3.22006      0.00313636
LJ            -1.935        -3.69039        0.517203
LJ           6.09959       -0.995725         2.95237
LJ           2.16054         5.92962         3.35007
LJ           -5.2439        -3.44268         4.90083
LJ          0.252212        -3.91569         -4.6538
LJ          -3.31464         4.31149         3.53483
LJ         -0.199719        -1.03571        -3.79542
LJ          -2.94617         1.60404         3.68903
LJ           3.93667         2.81424         2.43547
LJ           6.05263         4.45289         1.00254
LJ          -6.24091        -6.16424        -2.02122
LJ          -1.24858        -2.12924         -5.1692
LJ           1.83438        0.983207         1.34598
LJ          0.273604        -5.61789        -5.44371
LJ          -4.67667         2.98703        -0.80569
LJ         -0.580457        -4.69808        -2.99416
LJ          -6.09903         5.66825         -3.4413
LJ           1.16751         4.36136        -1.41731
LJ           2.97168         4.83944        -2.49755
LJ          -4.09375        -1.05607         6.37811
LJ          -4.20446         5.03242        -4.16765
LJ           1.64305         -2.4897        0.400781
LJ            2.3669         3.92362         5.71905
LJ           1.20559        0.641683         5.47467
LJ          -4.46509         -2.0087        -4.89425
LJ          -6.12274         3.38571        -3.64989
LJ          -5.07519        -4.74643        -3.85055
LJ         -0.233753        -5.64956        -1.76924
LJ          -4.54521         -5.3804         2.58654
LJ           -3.0448        -1.51739         1.12437
LJ          -6.34475        -4.11727        -2.92859
LJ           4.09376         5.56429        0.798514
LJ            3.5896         5.76236        -2.64752
LJ           5.83356       -0.139815         3.67732
LJ          -4.53025        -4.82101        -5.63124
LJ           3.82584        0.507335         1.53404
LJ         -0.636441        -3.88967         1.15413
LJ              4.67       -0.164474         1.23565
LJ          -4.57165         4.72165        -5.47383
LJ           5.08187         5.56892       -0.305163
LJ            5.2248         1.50886        0.449464
LJ          -4.92704       -0.629483          2.9271
LJ            -0.771        -1.92921        -2.73518
LJ         -0.613616        -5.52001         -6.3693
LJ           6.31969        0.920985        -1.38031
LJ         -0.252174          4.1677         5.65189
LJ          -3.30176        -1.56961        -2.31037
LJ           4.90531         4.32682        -5.83687
LJ          -6.35535        -1.50277        -5.72306
LJ          -2.33304         5.04457         2.75175
LJ           1.71496         1.67523        0.500194
LJ          -5.70249         5.39939        -1.97238
LJ           3.16823         1.48077          1.3029
LJ          -4.38571          3.3361        0.908691
LJ          -5.92015         3.39266       -0.892293
LJ          -1.57176         5.67048         4.94822
LJ          -6.03717          2.5946         -2.1748
LJ           5.83474        -1.62262         -2.3629
LJ           3.28641          2.1484          -1.419
LJ          -2.90178         0.57197        -1.78554
LJ          -1.57267        -4.62927         1.08849
LJ       -0.00201651        0.707772        -2.74748
