108
#Comment!
LJ           6.15893        -2.41279         6.43044
LJ          -4.52434          2.8553        -5.68264
LJ         -0.985297       -0.967525        -5.73081
LJ          -3.38908         4.01531        -1.74705
LJ           3.27719          4.0606       -0.260281
LJ          -3.54894        -3.01336          5.6908
LJ          -1.99354       -0.586026        -5.29962
LJ         -0.793792        -5.67925         0.70752
LJ           3.73309         5.16492        -1.70901
LJ          -2.73408        -3.29327        -5.59673
LJ           3.28598        0.790735        -1.41368
LJ          -3.65083         -1.8302         3.87914
LJ            4.4771        -1.76517         1.33164
LJ          -4.17962         6.01958         2.74794
LJ          0.548498         4.55622        -2.30683
LJ           1.16925        -4.70345         3.70625
LJ          -1.28199         3.42874         6.27031
LJ           5.45074        -2.66374         1.31946
LJ          -1.90132         4.63505        -1.72714
LJ          -3.54762        0.410208        -1.69433
LJ           1.13822         5.92041         2.72607
LJ           2.17806        -5.97252         1.16685
LJ          -3.56774         5.10902         3.32109
LJ          -6.08223       -0.513474        -2.07677
LJ          -5.27997        -2.36295        -1.35954
LJ           1.07287        -2.86771        -5.60526
LJ          -1.83857        -1.54271        -4.89594
LJ            3.6156         -2.3624         2.90981
LJ           4.82798        -4.15736         6.10248
LJ          -4.67843        -4.59052        -3.40232
LJ           1.11647        -6.18059        -2.58799
LJ           6.27919        -6.10952         2.80588
LJ           5.97291        -3.12727         2.90828
LJ          -2.24244         1.34301        0.727249
LJ            3.6468        -6.43607         2.65232
LJ           3.16581        -4.73025         2.33905
LJ          -2.73178        -2.31197         3.53315
LJ         -0.728312         2.52885         4.10437
LJ          -2.10342        -2.27373        -2.86219
LJ          -6.06251         4.22447        -2.15867
LJ         -0.878627         1.19996         4.21082
LJ          -2.26847       -0.776807        -3.69525
LJ           2.00256        -1.36765         1.27835
LJ          -6.27179         3.50621         1.02855
LJ           2.44658        0.406902         5.93123
LJ          -2.32529      -0.0509092         4.13401
LJ           2.21432         5.33837        -4.43608
LJ           4.54503        -5.77173         5.26173
LJ           5.68319        -4.10773        -1.20056
LJ          -2.96953         6.23505         2.93485
LJ          -2.48674        -5.21431        -2.72049
LJ           5.33152         4.20476       -0.941073
LJ           1.74946         4.40959         3.31988
LJ          -1.34289        -6.23438        -1.43177
LJ          -5.28663        -3.68972         4.72993
LJ          -3.55914       -0.648212         5.99223
LJ          -3.89244        -1.23338        -5.27514
LJ          -1.33062       0.0133125        -6.17793
LJ          -5.52225         3.08197        -1.97104
LJ          -5.72101       -0.566205        -4.16578
LJ          0.126578        -2.66544       -0.849718
LJ           2.73303        -4.83202         1.08819
LJ         -0.401372        0.198662        -2.86159
LJ          -4.31138         4.16247         -2.2876
LJ           5.91821        -1.25279         -3.5611
LJ           1.44463         1.64973        -4.39363
LJ         0.0310046        -5.04584        -3.48123
LJ          -3.15183        -3.29291        -3.11278
LJ           3.43171         6.05451        -3.90269
LJ          -4.84582       -0.474593       -0.952012
LJ          -5.17406        0.926791        -3.49361
LJ            4.3431        -1.61882         2.51327
LJ         -0.524946         2.99235        -5.56364
LJ           3.69962         1.71834        -0.21409
LJ         -0.810237       -0.309903        -4.77856
LJ           2.15284        -6.24985         4.29591
LJ           5.73667         -4.1781         3.31879
LJ           0.98861         2.90625         4.51807
LJ           3.91661         2.51937        -1.45916
LJ           1.49452         -6.0349        -5.00308
LJ          -2.98278         3.24702        -4.94796
LJ          -5.52854         6.39818         4.05007
LJ          -1.99134       -0.296688       -0.996442
LJ            0.1482        -1.30896        -6.23158
LJ          -1.42295        -2.30073       -0.168502
LJ         -0.316372         5.24605        -3.46411
LJ          -4.45205         5.14343        -5.28499
LJ           6.17739         3.74039        -4.41107
LJ          -3.03554         1.44231         6.05499
LJ          -5.78846        -4.69614         4.95228
LJ          -1.05815          2.1969         3.07011
LJ           5.09377         2.76602         -2.0134
LJ            3.9272        -3.05995        -5.85171
LJ          -2.79468        -2.96793         4.89779
LJ          -4.73749        -5.20435         2.72883
LJ         -0.384325         1.46858       0.0600504
LJ         -0.376572         4.12829         5.93735
LJ          0.255415         3.13956        -4.28176
LJ          -4.56272       -0.532783        -2.66307
LJ           1.10572       -0.860535        -5.24614
LJ          -1.94364        -2.12736        -6.26232
LJ           -1.0637          5.0757         1.67322
LJ           1.24978        -3.14363         0.23054
LJ           5.80938         6.12877         6.18088
LJ          -5.46971         1.57126        -5.27558
LJ          -2.12669         1.00219        -1.68567
LJ          -6.32598           1.395        -2.88247
LJ          -2.83184        -5.49751         3.62467
