108
#Comment!
LJ          -4.63646         0.65123         4.16019
LJ           5.78459          2.1866          5.4009
LJ          -3.27795        -4.54055         5.06022
LJ          -5.70975         1.07331         -3.1595
LJ           2.36262         4.16354         2.36304
LJ           6.33496        -2.83703        -6.44647
LJ         -0.808696        0.137405       -0.618856
LJ           1.14799        -1.56792        -3.19384
LJ           3.14555         5.72715        -5.10747
LJ           -5.1267        -5.96695         1.66442
LJ           5.80333        -3.07736        -2.28166
LJ          -6.14299        -1.16449         1.60382
LJ           -6.1328        0.896637         5.24192
LJ           3.65526         2.69783         2.86648
LJ          -1.00842         5.15151        -1.15326
LJ           6.11772         1.17632         3.90325
LJ          0.381115        0.246978        -3.49227
LJ            6.2482        -4.10802        -3.77188
LJ           3.85662       -0.832297        -5.39101
LJ          -6.22289        -2.51996        -1.83204
LJ           3.52784         5.70668         3.74776
LJ           0.75097        -3.02551         2.93922
LJ           -3.1766         5.18295         5.94465
LJ           3.59305         5.12827        -3.80184
LJ          -3.77166        -6.29949       -0.193115
LJ           3.59826        -2.37163         3.72287
LJ         -0.108787       -0.705643       -0.830636
LJ            3.0036         -5.1554         1.60724
LJ           5.88118         6.03077        -5.85421
LJ           5.66665        -4.11631       -0.259898
LJ           3.57823         3.98278        -6.10739
LJ           4.75324          1.3786         6.28208
LJ            5.1355        -2.61194         5.17059
LJ          -4.60316         5.14765        0.330526
LJ           2.61164        -5.98926         4.95601
LJ           5.65305          6.4325         4.43674
LJ          -2.77154        -2.32223         1.32046
LJ            2.7802        0.685521         1.38696
LJ          -4.86451        -1.68434       -0.597618
LJ          -4.32488         1.16251       -0.975897
LJ           2.27628          3.8455         1.20604
LJ          0.294262        0.621155       -0.685926
LJ        -0.0529366       -0.117033         1.89428
LJ          -5.45229         4.35702         4.65199
LJ           2.77377        -1.03384         3.62162
LJ           1.75009       -0.882131          1.3484
LJ           4.03069         3.00814        -6.24666
LJ           4.93093        -5.13822         2.65628
LJ           -3.9319         4.20374        -2.21115
LJ           3.02302          4.3491         3.31197
LJ         -0.959914         5.12079        -2.58414
LJ           2.36762         2.49573       0.0616564
LJ         -0.899995         1.91659         6.43478
LJ          -3.74262          4.3801        -3.51813
LJ           5.93131        -3.04899         2.99994
LJ          -3.55783        -1.38509         5.91839
LJ           5.82891        -1.05778         4.80401
LJ          -1.07753          2.1614         1.42727
LJ          -3.87456        0.243742        -1.47326
LJ           5.45668         4.46388        -2.65754
LJ          0.129752        -2.66751       -0.240024
LJ           1.06756        -4.14767         3.11961
LJ          -2.20789         3.43491        -1.83759
LJ          -5.16301         4.89237         -3.9361
LJ          -4.67102         1.17486        -2.45445
LJ           2.84203         2.52592        -5.71879
LJ          -2.82927        -4.86608         5.99042
LJ          -1.28692         2.88284        -3.29409
LJ           1.29605        -4.55258        -2.89763
LJ          -2.52206        -3.88386         1.48009
LJ           5.74475        -1.72682         5.77687
LJ            4.5349         2.00965         4.91941
LJ           1.30338        -4.01404         4.47725
LJ           4.85371         2.84124         5.82342
LJ          -3.04013         3.35248        -2.88015
LJ            4.8635         4.19482         2.34143
LJ          0.162925        -4.00814         6.37957
LJ          0.526549         3.36432         3.50839
LJ          0.388704         4.07716       -0.651048
LJ         -0.200886        -2.27155         4.27054
LJ          -1.92882         4.73941        -1.92116
LJ         -0.534291         2.98025         3.07841
LJ           -4.8635        -4.33142        -6.13384
LJ           -0.2954         4.84278         4.17382
LJ           1.86402       -0.518531        -3.20808
LJ          0.687841        -1.91354       -0.796508
LJ           3.77456         3.81212        -1.91935
LJ          0.209808         4.41359        -3.04107
LJ          -3.73629         1.02705        -5.88998
LJ          -2.18813        -6.02085         4.59272
LJ        -0.0499999        0.050484         3.40809
LJ           4.77788        -1.76046        -0.45198
LJ           4.68452         5.24594         5.51362
LJ         -0.755574        -2.04237         1.36173
LJ          -5.01566        -5.41863         4.62963
LJ           1.46674         1.18123        -1.32913
LJ          0.933396         5.17889          -4.853
LJ          -1.63162          3.0839        -4.46944
LJ            4.7796          3.6519        -2.55131
LJ           2.27501        -1.52308         5.79874
LJ          -2.18947        -3.78901         5.16079
LJ         -0.323268        -6.32862           3.628
LJ           6.20267        -2.60247        -4.42802
LJ          -5.70157         1.27359         1.89704
LJ          -4.18514          1.4986         5.21577
LJ           2.05656       -0.214293         2.17105
LJ           5.98829            6.37        -2.09721
LJ          -1.72263        -2.80984       -0.620409
