108
#Comment!
LJ          0.635044         5.97482        -4.58459
LJ          -3.52796        -5.17753        -4.80347
LJ          -4.32311         -1.4328        0.711449
LJ           3.20554         -3.4061        -4.09476
LJ          -1.31162         3.32412         3.92833
LJ          -4.93352        -1.49227         6.00606
LJ           1.56148        -2.77276         5.22414
LJ          -2.82088         1.84914        -1.27856
LJ          -2.51292        -5.36582         6.15315
LJ           4.07815        -2.35324       -0.788465
LJ          -0.57906         5.77904        -1.95205
LJ          -0.10228        -2.08199        0.255824
LJ          -3.17749        -4.58233         2.09897
LJ           1.99105         4.06219        -4.61095
LJ          -5.18019        -4.70125         1.79848
LJ         -0.396291          3.3247        0.801411
LJ          0.254254       -0.696274        -2.54232
LJ          -3.37838       -0.430176       -0.767434
LJ           6.36114       -0.212277         3.42003
LJ          -5.62815        -2.43709         5.73774
LJ          -1.97491         4.12728         5.65773
LJ           5.82935         5.16353        -1.40724
LJ           1.60028         2.77669         2.30442
LJ          -2.45154        -3.48617          1.1573
LJ          0.389596        -3.81427        -0.22473
LJ         -0.524369        -2.75533         1.61542
LJ           4.82458        -2.77374         5.81716
LJ           1.46744         1.25937          5.3163
LJ          0.919517        -4.66107         4.16836
LJ           0.25799         1.45341         1.92272
LJ          -1.25419        0.291933         6.46106
LJ          0.812689        -5.54641        -3.12301
LJ          0.998174         6.33854        -5.81196
LJ          0.850668         -4.1029         6.13102
LJ          -6.40279        -5.31036         6.20796
LJ           5.66187         3.75984         5.32419
LJ          -5.69291         -0.8828        -5.15969
LJ          -1.02601       -0.736093        0.892116
LJ          -3.87326        -5.87298        -1.77812
LJ          0.538597        -5.61633         -5.9941
LJ           3.95738         0.24331         3.06054
LJ          -1.18887        -5.52651         3.30472
LJ           -4.9544         3.66634        -2.84187
LJ           1.60776        -2.15705         2.44506
LJ          -2.55016         3.64112        -5.22131
LJ          -1.69034         1.51303        -4.22549
LJ          -4.06041          2.8475         5.14586
LJ           6.22425        -3.27867         6.11857
LJ          -2.50741        -3.21683       -0.778565
LJ          -4.48916        -1.83645         2.43921
LJ          -5.75474        -5.11309        -5.40244
LJ          -2.23113         4.61809         3.83195
LJ           -1.1746         2.80301          -3.893
LJ         -0.559671          5.6993        -3.16663
LJ         -0.152954        -1.31485         3.36934
LJ           -4.6025        -1.33853       -0.812508
LJ          -4.23386          6.1878        -5.88882
LJ         -0.814432       -0.931788        -4.51184
LJ           1.37595         1.27945         1.55391
LJ          -4.28744        -4.63151         2.55491
LJ           6.27557         -3.6274        0.736971
LJ           2.04773         1.68597        -1.23522
LJ           5.94084         2.87883        -3.39236
LJ          -1.00981         1.51696         -2.4826
LJ         -0.136185        -2.22408        -1.68482
LJ           5.07409         4.38772        -5.84659
LJ           -5.3825         1.50935          -3.569
LJ           4.29487        -4.18897         -5.4086
LJ          0.995938        -3.73323         4.70415
LJ           1.48175        -5.18661         -6.3629
LJ          0.378792        -1.98454       -0.778991
LJ          -5.35099        -2.44279        -2.10738
LJ          -3.59794         6.40435        0.780119
LJ           2.24345        -5.65984        -0.53463
LJ          -3.65931        -4.13169         6.35886
LJ            3.4274        -5.63306        -2.72523
LJ           -4.4342        -6.21648        -2.91699
LJ           6.28116        -2.39913        -1.96203
LJ           6.20231         4.55704        -2.23679
LJ           5.34247       -0.597229         4.36426
LJ          -2.25935        -6.24157        -4.16402
LJ           3.11818       -0.415086         6.32454
LJ          -4.23246        -4.53418         1.05585
LJ          -2.52087        -3.36253        -2.54821
LJ          -6.27753         5.01205        -5.66427
LJ            5.0806         5.55036        -4.40681
LJ           2.47355        0.686989         1.09453
LJ           3.91156         3.55585       -0.194138
LJ           2.54468        -3.31153        -1.80937
LJ         -0.883042        -1.92757          5.3355
LJ            -4.977         2.42139        -2.64646
LJ          -3.24765        -5.90202         -5.4001
LJ         -0.970594        -1.46365          2.5395
LJ           3.26242        -3.82399         4.75761
LJ            1.0607          0.6789         6.30983
LJ           0.28838        -3.06943        -1.06753
LJ           1.65606        -2.83739         1.51752
LJ           1.82186         2.28324        -2.05947
LJ           2.52822         1.25032         -5.8198
LJ          -2.32178         3.19624         2.82734
LJ          -5.59471         -1.0201        -1.34924
LJ          -1.01236        -2.83295        -5.97543
LJ          -5.67484        -1.69774       -0.400418
LJ         -0.321688         4.17921        -0.37873
LJ           5.62156         5.77633       -0.458161
LJ           1.39044        -4.55668        0.951141
LJ          -4.51913        -2.86017        0.381741
LJ             2.244       -0.683723        -6.18794
