108
#Comment!
LJ           3.02944         3.27988        0.471814
LJ           3.49953         1.26522        -2.81108
LJ          -4.79776         5.37174        -2.67831
LJ           5.71353         1.40981        -6.26767
LJ          -4.39325         2.77926         4.00946
LJ          -5.41281        -1.80906           6.077
LJ          -2.42438        -4.89607        -5.12866
LJ          0.393223         2.60108         6.45155
LJ         -0.502552          3.9029         -5.2069
LJ           4.93945        -1.57529        -6.09774
LJ         0.0497978        0.512653         1.59188
LJ          -1.22073         2.61474        -3.15398
LJ           6.42766         1.83892        0.889897
LJ          -5.08133         4.08251        -3.84883
LJ           1.68178        -1.04222        -6.24977
LJ          -2.83332         3.47655        -6.18739
LJ           6.07955        -3.08943        -5.76961
LJ          -3.51554         1.66301        0.581989
LJ         -0.589887         1.25669         2.15301
LJ          -2.18353        -1.89327        -1.46819
LJ          -2.03326        -4.93639          3.1699
LJ          -5.12813         4.28139        0.608752
LJ         -0.563392       0.0365838        -3.69934
LJ          -5.67684        -6.08808        -4.57285
LJ          -2.57666        -5.89858         4.51749
LJ           3.24047         -1.8697        -4.17066
LJ           6.06427        0.355839         1.43921
LJ          0.105036         2.03457         1.71504
LJ           3.32037        -3.71447        -6.16422
LJ           5.95331         1.68306        -3.22083
LJ          -2.71086         4.85313         5.11853
LJ           5.07623        -2.21108        -3.84913
LJ          0.761002          2.2954         1.06084
LJ          -0.72512         2.78662        -5.70126
LJ           1.16228         3.40744         5.70828
LJ          -5.09346        -2.50476         3.22516
LJ           5.99931         2.96317        0.404272
LJ          -3.53729         3.34326         3.17359
LJ          -4.90375        -3.78288         4.32011
LJ          -2.63491         2.75926        -5.11303
LJ           3.96808         -1.2281        0.474227
LJ          -4.22828         2.50208          3.0122
LJ          -3.97618         -3.4713        -5.29687
LJ           3.71561        0.295698         4.60332
LJ          0.317962         2.33021         5.39949
LJ           0.39008          4.3118         -2.4828
LJ          -2.92065        -3.21047         2.37395
LJ            -6.029       -0.594358         1.56503
LJ          0.222949         5.05021         3.53221
LJ          -5.39076        -4.01556         6.00171
LJ          -1.75643        -3.42631        -3.32687
LJ          -2.38619         4.24486         2.66715
LJ         -0.854423        -2.16016        -4.18376
LJ          -5.02147         1.83181          5.3103
LJ           5.13358         2.93246         2.79378
LJ           5.79857         4.87748         2.82503
LJ           6.28847        -5.05554        -4.22321
LJ          -1.60055        -2.77108        -4.95545
LJ           1.10618        0.195644        0.864074
LJ        -0.0431068         5.99761        -4.67932
LJ          -4.85918         4.48074        -2.16414
LJ          -1.89572        -4.54184        -3.58936
LJ           5.90544        -6.22177        -1.64476
LJ            3.0481         4.64818       -0.852558
LJ           3.70989         3.94182        -2.80274
LJ           -2.7429        -2.39987         6.38073
LJ           -3.9627         2.84466        -2.18807
LJ         -0.917981        -1.48485          2.3124
LJ           3.29269         2.86114         6.25256
LJ          -1.22904       -0.884659         4.07435
LJ          -6.45047         -2.1095        -5.77789
LJ          -6.25095         3.78033        -3.85425
LJ          -5.26589        -3.79584         -5.2001
LJ          -1.78215        -6.13848        -1.09386
LJ          -4.55054        -5.51896         1.47848
LJ          -1.49586       -0.468625         2.24258
LJ           6.21541         -4.0268        -2.50412
LJ            3.6257         5.32984         1.74901
LJ           3.86302         5.02523        -3.35228
LJ          -6.08183        0.568891          3.2329
LJ          -4.59753        -4.56111        -5.36286
LJ           3.77784        -0.17519        0.398881
LJ         -0.116341        -4.60999         1.67823
LJ           6.24472         1.37744         2.38511
LJ          -3.87246         5.18654        -5.39948
LJ           3.60035         4.08731        0.650326
LJ           5.16464           1.998       0.0887506
LJ          -4.19412      -0.0431079          2.8901
LJ         -0.650047        -1.26785        -3.53132
LJ          -1.13604        -6.11233         6.00642
LJ           5.54359         1.07917       -0.606157
LJ         -0.246288         4.29228         4.76475
LJ          -3.21244        -3.24926        -3.24451
LJ           4.77477        -6.43186        -5.20987
LJ          -4.76087        -2.93916         6.28665
LJ          -4.06948         6.02619         2.80337
LJ           2.06152         2.27715         1.49519
LJ          -5.10079         5.53742        -3.65752
LJ          0.986063         3.26593         1.90735
LJ          -4.73522         4.69061         1.78448
LJ          -6.11437         3.50615       -0.549779
LJ           -2.5068         2.65998         3.60149
LJ          -4.88298         3.37978        -2.75403
LJ           6.28037       -0.323853         -3.3453
LJ           2.02725         1.89121        -1.60826
LJ          -4.13663          1.7977         -2.6907
LJ         -0.612646        -3.38501        0.666909
LJ         -0.626137       -0.781039        -2.06617
