108
#Comment!
LJ           3.24919         3.96696         0.31928
LJ           5.18868        0.322242        -3.48552
LJ          -4.75728         5.52163        0.323703
LJ           3.81369         1.70389        -6.43477
LJ          -3.87828         2.73315         4.30431
LJ          -5.85055        -1.62632         5.83891
LJ          -1.86768        -4.72421         6.36189
LJ       0.000521898         3.20406         6.26043
LJ          0.115538         3.74932        -5.81429
LJ           5.56215        -1.98883        -6.41053
LJ         -0.448162         1.15233        0.819285
LJ          -1.69365         4.04555        -4.17726
LJ           5.29123         3.16141         1.30538
LJ          -6.19665         4.64225        -3.56845
LJ          0.471218        -1.79873         5.61917
LJ           -5.3696          2.9852        -5.39143
LJ          -5.30992         -3.8318        -5.39005
LJ          -2.52266         3.63129         1.21581
LJ         -0.899088         2.62732         3.36096
LJ          -2.98266        -2.80866        -1.86709
LJ          -1.23629        -6.39769         3.27332
LJ          -6.23321           3.571        0.175177
LJ          0.182346       -0.507562        -3.20112
LJ           5.77862        -5.87505        -4.53247
LJ          -2.86341         6.00015         5.10766
LJ            2.7015        -1.60349        -2.81538
LJ           5.81881       -0.636436       -0.476923
LJ          -1.81194         3.06724         1.80558
LJ           2.75089        -4.22298         6.28988
LJ          -5.93218         1.21603        -4.89469
LJ          -2.19093         6.42493          6.0839
LJ           4.47217        -2.93888         -3.5298
LJ           1.15736         2.87834       -0.368162
LJ          -1.53963          3.3457        -6.14842
LJ           2.01926         4.69914          6.2118
LJ          -5.02532        -1.32113         3.79887
LJ           3.45237         3.35674         1.76813
LJ          -3.00793         1.38872         2.71399
LJ          -4.92039        -4.89677         5.19791
LJ          -2.19072         4.05535        -5.46883
LJ           3.49918        -1.60299         1.03174
LJ          -3.86282         2.25289         2.14136
LJ          -4.29444        -5.22731        -4.35496
LJ           3.16147       -0.162036         4.38487
LJ         -0.489158         3.06829         4.71182
LJ          -1.00298         3.38652       -0.373859
LJ          -2.14407        -3.56785        0.802272
LJ           6.23122       -0.989455         2.70997
LJ           1.83563         5.75671         3.43718
LJ          -5.26566        -3.47743         5.06315
LJ        0.00253071        -3.76106        -4.48274
LJ          -3.20202          4.2542           3.409
LJ         -0.233515        -1.25459        -3.83905
LJ          -3.33236         1.53798         3.84104
LJ           4.18449         2.85145         2.35982
LJ           5.81321         4.63102         1.22178
LJ          -6.30894        -5.92878        -2.35049
LJ          -1.33374        -2.22527         -5.1812
LJ           1.92847        0.996781         1.31402
LJ          0.249528        -5.82183        -5.30104
LJ          -4.79667         3.22855       -0.959604
LJ          -0.78854        -4.67293        -3.06993
LJ          -6.25897         5.59597        -3.43049
LJ           1.43956         4.41624        -1.33484
LJ           3.06028         4.65906         -2.5439
LJ          -3.87828        -1.25135         6.37284
LJ          -4.11775         4.70051        -3.86099
LJ           1.26305        -2.34027        0.687105
LJ           2.55944         3.70595         5.77755
LJ          0.838812        0.416648         5.26317
LJ          -4.73798        -2.00164         -4.9554
LJ          -6.20748         3.52691         -3.7188
LJ          -5.09561        -4.63302        -4.07818
LJ         -0.463815        -5.73082        -1.65849
LJ           -4.5483        -5.39888          2.4185
LJ           -2.8168        -1.35575         1.29211
LJ          -6.40502        -4.16523        -2.90568
LJ           4.21776         5.45675         1.00709
LJ           3.65777         5.69898        -2.76235
LJ           5.97149      0.00536752          3.6596
LJ          -4.52546        -4.85874         -5.7226
LJ           3.81522         0.38852         1.35688
LJ         -0.442358        -3.98822         1.29782
LJ           4.92061        0.113306         1.39424
LJ          -4.46902         4.80752        -5.48043
LJ           4.88793         5.38701       -0.163705
LJ            5.2316         1.60029        0.401168
LJ          -4.75429       -0.269935         3.08794
LJ         -0.799616        -1.82877        -2.76422
LJ         -0.666897        -5.62012         6.44669
LJ             6.214        0.944332        -1.29248
LJ         -0.235338         4.11001         5.37217
LJ          -3.33168        -1.76442        -2.51946
LJ           4.88438         4.65177        -5.74584
LJ          -6.11069        -1.75198        -5.84297
LJ          -2.58463         5.26322          2.7199
LJ           1.72029         1.76163        0.558159
LJ          -5.56814         5.37694        -2.17655
LJ           2.67223         1.60937         1.47066
LJ          -4.43751           3.545         1.03046
LJ          -5.88576         3.40369       -0.784013
LJ          -1.69149         5.19773         4.75405
LJ          -5.88476         2.68321        -2.30827
LJ           5.90639        -1.43131        -2.50906
LJ           3.09944         2.10639        -1.45384
LJ          -3.08612        0.750219        -1.92123
LJ          -1.48383        -4.50771        0.953143
LJ         -0.117282        0.567715        -2.54605
