108
#Comment!
LJ          -4.02639        0.476774         3.26934
LJ          -6.10224        0.545235         4.07388
LJ          -3.93432        -5.43657         3.76418
LJ          -4.81297        0.848426         -3.8295
LJ          0.509457         4.19077         1.17385
LJ           5.28618        -2.81457        -6.32519
LJ           -0.2249     -0.00234943        0.106303
LJ           1.35073       -0.660279        -3.77563
LJ           2.37502         5.57351        -5.30488
LJ          -5.80536         5.74023         3.62457
LJ           5.65368         -4.6115        -2.76558
LJ           5.31808        -1.54524        0.978511
LJ          -4.70003        0.769092         5.27988
LJ           3.08047         1.34768         3.24599
LJ           -1.7258         4.86858       -0.725046
LJ            4.1972         3.11002         4.75241
LJ          0.658798       -0.648495        -2.42607
LJ           -6.2401        -4.54641         -4.9267
LJ           5.47176         1.08235        -6.07592
LJ           5.88783         -3.4526        -1.81148
LJ           4.44934         5.17097         4.04016
LJ          0.104339        -1.48114         3.48859
LJ          -3.22862         5.24868         6.44153
LJ           2.44485        -6.40765        -4.50687
LJ          -3.12374        -5.30586      -0.0364063
LJ           4.67173        -2.86848         3.94367
LJ         0.0221451       -0.982095        0.647591
LJ           3.31564          5.8681        0.821009
LJ           5.89464         5.20212         -5.8166
LJ           4.88327        -3.92144        0.471062
LJ            3.1401         4.17254        -5.40288
LJ           4.29497         1.51507         6.46135
LJ            3.9621        -2.82353          4.9715
LJ           -5.7351         4.87835         1.28115
LJ           2.41464         -4.9665         4.22259
LJ           5.70281         5.64753         4.90647
LJ          -2.43378         -2.4824        0.729226
LJ           4.87512        0.360221          2.3579
LJ          -5.84651        -1.41974       -0.139341
LJ          -3.38072         0.32034       -0.960135
LJ           3.12064         4.86749         0.94091
LJ          0.746541         1.59813        0.846822
LJ         -0.367389       0.0371423         1.72958
LJ          -5.32541         4.58735         5.68624
LJ           2.14607       -0.614678         2.85888
LJ           2.81735       -0.616764        0.437661
LJ           5.34151         1.78853        -5.39409
LJ           5.54823        -4.75086         2.25496
LJ          -4.96971         3.01639        -2.79858
LJ           1.86244         4.33758         3.71985
LJ          0.737323         4.17498         -3.5579
LJ           1.47171         2.14988        0.437041
LJ          -1.84856         1.10065        -6.00644
LJ          -4.22236         3.69876        -3.46616
LJ            5.1483         -2.9758         2.76768
LJ          -3.55723        -1.49423         6.25005
LJ           4.93456        -1.19515          4.2833
LJ          -1.11851         2.83219          3.2138
LJ          -3.78526       -0.289183        -1.85726
LJ            4.3878         6.27559        -2.53382
LJ         0.0565192        -3.78694       -0.894998
LJ          0.699323        -4.24626         2.67397
LJ          -2.23179         5.18898        -1.54474
LJ          -5.29141         4.51437        -4.54301
LJ          -4.51356         2.33434        -1.87314
LJ           2.34289         2.68835        -5.88205
LJ          -2.32804        -5.54128         4.96293
LJ         -0.831378          4.4522        -4.01228
LJ         0.0576167        -2.83177        -2.75176
LJ          -1.56121        -4.60519         2.09014
LJ          -6.41792        -1.74738         5.09807
LJ           5.15384         2.25188         5.65637
LJ           1.64456        -2.69525         4.74924
LJ             4.872         3.95665        -5.73204
LJ          -3.05678          4.2919        -2.68526
LJ             5.292         2.57253         2.46529
LJ          -1.12511        -4.39417        -5.78353
LJ          0.734358           4.198         3.67087
LJ         -0.585418         4.31814       -0.692097
LJ         -0.921149        -1.86144         2.54272
LJ         -0.990783          4.5213        -1.72573
LJ           1.05804          1.8879         2.93124
LJ           6.37797        -4.91687         5.76099
LJ        -0.0665514         4.66762         4.30941
LJ           2.74638        0.713832        -3.80677
LJ           1.21139        -2.85244        -2.51155
LJ           2.67748         3.34254       -0.749725
LJ           1.49681         4.71562        -2.43082
LJ          -4.12328        0.955748        -5.86577
LJ          -1.39335        -6.00569          4.9268
LJ         -0.188225       -0.178492         5.17033
LJ           4.66914        -3.07288      -0.0681709
LJ           4.95687         3.94581         5.14059
LJ          -1.01122        -1.61367         1.24432
LJ           -4.5323        -5.31148         5.22125
LJ           2.13296         2.28117        -1.44681
LJ           1.46258         5.51916        -4.08961
LJ          -2.25185         3.14624         -3.9002
LJ           4.84779         4.19898        -2.34804
LJ           3.05314        -1.11808         5.20526
LJ          -2.97784        -4.42181         5.09813
LJ         -0.105359        -3.95868         3.32991
LJ          -5.48821        -2.43056        -5.73276
LJ          -5.52296       0.0507095        0.753121
LJ          -4.10772          1.3266         4.46663
LJ           2.89221       -0.770992         1.83631
LJ           6.10759        -5.68634        -1.52641
LJ          -1.38926        -1.83752        -1.50048
