108
#Comment!
LJ          -2.70318        0.202173         1.78216
LJ          -3.32465        -4.03502        0.428582
LJ          -4.21935         5.48155         3.53668
LJ          -3.57595         1.64416        -5.44141
LJ          -2.97784         4.32535         2.92428
LJ           2.09318        -2.41541         6.41881
LJ           2.22185         -2.8915         3.77285
LJ           2.42411         1.43776        -5.43384
LJ          0.553201         5.75397        -4.51482
LJ          -5.77913         2.41988        -6.33265
LJ           4.12747        -2.91354        -5.90169
LJ            1.5759        -2.71439       -0.888022
LJ          -2.61786       -0.499688        -5.49891
LJ          0.216714        -3.29921         6.10529
LJ           -3.0684         3.32268        -1.28532
LJ         -0.884969        -3.49007        -4.05006
LJ           1.50239        -3.16503        0.749825
LJ          -6.13611        -5.16053         4.26454
LJ          -3.83398         4.38672          1.4441
LJ           2.99019         6.05376        -1.25234
LJ          -6.27742         1.99939         4.12841
LJ          -3.39382         1.01997         2.56742
LJ          -3.63184         5.06675        -4.80493
LJ          -0.67937        -1.54238        -5.37139
LJ          -1.30222        -2.62062        0.861048
LJ           5.77203        -3.33997         3.28257
LJ         -0.994429       -0.204714         3.84039
LJ           4.63442        -4.83748        -3.71473
LJ           5.07837         1.42579        -4.45283
LJ           4.60345        -6.37502          5.6981
LJ           5.04477         3.00977         6.11104
LJ           5.44161         1.15255        -6.08436
LJ            2.7385        -1.47742         2.47821
LJ           3.68463         3.95287         4.76922
LJ          0.966809        -1.98389         1.40336
LJ           4.72675         5.70518        -5.85601
LJ         -0.330818        -1.91548        -1.57035
LJ          -1.89054        -1.90052         4.75596
LJ           5.53485        -1.00664          1.4375
LJ          -1.25075        -1.86927        -2.65061
LJ           3.62693       -0.120355         1.68105
LJ         -0.788199         1.78161        -6.12408
LJ          -1.86798       -0.909001         2.06747
LJ          -5.73772         3.66752        -5.87915
LJ           2.67808       -0.542835        -2.12193
LJ           4.82797        -1.48899         1.98067
LJ          -5.80858        -1.55666        -3.12373
LJ           5.70255        -3.34484        0.564667
LJ          -4.73529         6.37815        -4.03284
LJ           4.04212         4.87927         5.90865
LJ           4.11211         1.37297        -2.71989
LJ         -0.697736          1.0524         1.95344
LJ          -3.62662       -0.958241        -6.40476
LJ          -6.03443         2.58702        -3.83181
LJ           3.52467        -6.12204         4.73913
LJ          -4.77582        -3.67231         6.16105
LJ           5.04385        -1.84854          2.8604
LJ          -1.85548         5.32466         -5.1748
LJ          -1.40811        -1.52518        -1.53001
LJ           1.63316        -1.47108        -1.52009
LJ         -0.640848          6.1313        -3.35755
LJ          -1.53902        -4.89242         2.26804
LJ         -0.189515         -2.5706        -2.58501
LJ          -4.86779         3.04044        -1.53259
LJ          -2.94462         3.64447        0.638762
LJ           1.08602          3.9913        -5.46623
LJ          -1.92945         6.05542         1.63786
LJ         -0.808633        -4.00682         -5.4764
LJ          -3.32817       -0.814068        -3.98937
LJ           2.21228        -5.96566         3.71172
LJ          -3.36237       0.0440167          2.9309
LJ           5.81367         3.36404         5.47535
LJ           3.06778         1.31053         5.44653
LJ          -6.09007        -5.84116        -2.49032
LJ          -3.58388         4.80315        -3.15541
LJ          -5.70507        -3.43869         3.40896
LJ          -5.27908        -5.53065        -3.46693
LJ          -2.15699         5.25487         4.53755
LJ          -3.59206         2.39557        -2.01392
LJ           -2.1504        0.895489         3.71239
LJ          -2.25226        -5.88631        -2.59584
LJ           5.20217        0.240487         1.48751
LJ           1.49597        -6.37204         2.41537
LJ          -1.66847         4.79186         3.55938
LJ           2.47025         3.11873        -5.95713
LJ            2.3431        -6.27581         5.55846
LJ           2.95766         5.07494        -1.02758
LJ           4.91336         5.66224        -1.77354
LJ          -3.57203         0.58101        -5.54719
LJ          0.506661        -6.08387         5.64864
LJ           1.04176       -0.256279        -3.65561
LJ           1.85646        -1.69822       -0.444355
LJ           6.00612        0.346508         6.20876
LJ          0.232625        0.509113         -2.2093
LJ          -4.33323         6.40816        -5.24781
LJ           3.27051         6.09158      -0.0993757
LJ           3.04584         5.87711         -4.1625
LJ          -3.96885         5.11395        -1.05309
LJ           5.46835        -6.33108        -1.95777
LJ           4.10793        -1.41492         3.41867
LJ          -2.00696        -6.20715         2.89648
LJ           3.07896         2.62474         2.57513
LJ          -1.67499        -1.03551         3.41341
LJ          -4.89398        -3.88018        -2.91854
LJ          -3.42358          1.4324         1.05284
LJ           2.70562        -1.35931        -1.27574
LJ           5.98176         3.91543         1.48622
LJ          -4.27986         4.34582        -2.52925
