108
#Comment!
LJ           1.10277          6.1841         3.45873
LJ          -3.08023         4.70214         -3.7697
LJ          -2.59868         1.07258        -1.70153
LJ           5.60671        -1.99132        -2.70602
LJ           3.51517         3.69683         6.37304
LJ          -3.49599       -0.199453         5.41861
LJ           -4.0261         5.96631         3.03898
LJ          -5.56241          1.2499        -1.43861
LJ         -0.654202        -3.38131         5.04551
LJ           1.32646       -0.962386         -2.0328
LJ          0.852374        -3.46824        -3.89549
LJ          -4.59167        -2.97409         2.69713
LJ          -6.12461         2.28469         5.95902
LJ          -3.11464         -2.8403         6.25204
LJ          -3.70314         4.95778        -1.41358
LJ         -0.482773        -2.96664        -4.12645
LJ            2.8871        -2.16468          3.3841
LJ           4.45921        -1.31514         6.13352
LJ            1.6748        -1.15507        0.710453
LJ           3.02814         4.16008         3.26661
LJ           -1.9441         -5.3305        -5.68654
LJ          -2.78504         5.80224        -3.47307
LJ          0.635669        -5.66298         4.07441
LJ           2.68802        -4.53402         -2.1175
LJ         0.0286586          4.2191         5.96573
LJ         -0.149874        -5.07665        0.482628
LJ         -0.837783        -3.58108         3.65895
LJ          -2.25204         2.12663        0.373378
LJ          0.235039        -2.92973        -5.06663
LJ           5.20843         5.42331        -5.56394
LJ          -3.88143         1.07077        -1.64692
LJ           5.07006        -1.20529        -2.58361
LJ          0.299963       -0.671641         3.39678
LJ          0.978484        -4.19996        -5.62471
LJ           3.82561         2.15073        -5.49316
LJ           4.69304         2.83167        -6.32026
LJ         -0.939643        -4.96757        -3.68887
LJ           2.42204         1.71643         3.78533
LJ          -4.92541          3.6118         1.87352
LJ          -4.10811        -3.87353        -4.21288
LJ           3.86394         -5.9506         4.43645
LJ         -0.177028         5.30222         2.38885
LJ          -1.68077         4.04918          4.6722
LJ            3.3609        -1.90122         4.44672
LJ          -1.99361          -5.079        -3.97068
LJ           3.42627         4.92435         5.72079
LJ           2.95722        -2.31415         6.02456
LJ           4.03359         2.19937         3.58969
LJ           6.34321         3.48974        -4.07222
LJ          -2.95612         1.28701       -0.416288
LJ          -5.30383         2.48563         -5.6627
LJ           2.21514        -3.82961         6.40213
LJ          -2.94341         1.90023          4.9164
LJ          -1.36743        -3.88594        -3.94051
LJ          0.934481        -3.95287         6.02048
LJ         -0.672813        -5.70703       -0.599899
LJ            2.8452        -6.32604         4.00697
LJ          -6.40036        -1.40734          2.3225
LJ          -6.25663        -5.82333         -1.4221
LJ           6.09966        -5.19045           2.983
LJ          -2.58606        -6.32398       -0.442592
LJ           2.02585         2.27538         5.67871
LJ            1.9993        -3.92394        -4.53706
LJ          -5.18196        -4.83671          1.1987
LJ           1.54377         5.88591            2.41
LJ           2.03511        -3.46989          2.5371
LJ          -5.84542        -4.25125        0.229835
LJ          -1.03335        -3.70298        -2.76257
LJ           5.87423        -1.01672        0.928361
LJ           5.85192        -3.38774         4.50018
LJ          0.884583         -1.4666         4.74459
LJ          -5.14102        -1.84929         3.01077
LJ           2.35261         3.55252        -3.16515
LJ          -5.18942         4.73296        -1.52972
LJ          0.937181         6.18528       -0.128261
LJ          -5.60719         6.44434         4.43998
LJ           -1.8478        -2.63481         3.24238
LJ          -2.17815       -0.873992         5.23858
LJ          -1.55309         2.93534        -2.07513
LJ           4.08626         3.00058        -4.02452
LJ           1.95319        -2.14613        -1.67336
LJ           4.73239         4.49501         5.51693
LJ         -0.116877         2.18411        -1.74225
LJ           5.56342        -5.24078        -2.29957
LJ           4.64952         2.34981        -4.95362
LJ           1.80619        -5.95081        -3.95494
LJ          -3.12715        -6.01533        -3.19224
LJ            5.2912       -0.917478        -5.54676
LJ          -2.44972        0.733507         2.68836
LJ            5.6731        -1.67784           5.685
LJ           4.43853        0.821659         2.63958
LJ          -3.36875         4.82405        0.385058
LJ          0.162888        -3.22193          5.8734
LJ          0.607112        -5.78066         3.06423
LJ          -5.78013        0.708203         2.10079
LJ           3.78297         2.27928         5.96165
LJ           1.79027         1.28181         5.12434
LJ          -4.65295         4.89304         -5.7515
LJ           5.53061         3.99289         4.04302
LJ          -3.43134         1.33278         3.41962
LJ          -3.70996        -3.20023        -1.97265
LJ          -3.20122         0.66556        -2.78297
LJ             3.496          5.4386        -2.16044
LJ           5.42762        0.397476         1.12934
LJ         0.0384005        -3.73581        -3.03523
LJ           2.81514        -1.80263        -3.61913
LJ          -4.84917        -0.39034         2.92887
LJ          -5.64278         2.04561         3.09414
