108
#Comment!
LJ          -3.28605        0.209572         2.32085
LJ          -4.83927        -1.45293         2.46529
LJ          -4.75867         6.40082         2.84805
LJ          -3.58773        0.669103        -4.74491
LJ          -1.11013         4.21638         1.23463
LJ           4.00881        -2.64646        -6.35957
LJ          0.837353       -0.881515         1.48997
LJ           1.84329        0.432009         -4.5175
LJ          0.830302         5.99134        -4.99817
LJ          -5.85088         4.08128         6.06937
LJ           5.06666        -3.92832        -4.15449
LJ           3.41543        -2.18484       0.0536178
LJ          -3.55168         0.39986         5.69944
LJ           2.68416         -0.9505         4.00692
LJ          -2.33428         4.40333       -0.554281
LJ           2.23006         5.50669        -6.37874
LJ          0.853643        -1.68647        -1.05751
LJ          -5.67505        -5.05234        -6.43029
LJ          -5.74864         2.32534         4.44381
LJ           4.61975        -5.13567        -2.25205
LJ           5.48221         4.05346         4.29244
LJ          -1.43867       0.0113164         3.55105
LJ           -3.3561         5.33661         -5.8779
LJ          0.731089        -4.87816        -4.92345
LJ          -2.28128        -4.02549        0.170021
LJ           5.63936        -3.20343         3.95262
LJ          -0.40464       -0.977387         2.23377
LJ           4.38603         -6.2183       -0.753017
LJ           5.38916         3.89355        -5.49376
LJ           4.65552        -5.06235         2.40519
LJ            3.2558         3.33777        -5.54282
LJ           4.57588         1.54968        -6.23786
LJ           2.95399        -3.02648         3.68169
LJ           5.75066         4.55471         2.51749
LJ           2.15838         -3.5862          3.2816
LJ           5.12329         4.64556          6.1529
LJ           -1.7466        -2.57194       0.0206643
LJ          -5.45497       -0.039614         3.62079
LJ           5.70549        -1.02702        0.538932
LJ          -2.34648       -0.977916         -1.4866
LJ           3.33458         2.83947         1.24219
LJ          0.111907         1.71873         3.31016
LJ          -1.02519        0.128733         1.48194
LJ          -5.30121         4.85471        -5.91582
LJ           2.23073       -0.289083          0.8734
LJ           4.17157       -0.519082        0.600831
LJ          -6.31062         1.36342        -3.95649
LJ           5.93094        -4.12386         1.57951
LJ          -5.82777         3.56608        -3.87669
LJ           2.60902         4.55419         4.54168
LJ           2.60589         3.17949        -3.93761
LJ          0.704988         1.69974         0.92965
LJ          -3.17823       0.0641405        -5.39893
LJ          -5.01184         2.93406        -3.40877
LJ           4.02442        -3.14594         3.65183
LJ          -3.76612        -1.70495        -6.24697
LJ           3.81103        -1.92911         3.85609
LJ          -1.53735         3.72114         5.12845
LJ          -3.43098       -0.652894        -1.89265
LJ           3.09404        -4.51867        -2.34385
LJ        -0.0020522        -5.04573        -1.88431
LJ         -0.152062        -4.29655         2.33753
LJ          -1.68545        -5.45233        -1.92414
LJ          -5.30556         3.88251        -5.18001
LJ          -4.08047         2.84704       -0.629999
LJ            1.5872         3.11909         -5.8476
LJ          -2.27032        -6.03858         3.55217
LJ        -0.0996241         6.38472         -4.7909
LJ         -0.950062        -1.38062        -3.40942
LJ         -0.115358        -5.34874         2.90666
LJ          -5.53091        -1.48568         4.22018
LJ           5.57234         2.76166         5.92086
LJ           2.19626       -0.992666         4.94799
LJ           5.28748         5.56049        -4.18996
LJ          -3.00902         5.06579        -2.72779
LJ           5.88093        0.297622         2.73921
LJ          -2.77242        -4.89598        -4.84904
LJ         -0.735725         4.72158         3.46816
LJ          -1.42179         3.59015        -1.00415
LJ          -1.11044        -1.14017         3.14276
LJ          -1.51152         5.09921        -1.95103
LJ           3.12749        0.949217         2.64146
LJ           4.31223        -5.67184         4.41542
LJ         -0.163047         4.68212         4.55464
LJ           3.65205         2.16658         -4.5677
LJ           1.79839        -4.02612        -4.52888
LJ           2.11512          3.4594       -0.338278
LJ           2.64077         5.05275        -2.35113
LJ          -4.53148        0.784629        -5.96584
LJ         -0.297363        -5.99978         5.33188
LJ         -0.362088       -0.504056          -5.589
LJ           4.17968        -2.99141       -0.210595
LJ            5.2227         2.13887         4.95021
LJ         -0.829175       -0.434212        -0.99556
LJ          -4.59036        -5.51133         6.10357
LJ           2.85989         3.90781        -1.00844
LJ           2.53734          5.9083        -3.44614
LJ          -2.97617         3.68705        -2.87918
LJ           4.88388         5.12047        -2.08451
LJ             4.028       -0.619768          4.3721
LJ          -2.90248        -5.26758         4.36255
LJ          0.697854        -1.03999         2.80796
LJ          -3.84324        -2.16003          5.4212
LJ          -5.25329        -1.58174       -0.765473
LJ          -3.71901         1.42148         3.16401
LJ           3.21155          -1.033         1.16627
LJ          -6.17726         6.16648        0.472613
LJ          -1.66845        0.214101        -1.84974
