108
#Comment!
LJ          0.187883        -5.92354         4.75593
LJ         -0.911317         6.36675        -4.79109
LJ          -3.88533        0.211691        -1.86152
LJ           -4.3127         6.41338        -3.29089
LJ            4.2833         3.57169        -4.02375
LJ          -3.27545       -0.625902         6.10334
LJ          -6.43323         4.32034         1.88395
LJ          -5.32513          1.4929         2.40201
LJ         -0.915227          -3.794          6.2554
LJ           1.42928         -1.2022          3.7804
LJ         -0.795023        -1.81626        -3.17018
LJ            4.5743        -4.97013         3.73856
LJ          -4.98509         4.60665         4.35789
LJ          -5.12167         2.49031         5.94965
LJ          -4.94539         1.38805        -1.77737
LJ           2.13819        0.439643            -2.3
LJ           3.88023        -1.97935         4.97044
LJ           2.64912        -4.04919        -5.29339
LJ          -6.25056        -1.98862        0.588906
LJ          -4.82955          1.2878        -5.93549
LJ          -1.34356        -3.82719        -4.67097
LJ         -0.569241         5.23924        -5.25172
LJ          0.836609        -5.27041         2.48754
LJ          -1.45284        -2.32186        -2.28572
LJ          0.880469         4.61644        0.872451
LJ           1.12822        -3.28468         3.09787
LJ         -0.245369        -2.60161         4.44945
LJ           -1.8544         3.80719        -2.39082
LJ          0.436556        -2.51119        -3.03765
LJ          -6.40048        -6.11452         1.31489
LJ          -2.86801        0.326697        -1.37629
LJ           4.91881        -0.93522        0.558277
LJ          0.153043         -2.8525           3.417
LJ          -2.40028        -4.52958         6.44266
LJ           4.29845         -1.8555        -5.89652
LJ            5.1391         3.59649         5.83832
LJ          0.412767        -3.26099         -3.9475
LJ           2.76548         2.20671         4.53595
LJ           6.07597           1.021         2.44359
LJ          -6.08019        -3.51006        -3.25775
LJ           5.53407        -2.09136         5.37038
LJ          -5.39379        -5.74218          3.2308
LJ           2.15701         3.84658         1.45999
LJ           4.62629       -0.989013         4.73864
LJ          0.914867        -5.49716           -3.64
LJ           1.37384         2.55194         4.45326
LJ           0.10375        -5.38814         6.24382
LJ           5.28107         1.30546         1.38357
LJ            6.2962         5.72266        -1.71407
LJ           -2.1591         5.11231        0.949912
LJ          -5.26047        -1.28612         5.40511
LJ           3.01047          5.8801        -5.50795
LJ           -2.6352         1.11125        0.295476
LJ          -4.29728         -1.4657        -3.98466
LJ           1.21904        -4.37379        -6.11692
LJ           3.64683        -3.43576         1.08481
LJ         -0.499691        -6.01291        -6.12839
LJ           4.88415       -0.616343        -1.85923
LJ           3.63836         3.64841        -2.03558
LJ           5.51544        -6.14069         2.67435
LJ          0.084975         2.43347        -1.11657
LJ           2.50376       -0.615746        -5.15695
LJ         -0.083817        -6.06054        -4.72121
LJ          -5.35938        0.957154       -0.921104
LJ            2.4492        -3.64013         2.74219
LJ          0.352306        -5.26381       -0.705753
LJ          -5.62599        -1.81968        -2.87076
LJ          -2.74595         -2.0303         6.31128
LJ          -4.97077        -1.33018        0.775013
LJ           5.40218        -4.70797         3.14836
LJ           2.14293        -4.57059         4.93195
LJ           -5.8669        -3.62581         4.03969
LJ           5.85919         1.40172          -5.497
LJ          -4.19941         3.59499        0.291079
LJ           4.75554        -2.93974        0.478441
LJ          -5.01468        -2.59518         2.30212
LJ          -2.61307         2.14102         4.90792
LJ          -2.32948       -0.435513         3.99359
LJ          -3.08646         1.48189        -3.38705
LJ           2.50899         1.74613        -3.13358
LJ          -1.74041        0.621638       -0.946036
LJ          0.408701         3.57509          4.7553
LJ            2.0075        -1.49759        0.562714
LJ           4.48648         5.53437       -0.896114
LJ           5.62611        0.341581        -1.59871
LJ         -0.860883          -5.214        -4.86088
LJ           5.73262        -2.66816        -2.49753
LJ           6.09636         2.84277        -5.77953
LJ          0.128667         1.95701         4.23308
LJ            -5.222       -0.810736        -4.65984
LJ          -2.25854        0.358286         4.93282
LJ          -3.39774         3.61206        -3.32033
LJ         -0.197998        -5.32791        -4.02905
LJ           4.19397         6.27036         1.69884
LJ          -2.20943         3.84938         2.85261
LJ           5.84821         3.88603         4.93328
LJ           2.65039        -0.68755        -3.94885
LJ           4.00942        -6.14238         6.31289
LJ            3.5252         4.08826          5.5494
LJ          -1.21097         1.44958         2.61688
LJ          -4.01492       -0.600229         -5.4247
LJ           -2.9909       -0.403491         1.56053
LJ           1.56151         4.92916         5.99422
LJ            2.7859       -0.912586       -0.383921
LJ         -0.189517        -2.88912       -0.771203
LJ           1.96367         6.44998        -5.78462
LJ           5.99372       0.0771572         1.74038
LJ           3.55796        0.555359         1.07412
