108
#Comment!
LJ           6.26591         2.19078        -2.60168
LJ           1.48788         3.11397        -1.73083
LJ            1.5862         5.99224        -2.95938
LJ          -4.48469         4.84181         3.13959
LJ           4.12977        0.366284         4.99318
LJ           5.78046          1.8309         6.46164
LJ         -0.072127        -4.62768         6.41429
LJ          -1.66024         5.71911        -1.76473
LJ           2.84638         4.42149         6.29468
LJ           6.01995        -3.02944         1.91771
LJ          -5.07497         3.29033          3.5123
LJ           3.91183        -1.24826       -0.620545
LJ           3.11367        -3.48483        0.249281
LJ           5.47047        -1.92243        -3.89262
LJ         0.0756346          2.3884        -4.87972
LJ          -2.81022         3.75663        -2.59507
LJ          -4.07858         2.23896       -0.380387
LJ           5.11005        -4.48255       -0.624988
LJ           4.06388        -5.98002         -5.9826
LJ         -0.212744        -2.97714         4.88673
LJ           5.68904         3.02648         2.13082
LJ           0.29829        0.677398         3.19784
LJ           2.45444        -2.82348         2.90456
LJ           1.55034        -2.87508        -4.78141
LJ           2.65648        -4.57609         4.42919
LJ           -5.4773        0.842384        -2.70944
LJ           -1.6619        -3.53959         5.01165
LJ           2.72498        -4.91863        0.576695
LJ           3.92791        -2.10811         -6.0705
LJ          -6.35599         1.65911         5.59461
LJ           6.10799        0.169747         1.44028
LJ           4.39776        -3.17872         6.17322
LJ          0.818875         4.42148         5.16042
LJ         0.0605573         3.28842         1.64644
LJ          -6.27612      -0.0285929         2.57292
LJ            5.7334          4.6363         1.91326
LJ          -5.43876         3.81648         4.35354
LJ           1.38374         5.46326        -4.79566
LJ          0.621503         5.95133        -2.33747
LJ         -0.965868          6.0086        -3.28832
LJ         -0.404786         5.84155        -5.27753
LJ           1.21914        -5.74853        -2.48601
LJ          -1.53378        -5.64936         4.53352
LJ           1.90787         1.93398        -4.39721
LJ          -2.17824        -2.12759         4.52287
LJ          -3.92574       -0.351658        -2.20873
LJ         -0.262863         2.47063        0.536493
LJ            1.4639         5.61762        -1.76241
LJ           5.53912         1.20208        -3.92719
LJ        -0.0201368         6.20251        -3.05519
LJ         -0.797614         5.58991        -2.31959
LJ          -2.64865         5.33308        -4.73558
LJ           4.02925         2.48778         2.96621
LJ          -3.89713        -4.14937         2.26535
LJ           -1.3432         6.38102         6.11308
LJ           -6.4532        -2.65558         5.36585
LJ          -1.52397        -1.82807         5.60219
LJ          0.705554       -0.779682         1.05475
LJ          -3.93938         -6.3936        -4.43633
LJ           1.65741        -1.77819        -4.44701
LJ           2.39117         1.41365        0.964486
LJ           1.26142        -5.97177        -4.01541
LJ          -1.61308       -0.322406        -6.06494
LJ          -3.47042        -6.35556         6.38952
LJ           4.73097       -0.428136       -0.132737
LJ          -1.00306       -0.571411          5.9784
LJ          -2.67256        -2.96133        -1.83096
LJ          -3.10536        -3.11937         2.69656
LJ           3.31239        -1.82207        -1.45382
LJ           1.65578         2.67226       -0.710941
LJ           5.20674         1.06963         6.24408
LJ          -4.82068         5.67349        -2.43282
LJ           -6.3204       0.0890275          3.6964
LJ           6.36817        -2.83325        -1.56437
LJ           2.18988         6.44334        -3.78423
LJ          -1.48427        -4.66575         5.01262
LJ          -1.90282        -5.89498        -5.88722
LJ           2.62775          -5.735         4.86353
LJ           2.76228         5.49238       -0.482913
LJ           1.87867        0.780914         2.08338
LJ          -2.67785         2.12633         1.62519
LJ           1.55055        -5.69807        0.373038
LJ          -6.05877        0.740699       -0.621026
LJ          -5.70167       -0.117111         4.85266
LJ           3.58737        -6.15089        -4.89341
LJ          -3.22316        0.819585         5.56785
LJ           1.20352        -1.52851        -3.56446
LJ          -2.03113         4.85942        -3.73419
LJ          -6.27985         2.77286         4.58728
LJ           6.43071        -5.03018        -1.99167
LJ         -0.475024        -3.95573         5.30812
LJ          -3.34939         4.59102         2.18229
LJ           3.83671         4.82994          6.1784
LJ          -4.40139        -4.99374         1.45417
LJ         -0.424484         4.15951      -0.0677451
LJ           3.76548        -5.38482       -0.231894
LJ            2.4489         5.39474        -6.46055
LJ           1.51064         -1.5075        0.546446
LJ           -1.6578         1.63532         2.64468
LJ          0.902344         3.96976         6.05246
LJ           -4.8789          4.6207           5.229
LJ           4.70979         3.12144         4.25175
LJ           3.69937         6.01373        0.121842
LJ          -4.67021        -1.83329         4.22248
LJ           -3.4802         5.46096        -5.72116
LJ          0.881924        0.595942        -4.15186
LJ           1.15719         2.82638        0.595756
LJ          -6.28879       0.0411807        -2.62137
