108
#Comment!
LJ          -1.50912         6.15334         -4.9771
LJ          -0.68851         5.45703        -5.32941
LJ          -1.91224      -0.0768357        -2.32156
LJ           -2.7048         3.16876        -5.15759
LJ           3.07038         4.65592        -2.17361
LJ          -2.38955       -0.455757         5.33011
LJ           5.76273         5.32357        0.223793
LJ          -1.58203         3.87238         6.12925
LJ           0.19732        -4.84427        -5.16679
LJ         -0.171659        -1.21528         5.35705
LJ          -1.20404        -4.29221        -4.33844
LJ           3.25076         -6.3497         3.21053
LJ          -5.61931         5.14572         3.61878
LJ          -5.89792         3.64929         5.57082
LJ            -3.951         1.81595         5.78652
LJ           4.76443        -0.24122         -2.9132
LJ           3.69267        -1.73451         4.52864
LJ           2.14475        -5.95098        -5.15323
LJ           5.73328        -1.61474        -1.90369
LJ          -4.95136       0.0782547        -2.02514
LJ           -1.7257        -2.83362        -2.95558
LJ          0.882585        -5.45591        -4.35863
LJ            1.2328         6.09559         2.40794
LJ          -2.82505         -1.8802        -2.81529
LJ          -0.78526         2.30268        -2.33873
LJ         -0.165132        -2.06671        -5.87374
LJ         -0.381277        -2.27712         5.14063
LJ          -2.00518         4.66001        -4.38524
LJ          -1.14885        -1.36982        -3.11503
LJ           5.54682       -0.349857       -0.440555
LJ          -2.20593       -0.968982        -3.48809
LJ           3.48183        0.500926        0.153131
LJ          0.192073        -2.26174         6.09314
LJ          -4.90559        -3.27815         5.32315
LJ           4.51926        -3.45276         -2.8834
LJ           6.43263         2.78638         5.78551
LJ         -0.936263        -3.74153        -3.16446
LJ           3.20272         3.06574         4.89755
LJ           4.29102        -1.67382       0.0287787
LJ           4.94512        -1.66868        -1.11543
LJ           5.70499        -1.78141         4.54791
LJ           5.75317        -5.47655         3.76483
LJ           2.82268         3.38385        -2.18981
LJ           4.76534        -1.56846         4.04199
LJ          0.556052         5.97241        -4.69165
LJ            1.9317         3.96139         4.38163
LJ         0.0354445        -6.32192        -6.06996
LJ           2.05132         3.97316         3.19242
LJ          -5.57677        -6.30199         3.62582
LJ          -1.18967         6.44376         1.85562
LJ          -5.35754        -2.27149          5.5086
LJ        -0.0176402         -5.3742        -1.32729
LJ          -5.15918          2.0681        0.843774
LJ          -4.74155        0.442437          -3.308
LJ         -0.769007        -5.30813        -5.67652
LJ           5.08117        -1.18133         1.04502
LJ           1.37884        -5.92126         6.27971
LJ           4.22437       -0.913447         -1.2011
LJ          0.615812         2.41532        -1.14362
LJ           6.42489         -6.2985          3.1954
LJ         -0.160079         1.26378        -1.34022
LJ          -1.36239         -3.7991        0.891646
LJ         -0.189887          -5.827         -4.8752
LJ          -5.58249           3.146         1.17114
LJ           6.39431        -1.19744       -0.908392
LJ          0.857292         3.58523        -3.82015
LJ          -3.18038        -1.52263         -4.7451
LJ          -3.07869       0.0645257         4.53148
LJ           5.24129        -2.35434         0.50351
LJ           2.30541        -5.69591         2.39725
LJ           4.44966        -5.92115          4.0566
LJ          -5.63153        -3.93223         4.63564
LJ          -3.59867          1.4883         -5.2969
LJ          -4.36722          2.9939        0.906778
LJ           5.24035        -3.31468         2.36085
LJ           -2.1292        -4.30395        -1.40215
LJ          -1.93177         2.58774         6.30116
LJ          -2.83557         1.98738         5.69837
LJ          -2.89967       -0.908406        -2.73266
LJ           4.08967         4.89469        -2.33149
LJ          -1.74076        -2.18861        -3.82414
LJ          -2.32575         1.66783         4.00611
LJ           5.61331        -3.30819        0.331777
LJ              3.54         3.74233        -1.47884
LJ           3.72175        -1.81308        -1.54852
LJ           2.23279        -5.43421         4.74976
LJ          -4.88419          1.9307        -2.42595
LJ          -5.80956         3.19861        -6.28568
LJ           -2.0439         2.02904         5.05423
LJ          -4.26375        0.600974        -4.72989
LJ          0.831475          -1.244         5.61214
LJ          -3.81067         3.09953         -5.1352
LJ          0.732921        -5.47899        -5.78117
LJ          -5.67783         6.08962         2.73517
LJ          0.490882         5.41592         3.09154
LJ           6.02885         4.31195         6.03315
LJ           4.80742        -1.55964        -3.69959
LJ           3.31212        -5.96957         4.63003
LJ         -0.750265         5.60558        -4.18466
LJ          -1.06426          2.2966         3.10384
LJ          -4.85928          1.1633        -5.46639
LJ          -2.84332       -0.794946         3.92911
LJ          0.848854         4.79434         3.93987
LJ           3.90481        -1.38765        -2.92274
LJ          0.469167         -1.4389        0.312399
LJ           1.88395         5.96212        -5.60461
LJ          -6.31066        -1.70347        0.111557
LJ           3.51355        -0.83068        -1.95837
