108
#Comment!
LJ          -3.09547        -5.88441        -6.28072
LJ          -3.03967        -4.29111         -5.9612
LJ           4.40263        -1.62404        -0.40453
LJ            -2.649        -1.88351        -4.15464
LJ          -1.01157        -4.61768        -3.71598
LJ          -2.49549        -3.70391        -4.05999
LJ          -3.07249         2.11039         5.29248
LJ          -5.68899        -2.29495         6.26747
LJ           -3.9867        -3.64578         -6.2884
LJ          -0.10885        -1.27919        -3.79989
LJ          -4.42505         -6.3033        -6.03668
LJ           2.04976         4.51585        -1.84743
LJ           5.30942         5.78552         1.16928
LJ          -1.49069         -3.3487        -3.98441
LJ          -1.33609         -5.6663         5.63875
LJ          -5.42314         -6.3476        -3.99385
LJ          -3.43664        -3.88363        -5.05986
LJ          -1.03897         5.46661        0.107001
LJ          -4.51522        -3.54664        -5.08252
LJ          -1.66265         -5.6686        -5.36159
LJ          -2.74018        -4.93813        -5.14462
LJ          -3.98635        -3.63197         3.50401
LJ           -3.9571         6.24169        -4.49372
LJ           5.71825         5.52427        0.103376
LJ          -1.43291         5.89931         1.22481
LJ         -0.133721         1.93332        -1.03475
LJ          -1.53506        -2.43831         5.05672
LJ         -0.892294        -3.87174        -6.25703
LJ          -1.97584         4.84366          2.9709
LJ          0.419373        -1.58556        0.845685
LJ          -1.62962        -4.61239        -4.77381
LJ         -0.557255         6.13832         1.70443
LJ          -3.62841        -1.33863        -5.74466
LJ          -4.88793         -3.0287        -5.99138
LJ          -0.59621        -1.01402        0.492781
LJ          0.472808        0.222584        -5.34165
LJ          -5.70757        -3.59509        -6.08881
LJ          -4.69129          5.5449        -3.92707
LJ          -3.92142        -2.70658         6.03694
LJ          -2.05876        -3.37128         6.29537
LJ           1.79442         3.40395        -1.44638
LJ          -4.52939        -5.78289        -4.59376
LJ          -5.85773         5.99593        -2.46084
LJ          -3.70145       -0.470451         3.28901
LJ          -4.28641         6.45855        -3.53073
LJ           5.85615          2.1002        -1.75576
LJ          -2.97492         -3.6468         5.56988
LJ          -1.27448        -1.87242         3.85335
LJ          -5.67469        -2.99008        -2.35026
LJ          -4.19452        -2.44459         2.20791
LJ           3.14936        -5.35753         5.62702
LJ          -6.09396        -6.10736        -3.07184
LJ          0.262788         3.49158         -2.4345
LJ          -3.74744        -2.78098        -4.10283
LJ          -4.01492        -4.72544         6.33761
LJ          -6.07966        -4.83882         6.24508
LJ          -4.47962        0.981513       -0.647555
LJ          -4.55125        -3.37351        -3.59323
LJ           4.93736        -4.21276        -2.08276
LJ          -3.65254        -6.02272        -5.28327
LJ          -2.45675         6.10527          3.2614
LJ           1.66402         4.95127       -0.974797
LJ          -3.19014        -5.91265         -3.8385
LJ           3.34798         5.28832        0.696405
LJ            3.8024        -1.91162         -1.3782
LJ          0.599561        -5.74888         1.60732
LJ           4.28525          5.3435         1.21172
LJ           5.78543        -5.28126        -2.06737
LJ         -0.573903        -3.79347        -4.32926
LJ          -4.76063         2.84589        -5.88556
LJ           1.14237         5.17587        -5.62631
LJ          -5.99374        -3.52626         5.09386
LJ          -1.64882        -5.43032        -3.05051
LJ         -0.528355         2.20265        -2.10159
LJ           3.77576         3.44232         -1.9179
LJ          -2.45363        -3.65014        -5.30777
LJ          -2.77636        -2.49229         6.12377
LJ          -1.09474         2.68683         4.46614
LJ          -3.56479        -5.16803        -3.21324
LJ          -5.54227         6.17847        -5.13404
LJ         -0.548084         2.52616        -4.28127
LJ          -6.19776        -1.94919         -2.5613
LJ           4.32011        -5.21403        -1.12145
LJ          -1.76734        -4.26585        -5.92858
LJ         -0.624902         4.11474        -4.66699
LJ           6.02179        0.605579         3.85473
LJ           2.90969         4.24138         1.29857
LJ          -1.06178        -2.86165         6.06029
LJ          -2.66307        -2.56876        -5.34225
LJ          -2.95724         -3.3562        -2.75257
LJ          -1.66214         5.58373         2.20724
LJ           1.17748        -1.42552         -1.3339
LJ          -5.77508       -0.535663         4.65459
LJ          -4.24978        -3.61642         5.63471
LJ         -0.977632        -4.95152        -5.85831
LJ           0.73062        -6.07366         2.70588
LJ          -1.38309        -3.31326        -5.33266
LJ          -3.58703        -2.84495        -5.75009
LJ          -1.36328        -4.65852         6.12553
LJ         -0.188968         5.88186         3.58863
LJ          -3.89818        -4.91703        -4.44648
LJ          -1.74568        -2.52652        -6.04669
LJ          -2.70651        -6.26642         -4.8512
LJ          -4.38997        -2.08859         -6.1893
LJ          -1.19605         4.48203        -0.27494
LJ          -3.61907         4.25747         2.73614
LJ           -4.2424        -3.15075         1.34454
LJ          0.866749         1.79986        -1.56816
