108
#Comment!
LJ          -1.93376        -4.24887        -4.55555
LJ          -1.01483        -4.18332         -5.2673
LJ          -4.04647         2.87526        -4.76925
LJ          -3.75899        -3.88405        -3.59394
LJ          -1.51244        -6.18161        -3.69921
LJ          -1.07398        -2.41335        -4.05382
LJ          0.429035        -3.72573         3.91702
LJ           5.60196         -2.8813         5.44963
LJ           6.33158        -2.03529        -5.43786
LJ           4.81183        -1.52784         2.77576
LJ          -4.49984         4.30474        -4.12499
LJ          -1.91006         1.99494        -3.14493
LJ          -6.46307         5.78441         3.19226
LJ          0.186464         -3.4239         -3.7061
LJ          -1.94899        -6.10307        -4.66994
LJ          -1.45377        -5.28393        -2.60784
LJ          0.580708         1.61103         5.46575
LJ           2.21465         5.83431         4.73045
LJ          -1.90498        -5.22495         -3.9075
LJ          -3.48869        -3.51476        -5.95014
LJ         -0.759868        -4.22035        -4.14593
LJ          -6.30518        -2.83464         4.48013
LJ         -0.441306        -5.08324        -4.76552
LJ           1.52514         4.35194        -0.79755
LJ          -1.75933         5.77635        0.584948
LJ          0.381531       0.0606345        -2.73135
LJ          -3.83185        -5.03868        -4.07591
LJ          -2.41866        -4.42798         5.83229
LJ           1.89168         5.33857         5.84934
LJ          -6.44793         5.23575        -6.04503
LJ         -0.167684         -3.1109         3.02007
LJ          -0.52281        -2.10062        -3.04003
LJ          -3.45096         3.51908         3.70575
LJ          -1.97386        -2.07001        -4.99106
LJ           4.85024         1.63647         6.18497
LJ          -3.62923        -3.53739         2.61632
LJ          -3.65246         6.14566        -5.65082
LJ           4.36418        -5.42424       -0.879974
LJ           -2.9951         -3.7547        -4.61905
LJ          -2.44152        -3.39312        -6.07523
LJ         -0.670392      -0.0339278        -3.10501
LJ          -4.17272         -5.4557         -5.9789
LJ          -2.41031        -4.97558         4.59196
LJ          -5.53801        -5.34455         5.72696
LJ          -2.63029        -4.44714        -3.73311
LJ           5.91786         2.61311          -5.415
LJ          -3.09106        -2.74185        -5.21134
LJ          -1.61594         -4.0049         6.39709
LJ           1.73712       -0.317756         4.37421
LJ           1.57926        -1.08569         3.59761
LJ           2.01803        0.562063      -0.0106235
LJ          -4.42946        -4.04298        -5.22044
LJ          -0.60818        0.677835        -2.21434
LJ          -2.24557         3.20744         1.01616
LJ           -3.1408        -5.57998          6.2907
LJ           4.70697         5.12924        0.736301
LJ           3.80755        -1.38203        -1.48567
LJ          -3.08695         -5.3915        -3.50018
LJ         -0.154054         4.99177        -1.09076
LJ          -2.07633        -4.19288         2.86881
LJ           0.06267         2.69453         4.18796
LJ          -3.48637       -0.144035        -4.21329
LJ          -2.21263        -5.78336        -5.72339
LJ         -0.264941          2.1348         -3.6463
LJ           1.31637         1.35816        -6.19112
LJ         -0.201098        -2.83018        -6.04052
LJ           2.30832         5.62529        -2.13144
LJ           5.18147        -2.91472         2.56203
LJ          -2.03996        -4.46552        -5.61402
LJ          -2.64549         -5.1584        -4.72774
LJ          -2.63523        0.538168        -3.82998
LJ           5.41227       -0.486086         5.84545
LJ         -0.472234        -1.47504        -4.57065
LJ          -1.43681       -0.542326        -1.15321
LJ          -1.89141         -0.4432        -3.03785
LJ           1.06321        -2.05812          5.8381
LJ          -2.97157        -2.58566         6.27306
LJ           4.31494         -1.8167         5.91879
LJ           2.43461        0.895966        -2.66672
LJ          -2.98069         -5.0343        -5.72823
LJ           4.04122       -0.618925        -4.58621
LJ          0.501109         4.07525        -1.11621
LJ          -1.57785         -4.3596        -3.23462
LJ          -5.65577         5.96234         6.38338
LJ           2.23435        -5.64688         5.14014
LJ          0.660421         5.67022         5.92181
LJ         -0.318719        -0.58867        -2.11455
LJ          -3.02458        -3.64367         5.67171
LJ          0.280896        -5.13624        -5.58002
LJ          0.019026        -4.04238        -5.33913
LJ           3.14008          6.3112         3.64764
LJ           3.70853        -1.68231        -4.13007
LJ            4.6675        -1.04134         1.02429
LJ          -2.20773         -3.2109        -4.94722
LJ          -3.37618        -6.03975         5.18043
LJ         -0.820002        -1.79846        -1.26723
LJ          -1.14143        -5.23534         5.45982
LJ         -0.176176        -2.93309        -4.75092
LJ          -2.36571        -6.06582         5.66366
LJ         -0.930152        -3.09417        -3.30677
LJ         -0.736145        -4.17338        -2.33801
LJ           5.40563        -1.14156         3.65393
LJ          -2.17029        -3.33505        -3.84925
LJ           -1.4039        -3.04052        -5.81172
LJ          0.449049        -4.34477        -4.43437
LJ          -5.46363         5.67058        -5.46742
LJ          -4.08265        -5.23013        -2.70839
LJ         -0.866789       -0.478202       -0.198484
