108
#Comment!
LJ          -2.97824        -6.33586        -4.69164
LJ          -1.96746        -4.52853         6.15377
LJ           1.54403        -2.13695        -2.66736
LJ          -2.42256        -2.39548         -3.8905
LJ          -2.25821        -3.35894        -3.38044
LJ          -3.73266        -4.11833        -3.29724
LJ          -2.36882         2.28548        -5.63015
LJ          -6.40441        -2.47199         5.12622
LJ          -5.36617        -4.35778        -6.42253
LJ          -1.45091        -2.07133        -5.82687
LJ          -4.62768        -5.63995        -5.88477
LJ           2.39444         4.98824       -0.271946
LJ           3.61716         5.00427        0.371781
LJ           -3.1117        -2.57696        -3.03871
LJ          -1.56417        -2.59646         6.23207
LJ          -6.10336          5.6823        -4.02834
LJ          -4.48368         -2.3277        -4.79857
LJ          -2.33563         4.55555       -0.945023
LJ          -3.13776       -0.802244        -4.80106
LJ          -2.88967         6.20319         -5.9602
LJ           -2.0305        -4.47422        -5.30447
LJ          -2.72252         5.95408         5.93502
LJ          -3.99064         6.42462        -6.25131
LJ           5.13495         5.53744       -0.825652
LJ           -1.8307          4.3503        -1.94615
LJ          0.156121         1.71047       -0.188506
LJ         -0.320356        -2.85121        -6.18592
LJ           -1.2157        -4.76307        -5.79722
LJ          -2.01161         4.54973         3.31943
LJ          -1.70414        -2.68213        -1.01352
LJ          -2.58373        -4.19859        -3.84696
LJ          -3.11248         6.42022         1.72016
LJ          -3.89782         -1.4484        -5.21544
LJ          -2.95999        -4.03457        -5.55286
LJ          -2.20748        -4.38666          -1.534
LJ           2.56171        -2.73837         5.80969
LJ           2.78315        -2.46997        -4.74642
LJ          -3.59278        -5.75975        -5.39931
LJ          -2.63951        -3.27037        -6.21381
LJ          -2.11421        -4.66414         5.20031
LJ           2.60741         5.18167        -1.32787
LJ           -4.5953        -5.78093        -4.77494
LJ           3.79989        -6.18363        -1.98847
LJ          -3.95215        0.759757         3.28414
LJ          -2.15259         -5.5229        -4.91699
LJ            5.4793         1.80587       -0.577417
LJ          -3.00089        -4.07324         6.16717
LJ         -0.801466         -2.2545         2.90796
LJ          -3.98771        -0.76057        -4.08494
LJ          -6.24425        -1.36666        -1.03412
LJ           3.22262        -2.99038         3.18916
LJ           5.81775         5.77196        -3.56719
LJ           2.12672         4.16579        -1.63036
LJ          -3.74935        -1.77902        -3.48146
LJ          -3.79358        -4.81962         6.40242
LJ           5.86905        -3.46846         5.81471
LJ          -3.01281        -1.78225         1.13488
LJ          -3.39603        -1.74631        -6.08551
LJ           4.38407        -6.43029         1.12374
LJ           -3.9861        -4.71256        -5.48759
LJ          -3.54089         6.08106         5.20833
LJ           1.40416         5.48844        -1.95402
LJ          -2.69569        -5.10088        -5.98153
LJ           5.14821         5.51499        0.531875
LJ           5.62196        -2.84816        -4.32439
LJ           1.00053         5.46368         5.56902
LJ           5.42489         4.87122         1.38006
LJ           3.53674        -6.06902        -5.38233
LJ           -1.2891        -3.07908         -3.6566
LJ          -5.94298        0.898904         -6.0716
LJ           1.46907        -5.94928         5.78234
LJ           6.30422        -1.62652         5.95282
LJ          -2.84438         -5.1051        -3.06376
LJ           1.50003         3.46964        -2.32531
LJ           3.45654         4.95793       -0.737302
LJ          -2.52966        -3.32939        -4.48566
LJ          -2.58217        -1.70404        -5.25128
LJ         -0.576109         5.02964         1.92526
LJ          -2.98012        -4.88765        -4.92719
LJ             6.175         4.58705        -3.42773
LJ         -0.893649         0.91191        -5.49982
LJ          -1.83664        -1.30002        -2.45731
LJ           4.65947        -5.72009        -1.13897
LJ          -1.24446        -3.74999        -5.27996
LJ         -0.857047        -2.44045        -4.33289
LJ          -2.10887         4.08115         4.68176
LJ           5.78034         6.18407         1.43337
LJ          -0.99207        -4.40382         5.88381
LJ           -3.4143        -2.20229        -4.47192
LJ          -2.98115        -1.70115        -2.50158
LJ           0.96427         6.19851       -0.286522
LJ            1.3972        -1.04773        -1.45561
LJ          -5.17358        0.266827        -4.22919
LJ           -5.1347        -4.15806         5.04481
LJ          -1.33639        -4.85209         -4.6463
LJ           1.67318          5.7751         6.37359
LJ          -2.05597          -2.709        -5.11684
LJ          -3.25065        -2.87566        -5.34921
LJ          -1.23894        -5.98751        -6.25055
LJ         -0.878237        -6.32244         3.93347
LJ          -3.82763          -3.838        -4.92571
LJ          -1.39582        -3.57526        -6.30848
LJ          -3.18365        -5.96012         6.28471
LJ          -5.89571        -3.21859         6.18664
LJ          0.383401        0.479923       -0.250786
LJ          -2.56398        -6.24088         5.22748
LJ           -3.9036        -4.69461         4.72415
LJ          0.683878         2.34098         -1.1414
