108
#Comment!
LJ           -2.8891          6.0954        -5.58867
LJ          -3.02443        -4.08475         -5.7502
LJ           3.11784        -1.81325        -1.27452
LJ          -1.70734        -2.17074        -3.96169
LJ          -1.16337        -4.11992        -3.44522
LJ          -3.33623        -3.84081        -3.63779
LJ          -3.53396         1.92295         6.27562
LJ          -5.84087         -2.7235         6.04695
LJ          -4.71637        -4.54971        -5.50953
LJ          -1.54099        -1.00828        -4.44383
LJ          -4.18893        -5.41918        -6.30089
LJ           2.66709         4.92894        -1.16074
LJ           4.71291         5.28519        0.205175
LJ          -2.34824        -3.33662        -3.67628
LJ         -0.455846        -4.33422         5.99406
LJ          -5.85544        -6.44613        -4.00108
LJ          -3.85772        -3.78412        -4.59766
LJ          -1.51169         5.64266        -0.61169
LJ          -3.32699        -2.47477        -5.37605
LJ          -2.11522        -5.72855        -5.40898
LJ          -2.76223         -4.9998        -5.00639
LJ          -3.00732        -5.62173         4.18443
LJ          -4.28145         6.27051        -5.74254
LJ           5.15586         5.43009        -0.91856
LJ          -1.84455         4.59903       -0.346632
LJ          0.097594         1.75775       -0.767303
LJ         -0.540966        -1.98459         5.50378
LJ         -0.810035        -3.56382        -5.61743
LJ          -2.27729         4.90345         3.54738
LJ          -1.55558        -2.47382       -0.446916
LJ          -1.99062        -4.42805        -4.15955
LJ           -1.8479        -6.43949         2.41054
LJ          -4.23569        -1.31096        -4.93176
LJ          -4.43411        -3.20625        -6.08843
LJ          -0.55878        -1.92261       -0.157791
LJ           1.48212        -1.12213        -6.16935
LJ           4.99066        -3.07178        -5.33621
LJ          -4.17154          5.9943        -4.75161
LJ          -3.71702         -3.3384         6.16598
LJ          -2.40298         -3.9774         6.21239
LJ           2.09298         3.87716        -1.23799
LJ          -4.29731        -5.71745        -5.07519
LJ           6.04076         6.06187        -2.18591
LJ          -3.80854       0.0903105         3.27846
LJ          -4.10527        -6.15792        -3.96043
LJ            5.6894         1.95289        -1.21327
LJ          -3.21757        -4.04145         5.25938
LJ          -1.05477        -2.02481         3.25183
LJ          -4.08391         -2.1993        -3.70266
LJ          -5.20794        -1.88478        0.711745
LJ           3.18678        -4.25921         4.49794
LJ            6.0301         6.31426        -3.39725
LJ          0.851239         3.98225        -2.52139
LJ          -3.17632         -2.8435        -4.40364
LJ          -3.60365        -4.37986         6.27879
LJ           6.11149        -4.51194          6.0152
LJ          -3.78122       -0.244831        0.202831
LJ           -4.4402          -2.767        -4.99584
LJ           4.60808        -5.90996        -1.38302
LJ          -3.75891        -4.93544        -5.56974
LJ          -2.44939         5.95254         3.67847
LJ           1.72172         5.37659        -1.22206
LJ          -3.26733        -5.89921        -4.68726
LJ           4.50552         5.82616           1.333
LJ            4.7428        -2.36518        -2.81023
LJ          0.991149        -6.42366         3.28055
LJ           5.03491          4.8503         1.78593
LJ           4.69004         -5.5762        -3.65681
LJ         -0.302442         -3.3998        -4.29014
LJ          -4.82733         1.65138        -6.10082
LJ           1.27589         6.12847        -6.10617
LJ           6.11129        -2.21516         5.23626
LJ            -2.342        -5.69005         -3.2616
LJ          0.376796         2.44994        -2.40838
LJ           3.62825         4.56598         -1.2447
LJ           -2.7746        -3.83224        -4.60776
LJ          -2.75811        -2.61557         6.30526
LJ         -0.641079         4.08235         3.49271
LJ          -3.18084        -5.12063         -3.7784
LJ          -6.25916         5.30056        -4.07008
LJ          -0.93502         1.70642        -5.39363
LJ           -4.0136        -1.47851        -1.77368
LJ           4.36218        -4.81509        -0.63531
LJ          -1.87155        -3.90152        -5.39117
LJ         -0.384936         1.32251        -4.09529
LJ          -4.72995         2.22023         4.21533
LJ           3.66623         5.12833         1.94725
LJ          -1.46141         -3.6655         5.70662
LJ          -2.25935        -1.65711        -4.96039
LJ          -3.09532        -2.68897        -3.37621
LJ          -1.04506         5.63516         1.27598
LJ           1.20269          -1.255        -1.47167
LJ          -5.25392        0.485336        -6.30886
LJ           -4.4939        -4.70756         5.80395
LJ          -1.09248        -4.44886        -4.97063
LJ            1.4187         6.30045         4.33445
LJ          -1.80636        -2.92701        -4.95468
LJ           -2.6533        -3.14949        -5.45326
LJ           -1.4364        -4.48421        -6.40282
LJ         -0.479522         5.60405         3.66232
LJ           -4.4908        -4.73088         -4.4812
LJ          -1.61469         -2.9955        -6.18425
LJ          -2.96718        -5.72443        -6.03441
LJ          -4.55864        -1.98774        -6.42363
LJ         -0.812767         2.43475         0.32273
LJ          -3.68889         6.12869         3.14828
LJ          -3.92364        -4.28663           2.783
LJ          0.891493         2.00576        -1.62345
