108
#Comment!
LJ         -0.516913         6.28894          6.0181
LJ          -1.94636         5.26134        -5.14279
LJ          -3.59957       -0.952147        -2.00281
LJ           -3.1996         4.90211        -4.45686
LJ             3.761         3.99268         -2.6394
LJ          -3.61749        0.123713         6.27573
LJ           5.99544         4.19877        0.939608
LJ          -3.45292         0.96848          5.3687
LJ         -0.602343        -5.07582        -4.91314
LJ            1.0203        -1.39342          5.7302
LJ         -0.893057        -2.55729          -3.797
LJ           3.80637        -6.29498         3.74875
LJ          -4.78666         5.43064         3.77853
LJ           6.35117         4.56908         5.87461
LJ          -5.28683         2.41505        -5.03995
LJ           3.48229       -0.608556        -1.31486
LJ           3.70372        -1.94456         4.29087
LJ           2.70876        -5.24733        -3.78963
LJ            5.5985        -1.90726        0.443897
LJ          -2.43259        0.139664        -4.25628
LJ         -0.198511        -3.26022         -3.1476
LJ          0.915615         6.25819         -5.7131
LJ           1.22406        -6.39668         1.49286
LJ          -2.20615       -0.943663        -2.60133
LJ           2.00096         3.74711        -1.08195
LJ          0.987999        -2.27276         4.00453
LJ          0.320856        -1.81716         4.96183
LJ          -2.36341         4.02808        -3.84978
LJ          -0.56334        -2.71744        -2.10434
LJ            -6.426        -2.46591       -0.580409
LJ          -2.25215        -0.43241        -1.68126
LJ           5.02577       -0.484243         1.11261
LJ          0.373623        -2.95095         4.74023
LJ          -4.19094        -3.73442         5.58856
LJ           4.27573        -2.51484        -3.75949
LJ           5.46734         4.01819         5.70374
LJ          -1.49116        -2.69683        -2.93094
LJ           3.43691         2.33083         4.93025
LJ           5.21183        0.702164        0.800939
LJ           5.50953        -2.99062           -2.35
LJ           6.10606       -0.835614         5.29104
LJ           5.27841        -5.44618          3.9406
LJ           2.81643         3.83384       -0.159608
LJ           4.93448        -1.41325         4.37102
LJ           0.46112         5.92404        -4.00857
LJ           2.09642         3.40172         4.60613
LJ          0.145535        -6.07448         -5.9939
LJ           3.26795         3.46403         1.89624
LJ           6.18195         5.49246        0.370982
LJ          -1.67156        -6.25528         1.51019
LJ          -5.33763        -2.95654         5.48752
LJ           1.76906          5.5401        -4.13638
LJ          -4.59985         2.02654        0.933007
LJ          -4.09251        -1.60044        -3.15725
LJ           0.31201        -4.91623        -5.53801
LJ           6.04678       -0.583903         1.39725
LJ           0.36687         5.99634         6.33361
LJ           3.98518       -0.159046        -3.09183
LJ           2.77862         3.31461        -1.88886
LJ           5.29009         -6.2932         2.61176
LJ          0.487546        0.913521         -1.3892
LJ           2.41973        -2.09267        -2.50957
LJ        -0.0820157         6.45066        -5.03063
LJ          -5.48369         2.73903         0.58171
LJ           2.30148        -1.79681         1.47329
LJ          0.123841          6.4087        -3.06274
LJ          -4.18936        -2.46006        -3.83478
LJ          -3.21449        -0.95218         4.22221
LJ          -4.73977        -1.82668         1.14125
LJ           3.74746         6.20852         2.71023
LJ           3.67861        -5.44374         4.93823
LJ          -5.76823        -3.64352         4.74359
LJ          -4.52251        0.844132        -6.16369
LJ          -3.78751          2.8933        0.961669
LJ           5.28909        -2.87838       0.0130963
LJ          -3.58024        -3.29991        0.737776
LJ          -2.41283         3.79361         5.45327
LJ          -2.93146         1.09734         4.13409
LJ          -3.41318        0.963462        -3.93978
LJ           2.80004         3.76282        -3.10572
LJ          -1.99233        -0.59427        -3.68437
LJ          -1.65041         2.21488         4.22649
LJ           3.23246          -3.576         1.65256
LJ           3.41624         3.93434        -1.39963
LJ           4.71562       -0.676151         -1.2683
LJ          0.332321        -3.94445        -4.56113
LJ           5.59026        0.216592        -2.55703
LJ          -6.37243         3.18517        -6.43395
LJ          -1.06088         1.49741         3.58554
LJ          -5.94459        0.862155        -4.56997
LJ          0.434265       -0.544526         5.63091
LJ          -3.01498         2.99903        -4.28657
LJ           0.17837        -5.61515        -4.25209
LJ           6.15928         5.93504         1.34854
LJ         -0.209908         5.52411         3.28199
LJ           6.39909         3.74759         5.07774
LJ           3.26692       -0.785701        -2.49766
LJ           2.54233        -5.30715         5.26747
LJ            1.4373         4.82639        -5.85535
LJ         -0.633924         1.86048         2.71891
LJ          -3.46721        0.593513        -5.69472
LJ          -1.90272       -0.217418         3.41918
LJ          0.472656         4.66667         3.71137
LJ           2.92394        -1.43396        -1.50814
LJ         -0.196708        -2.28788       -0.827402
LJ           1.30523         5.48495         6.22882
LJ           5.70354        -1.65397         1.97484
LJ           2.49629        -0.45134       -0.839011
