108
#Comment!
LJ          -2.03293        -5.41534        -4.79513
LJ          0.349254         5.43207        -4.78513
LJ          -1.60638       -0.873023        -4.10136
LJ          -3.59118         1.22368        -4.71112
LJ           2.58588         4.65607        -2.42615
LJ          -1.04167        -1.27843          4.6797
LJ           4.45101         4.66501         -2.1017
LJ          -3.19305         2.59034         5.52558
LJ          -1.05027        -4.16236        -4.33978
LJ          -1.35376       -0.715662         5.67476
LJ         -0.616216        -3.62246        -3.40415
LJ            3.5226          5.0177         2.90638
LJ           6.02517         5.93528         3.30145
LJ          -4.50405         3.39406        -6.20596
LJ          -3.32836         4.38602         2.63079
LJ           4.58301          -2.254        -2.82364
LJ           2.86732        -1.79244         5.33822
LJ           1.85919         5.93823        -5.85214
LJ            6.1872        -2.08994        -2.11246
LJ          -5.33935         1.39637         -4.1108
LJ            -2.489        -3.78027        -4.89355
LJ           1.43812         5.49066        -4.80742
LJ           2.91953        -5.53074         3.25037
LJ          -2.81852        -5.29414        -3.48439
LJ          -3.43882         1.59666        -3.01326
LJ         -0.964027        -1.79362         -5.2226
LJ          -1.31915        -2.93909        -5.99614
LJ          -1.67615         6.31587        -5.11372
LJ          -2.76428        -2.47172         -3.7804
LJ          -6.06003       -0.347438         -2.2642
LJ          -1.30246        -1.90327        -3.63959
LJ           3.06856       -0.111776        -1.24994
LJ          -0.23579        -1.18091           5.983
LJ           6.04175        -3.83436         4.04963
LJ           3.78259        -2.89342        -3.58368
LJ          -4.80956         2.29268        -5.99237
LJ          -1.51762        -2.86489        -3.98088
LJ            2.8802         3.95031         4.77377
LJ           5.73014        -2.90384        -1.24886
LJ           5.05049        -1.76967        -1.56381
LJ           5.53775        -2.88055         3.73313
LJ          -5.50322        -5.30763         4.25538
LJ           3.42278         5.28389        -1.90655
LJ           6.16096        -1.95201         3.09534
LJ         -0.133934        -5.63324        -5.54427
LJ           1.65729         4.42068         4.59039
LJ         -0.585898         6.25765        -5.11798
LJ          0.750434         3.14269         3.93979
LJ          -4.68842        -4.99659         5.10586
LJ          -0.17736         6.04106         2.50926
LJ          -5.61363        -2.30671         4.82931
LJ          -2.70105        -3.24816       -0.132318
LJ          -5.78654         2.67419        0.724936
LJ          -4.38679         1.64688         -4.2842
LJ         -0.941362        -5.64675        -6.29334
LJ           6.05973        -1.72155       -0.973604
LJ           1.62527        -6.31955        -4.56904
LJ           4.15588        0.337451        -1.97737
LJ          0.742078         1.11923        -3.24888
LJ          -5.28143         -5.9787         5.45007
LJ         -0.495781          1.6089        -1.34351
LJ          -4.72176        -5.08605         3.61091
LJ           0.57634        -6.27551        -5.18825
LJ          -5.84736         3.30127         1.61131
LJ           5.86269       -0.794546        -1.93489
LJ           1.62297         2.14297        -4.98142
LJ          -2.94989        -1.66098         5.09184
LJ          -1.60674        -1.92631         5.60154
LJ           3.90035        -4.01539       -0.341092
LJ          0.756576        -4.26038         2.15879
LJ           4.66434         6.27816         3.33511
LJ          -5.26169        -3.95339         4.98386
LJ          -2.75327         3.17203        -4.65317
LJ          -4.77131         2.95452        0.965939
LJ           4.80161        -4.10831         3.40101
LJ        -0.0977682        -4.71667        -3.72216
LJ          -3.87396         1.58876         6.01858
LJ          -3.36426         2.27907        -4.72802
LJ          -1.02143       -0.377806        -3.23191
LJ           3.75598         4.07441        -1.41168
LJ          -1.93195        -1.13526        -3.07404
LJ          -3.63008        0.993896        -5.74964
LJ           5.83519        0.456837        -1.14641
LJ           3.15982         3.69712        -2.29511
LJ            3.1486         -1.3129       -0.176299
LJ            1.8795        -5.30183         1.54694
LJ          -4.67973         3.65777        -1.34783
LJ          -4.46398         2.77123         5.96466
LJ          -3.24288         1.87391        -6.06475
LJ          -2.50369         1.48728        -3.85938
LJ          -1.15984        -1.82194        -6.35679
LJ          -3.89434         2.68532        -5.71207
LJ          -1.09514        -2.71402        -4.95108
LJ          -4.25626        -5.74606         5.81902
LJ          -0.07542         4.38856         4.40565
LJ          -5.48542         2.80036          6.4221
LJ          -6.36176        -1.21293        -2.66906
LJ           3.62766         6.44899         3.12412
LJ           0.81045         6.17418        -4.18332
LJ          -1.17934         2.89176         4.19362
LJ          -3.68659          2.4559        -3.66597
LJ         -0.212162      -0.0607743        -6.30321
LJ          0.849847         4.95386         4.09291
LJ            5.6561        -1.54726         -3.1939
LJ          0.945117       -0.881953         1.33724
LJ           2.39355         5.94683        -4.87136
LJ          -6.42469        -2.15175       0.0877348
LJ           3.88334       -0.949044        -1.33477
