108
#Comment!
LJ          -1.17291         6.18914          6.2833
LJ          -1.64462          5.1983        -5.11623
LJ          -3.83789       -0.948694        -1.97242
LJ          -3.21215         4.78338        -4.46548
LJ           4.12958         3.90766        -2.53603
LJ          -3.53905       -0.142322         5.90529
LJ           5.95834         4.43584        0.754876
LJ          -3.10756         1.32645         6.09749
LJ         -0.337776        -5.14502        -5.07224
LJ          0.892791        -1.42108         5.83214
LJ         -0.755257        -2.90214        -4.19962
LJ           3.60231        -6.27139         3.74266
LJ          -4.84604         5.40569         3.79708
LJ           6.38382         4.53233         5.97921
LJ           -5.3342         2.16567        -5.19722
LJ           3.93514       -0.513063        -1.46441
LJ           3.66501        -1.91245         4.34468
LJ           2.57582        -5.30354        -3.83874
LJ           5.39389        -1.59003        0.369872
LJ          -2.92337        0.275637        -4.09415
LJ         -0.477975        -3.12524        -3.03264
LJ            1.1207         6.27764        -5.31256
LJ           1.20638        -6.42341         1.54369
LJ          -2.23381        -1.32376        -2.81028
LJ           1.57646         3.42845       -0.744264
LJ          0.349622        -2.50876         3.91332
LJ          0.421289        -1.85202          4.9495
LJ          -2.36895         4.15926        -4.05243
LJ         -0.690998        -2.45758        -1.94149
LJ           6.23452        -2.11404       -0.117609
LJ          -2.16854       -0.473772        -1.80772
LJ           4.73472       -0.683999        0.662725
LJ          0.562558        -3.01529         5.10084
LJ          -4.12551        -3.79056         5.56774
LJ           4.26878        -2.46345        -3.55133
LJ           5.47046         3.99241         5.73026
LJ           -1.4193        -2.57007        -2.75836
LJ           3.33272         2.47353         4.91638
LJ           5.22649        0.733855         0.70259
LJ           5.38063          -2.892        -2.37374
LJ            6.1288       -0.890565         5.26131
LJ           5.29554        -5.47842         4.00594
LJ           2.71774         3.63407       -0.942852
LJ           4.81467        -1.46926         4.22733
LJ          0.595302         6.14448        -4.05971
LJ           2.16646         3.38588         4.64988
LJ         0.0264928        -5.92593        -6.06593
LJ           3.15231         3.79763         2.06583
LJ          -6.33304         5.58225        0.649425
LJ          -1.63045        -6.27659         1.54264
LJ          -5.46295        -2.81831         5.47361
LJ           1.37843         5.83457        -3.46471
LJ          -4.64952         2.04747        0.914755
LJ          -3.78672        -1.56404        -3.16662
LJ          0.285808        -4.89477        -6.07677
LJ            5.9959       -0.640921         1.48486
LJ          0.425852         6.10144         6.28556
LJ           3.94855        0.038261        -3.02517
LJ           2.19967         3.16587         -1.8518
LJ           5.34518        -6.21676         2.52033
LJ          0.309533         1.02609         -1.3822
LJ           1.81845        -2.41765         -1.8913
LJ          0.145708        -6.31577        -5.12045
LJ          -5.48691         2.77855        0.665546
LJ           2.65288        -1.66075         1.01299
LJ          0.220509         5.78214        -2.72254
LJ          -4.19402        -2.34869        -3.78104
LJ          -3.31552       -0.713776         4.31206
LJ          -4.84895        -2.04639         1.31776
LJ           3.51063         6.12733         2.77433
LJ            3.9085        -5.32285         5.06491
LJ          -5.74734        -3.64698         4.74676
LJ          -4.48582        0.931282        -5.92833
LJ          -3.88524         2.88501        0.959905
LJ           5.44829        -2.80447        0.294663
LJ          -3.35312        -3.48063        0.409005
LJ          -2.32898         3.70553         5.40352
LJ          -2.79464         1.10009         4.15177
LJ          -3.37905         1.09849        -3.43469
LJ           2.89417          4.1466         -2.7432
LJ          -1.75004        -1.01779        -3.81408
LJ          -1.99028         1.97553         4.21064
LJ           3.53788        -3.65982         1.46846
LJ           3.52547         4.02664        -1.64004
LJ           4.84659        -1.06547        -1.34559
LJ          0.473879        -4.45834        -5.00647
LJ           6.06521        0.478411         -2.5214
LJ          -6.26164         3.28173         6.30875
LJ          -1.18129         1.16244         3.76707
LJ           -5.7433         1.09669        -4.67848
LJ           0.48948       -0.156882         5.89126
LJ          -3.14182         2.93729        -4.27255
LJ          0.518899         -5.7487        -4.25719
LJ           6.20241         5.93293         1.74783
LJ         -0.204869         5.56532         3.25136
LJ           6.38601         3.61649         5.23118
LJ           3.32817       -0.775742        -2.45206
LJ           2.74658        -5.59042         4.81803
LJ          0.754254         5.42161        -5.86314
LJ         -0.574228         2.01509         2.57608
LJ          -3.34387         0.64557        -6.07843
LJ          -1.83801        0.114781         3.54441
LJ          0.529902         4.61458         3.77599
LJ           2.98864         -1.7282        -1.67331
LJ         -0.233274        -2.23304       -0.873193
LJ           1.70581         5.62539         6.03704
LJ           5.90535        -1.92334         1.27187
LJ           2.49858       -0.583894         -1.3796
