108
#Comment!
LJ          -3.08563        -6.22462        -6.41002
LJ          -2.90555        -4.34562        -6.02587
LJ            4.1462        -1.65867       -0.564316
LJ          -2.51761        -1.87698        -4.29973
LJ          -1.02057         -4.6059        -3.53189
LJ          -2.59907        -3.69567        -4.22844
LJ          -3.13502         2.07838         5.44713
LJ          -5.79141        -2.19374         6.30388
LJ          -4.12648        -3.85026        -6.15611
LJ         -0.298549        -1.19004        -3.89758
LJ          -4.33597        -6.22403        -6.20572
LJ           2.22076         4.50732        -1.85514
LJ           5.28244         5.70418        0.926567
LJ          -1.49566        -3.41685        -3.87073
LJ          -1.13828        -5.55227         5.58021
LJ          -5.37371        -6.25419        -4.09113
LJ          -3.59576        -3.98848        -5.04066
LJ           -1.0518         5.56715       -0.141304
LJ          -4.56676        -3.32067        -5.30963
LJ          -1.61557         -5.6525         -5.2923
LJ          -2.88702         -4.8149        -4.85994
LJ          -3.82185        -3.97145         3.60389
LJ          -4.09139         6.14995        -4.81911
LJ           5.62593          5.5142      -0.0737549
LJ          -1.58545         5.64538        0.954394
LJ        -0.0321135         1.85687        -0.94281
LJ          -1.35231        -2.21882         5.06348
LJ         -0.624128        -3.82913         -6.0852
LJ          -2.00119         4.83842         3.21031
LJ          0.109299        -1.88758        0.646872
LJ          -1.50928        -4.29133         -4.5911
LJ         -0.698404         6.28281         1.81436
LJ          -3.66168        -1.28726        -5.62479
LJ          -5.12659        -3.07565        -6.28387
LJ         -0.614492        -1.01307        0.374321
LJ          0.646779      0.00156193        -5.48444
LJ           -6.1332         -3.4938        -5.86913
LJ          -4.68802         5.43541        -3.91433
LJ          -3.77809        -2.65026         5.99604
LJ          -2.04914        -3.61105         6.22043
LJ           1.83204          3.6584        -1.38418
LJ          -4.47896        -5.74687        -4.56059
LJ          -6.00702          5.9517        -2.32985
LJ          -3.71696       -0.374406         3.28599
LJ          -4.22862        -6.43596        -3.62948
LJ           5.83029         2.07364        -1.66551
LJ          -2.96244        -3.73465         5.53299
LJ          -1.23296         -1.8807         3.66644
LJ          -5.45138        -2.93607        -2.53137
LJ          -4.38513        -2.28432          1.9556
LJ           3.15623        -5.17389         5.43906
LJ          -6.28765          -6.118         -3.1505
LJ          0.320431         3.54693        -2.47252
LJ          -3.79673        -2.81841         -4.3527
LJ          -3.80717        -4.74074         6.30302
LJ          -6.23753        -4.85949         6.18713
LJ           -4.3624        0.778962        -0.50541
LJ          -4.31731        -3.56649        -3.60967
LJ           4.88076        -4.41425        -2.09781
LJ          -3.65592         -5.7332        -5.37735
LJ          -2.42941         5.96717         3.25739
LJ           1.57998         4.97681         -0.9092
LJ          -3.31734        -6.15028        -3.89875
LJ           3.44283         5.38403        0.827396
LJ           4.00314        -1.98143          -1.601
LJ          0.710786        -5.84313         1.90653
LJ           4.40174         5.20655         1.41139
LJ           5.70367        -5.41861        -2.33902
LJ         -0.540125        -3.87763        -4.28268
LJ           -4.7852         2.65289        -5.90871
LJ            1.1674          5.3338        -5.70654
LJ          -5.94787        -3.36524         5.28646
LJ           -1.7408        -5.28442        -3.26304
LJ         -0.432778         2.33731        -2.25307
LJ           3.81793         3.59426        -1.80439
LJ          -2.45324        -3.49865        -5.24085
LJ          -2.81855        -2.33135         6.26692
LJ          -1.00747         2.90154         4.30797
LJ          -3.65224        -4.62165        -3.33858
LJ          -5.65027         6.03529         -4.8811
LJ         -0.639471         2.27636        -4.51338
LJ          -5.87505        -1.72195        -2.37168
LJ           4.27384        -5.15621       -0.937027
LJ          -1.92708        -4.39598        -5.79964
LJ         -0.566576         3.76169        -4.54994
LJ           6.37598        0.887064         3.90369
LJ            3.0692         4.42292          1.3941
LJ          -1.10409         -2.9906         5.93834
LJ          -2.77204        -2.13469        -5.29817
LJ          -3.08638        -3.47361        -2.77763
LJ          -1.95588          5.5631         2.24882
LJ           1.18513        -1.39676        -1.36294
LJ          -5.68836       -0.371743         4.98575
LJ          -4.35282        -3.62954         5.64689
LJ         -0.786105        -5.02736        -5.80375
LJ          0.887541        -6.12878         2.94498
LJ          -1.28332        -3.52182        -5.20857
LJ          -3.69919        -2.76159        -5.61344
LJ          -1.38459        -4.60117          6.1735
LJ         -0.243046         5.80681         3.64581
LJ          -3.94729        -4.90423        -4.29738
LJ          -1.86675         -2.6761        -5.90564
LJ          -2.76374        -6.29064        -4.85864
LJ          -4.35963        -2.05579        -6.13607
LJ          -1.13815         4.08117       -0.176261
LJ          -3.43876         4.65827         2.64898
LJ          -4.17354         -3.4033         1.57098
LJ          0.883556         1.78541        -1.50771
