108
#Comment!
LJ          -2.98963         6.04054        -5.71155
LJ          -3.02746        -4.19255        -5.64493
LJ           3.21622        -1.79221        -1.18492
LJ          -1.79907        -2.06385        -3.95561
LJ            -1.179        -4.20042        -3.46135
LJ          -3.22486        -3.83369         -3.6563
LJ          -3.47304         1.94043         6.18193
LJ          -5.81675         -2.6784         6.13629
LJ          -4.70693        -4.52584        -5.50667
LJ          -1.35178       -0.954708        -4.38466
LJ          -4.20534        -5.42236        -6.41819
LJ           2.63953         4.83811        -1.27845
LJ           4.81578         5.32762        0.268946
LJ          -2.27129        -3.38942        -3.83367
LJ         -0.476981        -4.51831          5.9167
LJ          -5.82877        -6.38961        -4.00324
LJ          -3.81755        -3.75005        -4.69347
LJ          -1.44272          5.6794       -0.598629
LJ          -3.52794        -2.56652        -5.42595
LJ          -2.01258        -5.70262         -5.3172
LJ           -2.7414        -4.94127         -5.0585
LJ          -3.08864        -5.45394         4.12339
LJ           -4.2364         6.27902        -5.67542
LJ           5.22507         5.43066       -0.909196
LJ          -1.84644         4.65959       -0.209524
LJ          0.080082         1.74543       -0.761802
LJ         -0.605102        -1.96411         5.44332
LJ         -0.822749        -3.57891        -5.68496
LJ          -2.24732         4.88449         3.54423
LJ          -1.43112        -2.49688       -0.346513
LJ          -1.91556         -4.4136        -4.15327
LJ          -1.72208        -6.41709         2.34509
LJ          -4.18813         -1.2342         -4.9704
LJ          -4.60241        -3.13673        -5.92488
LJ         -0.524844        -1.75081      -0.0927191
LJ           1.40078        -1.00885        -6.10146
LJ           5.15299        -3.11482        -5.37537
LJ          -4.26714         5.83508        -4.66834
LJ          -3.77672         -3.1788         6.08753
LJ           -2.3567        -3.85549         6.25726
LJ           2.08712         3.90749        -1.22611
LJ          -4.26276        -5.66424        -5.05521
LJ           6.15434         6.01867        -2.14328
LJ          -3.79849       0.0435263         3.27854
LJ          -4.19091        -6.18762        -3.94008
LJ             5.704         1.96425        -1.25857
LJ          -3.16793        -3.92541         5.32148
LJ          -1.07314        -2.00915         3.27954
LJ          -4.28787        -2.24301        -3.53808
LJ          -5.12918        -1.91893        0.835687
LJ           3.18411        -4.35017         4.59214
LJ           6.03198         6.40795        -3.38644
LJ          0.781573         3.94025        -2.52832
LJ          -3.26414        -2.80226        -4.39711
LJ          -3.49193         -4.4688         6.44805
LJ           6.15842        -4.56238         6.02692
LJ          -3.83843       -0.140177        0.132443
LJ          -4.57357        -2.90442        -4.98466
LJ            4.6645        -5.78963          -1.529
LJ          -3.66874         -4.9312        -5.55064
LJ          -2.43369         5.92586         3.65359
LJ           1.68783         5.33662        -1.16523
LJ          -3.15953        -5.83741        -4.51632
LJ           4.43157         5.75408         1.34219
LJ           4.67605        -2.33196        -2.70718
LJ          0.972921        -6.35672          3.1326
LJ            4.9176         4.95142         1.75125
LJ           4.78614        -5.55024        -3.52668
LJ         -0.353795        -3.52368        -4.39522
LJ          -4.83824         1.76552        -6.06484
LJ           1.26602         6.04817        -6.06566
LJ           6.18319        -2.33339         5.21152
LJ          -2.29931        -5.67687        -3.38146
LJ          0.302558          2.4467        -2.39323
LJ           3.63643         4.46814        -1.29781
LJ          -2.78748        -3.89103        -4.75115
LJ          -2.74109        -2.69005         6.23371
LJ         -0.668064         3.94436         3.57639
LJ          -3.19882        -5.18648        -3.76128
LJ          -6.18913         5.31196        -4.14928
LJ         -0.928165         1.74692        -5.35522
LJ          -4.20487        -1.47417        -1.80681
LJ           4.33192        -4.82106       -0.614694
LJ          -1.94345        -4.00005        -5.44074
LJ         -0.384074         1.58148         -4.1035
LJ          -4.91394         2.08953         4.18142
LJ           3.55858         5.01943         1.93764
LJ          -1.37731         -3.5712         5.67114
LJ          -2.31152        -1.61295        -5.01175
LJ          -3.10709         -2.7634        -3.32741
LJ          -1.20022         5.59548         1.38652
LJ            1.2011        -1.26845        -1.46356
LJ          -5.30447         0.38653         6.45021
LJ           -4.4523        -4.70938         5.86472
LJ          -1.08721        -4.48599        -5.06386
LJ           1.38057         6.35513         4.20204
LJ          -1.69663        -2.94657        -4.87211
LJ          -2.59043        -3.24048        -5.62663
LJ          -1.38928        -4.45058        -6.42002
LJ          -0.45435         5.62173         3.67452
LJ          -4.47148         -4.7507        -4.52105
LJ           -1.6965        -3.05658        -6.06543
LJ          -2.97535        -5.64567        -5.80773
LJ          -4.44634        -2.03698        -6.35552
LJ         -0.852449         2.60032        0.282692
LJ          -3.65872         6.01475         3.05135
LJ          -3.94886        -4.20208         2.65676
LJ          0.903952         1.98138        -1.63313
