108
#Comment!
LJ          -1.81774        -5.15206        -4.79476
LJ          0.259633         5.17218        -4.75955
LJ          -1.56344        -1.02506        -4.26631
LJ           -3.4214         1.23863        -4.37233
LJ           2.46898          4.6792        -2.59143
LJ          -1.04672        -1.56285         4.96402
LJ           4.21821         4.33666        -2.41161
LJ          -3.04281         2.35375         5.71391
LJ          -1.09885        -4.12048        -4.27376
LJ          -1.49968       -0.692685         6.07577
LJ         -0.449763        -3.60428        -3.48329
LJ           3.63123         5.07847          2.8683
LJ           6.16451         6.02141         3.30028
LJ          -4.37551         3.63459        -5.91833
LJ          -3.24724         4.63772         2.31372
LJ           4.81769        -2.39939         -2.6547
LJ            2.7935        -1.80259         5.41308
LJ           1.56973         6.02998        -5.90191
LJ           6.25805        -2.25549        -2.18257
LJ          -5.62452         1.53584        -4.36597
LJ          -2.66616        -3.50594         -4.9824
LJ           1.29939         5.41495        -4.83153
LJ           3.01105        -5.58757         3.51421
LJ          -2.84457        -5.70338        -3.60248
LJ          -3.64882         1.41669        -3.39197
LJ          -1.04813         -1.0696        -5.30359
LJ          -1.55965        -3.00893        -6.04614
LJ          -1.55118         6.37307        -4.94027
LJ          -2.77782        -2.62169        -3.63357
LJ          -5.96786       -0.223401        -2.12332
LJ          -1.66247        -1.98349        -3.73883
LJ           3.04335       -0.315603        -1.31836
LJ         -0.320011        -1.36379         5.61442
LJ           5.81704        -4.10753         3.84314
LJ           3.50798         -2.7005        -3.89684
LJ           -4.6993         2.01314        -5.59005
LJ           -1.5746        -3.24483        -3.94266
LJ           2.74641         4.10096         4.73003
LJ           6.09276        -2.77821        -1.08008
LJ           5.15157        -1.51918        -1.74371
LJ           5.46919        -3.00548         3.72622
LJ          -5.91089        -5.35247         4.74844
LJ           3.46424         5.31352        -1.62591
LJ           6.33747        -1.96809          2.9706
LJ         -0.160596        -5.57335        -5.65396
LJ           1.68972         4.26028         4.55331
LJ         -0.349726         6.15245        -4.73218
LJ          0.723948          2.9479         4.11234
LJ          -4.49876        -4.98735         5.12255
LJ        -0.0441017         5.98406         2.60728
LJ          -5.66147          -2.185         4.72556
LJ          -2.99035        -3.02279      -0.0601029
LJ          -5.95805         2.65179        0.620969
LJ          -4.41045         1.96929        -4.09861
LJ         -0.956576        -5.48752         6.39068
LJ           6.20593        -1.55585        -1.26786
LJ           1.83284        -6.11178        -4.54838
LJ           4.33044       0.0108419        -1.95337
LJ            0.7022        0.992486        -3.42745
LJ          -5.02019        -5.88065         5.43032
LJ         -0.491585         1.64571        -1.42642
LJ           -4.6678         -5.0825         3.70272
LJ          0.813244          6.4173        -5.26268
LJ           -5.7213         3.33156         1.64715
LJ           5.86483       -0.690425        -1.76133
LJ           1.68989         1.99501        -5.06732
LJ          -2.94095        -1.57421         4.67112
LJ          -1.59611        -1.81326         5.88678
LJ           3.84125        -4.05602       -0.590506
LJ          0.799301        -4.33215         2.17975
LJ           4.48693         6.24929         3.30521
LJ          -5.30361        -4.03201         4.90219
LJ          -2.88929         3.49187        -4.67002
LJ           -4.8503         3.03233         1.05882
LJ           4.84396        -4.16176         3.54249
LJ        -0.0252829        -4.51818        -3.85111
LJ          -3.61406         1.37825         5.73069
LJ          -3.17472         2.24737        -4.83775
LJ         -0.804952       -0.453095        -3.26345
LJ           3.68238         4.37365        -1.28064
LJ          -1.82129       -0.864673        -3.26626
LJ          -4.09575        0.597957        -5.50613
LJ           5.66191        0.602793         -1.6813
LJ           3.32321         3.70938        -2.48566
LJ           3.04896        -1.23111       -0.131148
LJ           1.91924        -5.16278         1.24761
LJ          -4.85691         3.89401        -1.20146
LJ          -4.53718         2.32478         6.13717
LJ          -3.39073         1.60317        -6.03665
LJ          -2.30299          1.2994        -4.04084
LJ          -1.18217        -1.97613        -6.08722
LJ           -3.7012         2.90048        -5.56216
LJ          -1.04592        -2.74347        -4.90862
LJ          -4.20967        -5.65948         6.34985
LJ         0.0132697         4.30187         4.58812
LJ          -5.56029         2.96681         6.45033
LJ          -6.02717        -1.43671         -2.5485
LJ           3.34723        -6.45157         2.75773
LJ          0.536935         6.24027         -4.1967
LJ           -1.1374         3.04172         4.34757
LJ          -3.41273         2.65843        -3.78152
LJ          0.249707       0.0370934        -6.01956
LJ          0.576622         5.22284         3.99647
LJ           5.48436        -1.61499        -2.65552
LJ          0.998956       -0.826186         1.43697
LJ           2.50529          5.8624        -4.90072
LJ           6.17261        -2.12689       -0.345642
LJ           3.97371       -0.995797        -1.51725
