108
#Comment!
LJ          -1.95699        -5.89569        -4.78564
LJ         0.0932032         5.61996        -4.74052
LJ          -1.91914       0.0402685         -3.3249
LJ          -2.20731         1.72494        -5.30791
LJ           2.37277         4.55204        -1.98568
LJ          -1.32885        -1.01118         3.81479
LJ           5.46128         5.37991       -0.743613
LJ          -1.82511         3.37587         5.39675
LJ         -0.679049         -5.3477        -4.59382
LJ         -0.556341        -1.09704          5.4758
LJ          -1.04722        -4.52594        -3.95201
LJ           3.37452         6.10808         3.41228
LJ          -6.40609         5.12108         3.30523
LJ          -5.58247         3.66706         6.17655
LJ          -3.73541         3.03586         4.32692
LJ           4.88649       -0.735251        -2.91667
LJ           3.25348        -1.74758         4.94272
LJ           2.89086        -6.33324         -5.8563
LJ           5.24329         -1.6055        -2.29384
LJ          -5.26222        0.554705        -2.97516
LJ          -2.26349        -3.57514        -4.07725
LJ             1.181         6.40532        -4.65994
LJ           2.57081        -6.21714         2.14701
LJ          -2.82049        -3.45532         -3.2131
LJ          -2.48221         2.31479        -2.24596
LJ         -0.318438        -2.04039        -5.58227
LJ         -0.643314        -2.42981         6.35269
LJ          -1.73609         6.09419        -5.39111
LJ          -1.36191        -1.95573        -4.00281
LJ           5.49865       -0.250114        -1.08374
LJ          -1.28874        -0.88165        -3.32119
LJ           3.74869       0.0948566        -0.54882
LJ          0.116294        -1.51095        -6.39967
LJ          -5.75473        -2.98041         4.91403
LJ           4.91907        -3.12969        -2.25408
LJ          -6.11646         2.59181          6.3597
LJ          -1.39944        -3.58128        -3.46557
LJ           3.25831         3.29882         4.80266
LJ             4.042        -2.50299       -0.603622
LJ             4.754        -2.31184        -1.62759
LJ           5.72112        -2.50528         4.24919
LJ          -6.45126        -5.49412         3.68726
LJ           3.24554         4.16496        -2.81814
LJ           5.36604        -1.62831         3.55687
LJ          0.594507        -5.88482        -5.67846
LJ           1.88857         4.29473         4.91539
LJ         -0.578103        -6.20988        -5.41349
LJ          0.972623         3.67151         3.25703
LJ          -5.00439        -5.41635         4.87225
LJ         -0.763448         6.27475         2.11933
LJ          -5.39277        -2.12519          5.4026
LJ          -1.20075        -4.40871       -0.538132
LJ          -5.41065         2.43249         0.83398
LJ          -4.54909         1.13847        -3.67042
LJ          -1.44917         -5.5195        -5.70183
LJ           5.45143        -2.21011       -0.307247
LJ           1.65073        -6.22269        -5.69025
LJ           3.55993        0.638597        -1.43877
LJ          0.861406          1.7994        -2.30623
LJ          -5.84366        -6.14468         4.37101
LJ         -0.451641         1.38559        -1.06481
LJ          -2.93435         -4.3874         2.13315
LJ        -0.0819097        -6.19855        -4.40921
LJ          -5.99223         3.23272         1.47759
LJ           5.04785        -1.29504        -1.17154
LJ           1.22993         2.88079        -4.43601
LJ          -2.90252         -1.7511        -6.03081
LJ          -1.88675       -0.739613         5.02698
LJ           4.52096        -3.29457         0.33916
LJ           1.20139        -4.64307         2.03562
LJ           4.38277        -6.40664         3.49951
LJ          -5.51171        -4.11068         4.64634
LJ          -3.30824         2.11315        -4.61869
LJ          -4.32248         2.86603        0.801708
LJ           4.97795        -3.69181         2.77025
LJ          -1.07546        -4.58033        -2.45841
LJ          -2.55199          2.2473        -6.43184
LJ          -3.74405         1.84816        -5.93265
LJ          -2.19858       -0.641482        -2.55927
LJ           4.37207         4.35142        -1.63745
LJ          -1.97426        -1.82424        -2.93226
LJ          -2.68801         1.04534         5.58578
LJ          -6.28795        -1.67561      -0.0681292
LJ           2.98482         3.75755        -1.75495
LJ           4.08834        -1.54089        -1.16094
LJ           1.97839        -5.59249         3.46049
LJ          -4.22663         2.47594        -2.05749
LJ          -4.97548         2.68879         5.97775
LJ          -2.71742         3.28512          6.0107
LJ          -3.84453         1.23691        -4.38506
LJ        -0.0583406        -2.04763         5.44773
LJ          -3.58009          2.8974        -5.39314
LJ         -0.477716        -4.49035        -5.90327
LJ          -4.93138         6.42127         3.85487
LJ         0.0189991         4.48061         3.58502
LJ            6.3082         3.91142         5.91782
LJ           5.71841         -1.4684        -3.92781
LJ           3.57536         -6.3718         4.33548
LJ         -0.363999          5.3382        -3.54555
LJ          -1.12134         2.46022         3.49847
LJ          -4.64561         2.08372        -4.20591
LJ          -3.03423       -0.352479         4.92617
LJ           1.22011         5.17028         4.12146
LJ           4.62913        -1.66614        -4.07548
LJ          0.687552          -1.176        0.806816
LJ           2.21156         6.07525        -5.03547
LJ          -5.63586         -1.9111        0.911482
LJ            4.4126       -0.215554        -1.46701
