108
#Comment!
LJ          -1.26984         6.18283         6.40891
LJ          -1.57601         5.16752        -5.09126
LJ          -3.84792       -0.900841         -1.8967
LJ          -3.20028         4.73001        -4.47637
LJ           4.18753         3.88317        -2.55762
LJ          -3.51631       -0.153559         5.87805
LJ           5.92591         4.44153        0.737307
LJ          -2.97851         1.55421         6.13196
LJ         -0.275564        -5.35618        -5.17504
LJ          0.804031         -1.3613         5.84338
LJ         -0.745106        -2.99215        -4.26805
LJ           3.54204        -6.23047         3.76938
LJ          -4.86561         5.39758         3.80293
LJ           6.43222         4.37177         5.97399
LJ          -5.35601         2.03158        -5.24168
LJ           3.96312       -0.501153        -1.50735
LJ           3.59468        -1.92727         4.36115
LJ           2.52468        -5.32652        -3.85629
LJ            5.3187          -1.536        0.310278
LJ          -3.09081        0.328565        -4.01292
LJ         -0.486045        -3.11723        -3.00736
LJ           1.17184         6.26689        -5.17529
LJ           1.20052        -6.43298         1.56181
LJ          -2.24669        -1.40634         -2.8227
LJ           1.57504         3.32565       -0.719885
LJ          0.181315        -2.57305         3.98792
LJ          0.464734        -1.92472         4.92827
LJ          -2.32869         4.25378        -4.11262
LJ         -0.748559        -2.42063        -2.02466
LJ           6.26083        -1.89339      0.00465872
LJ          -2.16688       -0.560759        -1.93959
LJ           4.70151       -0.782467        0.563342
LJ          0.601592        -2.94737         5.15379
LJ          -4.14933        -3.78481         5.55207
LJ           4.27854        -2.44793        -3.46646
LJ           5.41237         3.98565           5.786
LJ          -1.51404        -2.46076        -2.79194
LJ           3.26798         2.54442         4.90431
LJ            5.2447        0.739091        0.670872
LJ           5.32513        -2.85025        -2.39066
LJ           6.12225       -0.916352         5.24092
LJ           5.27245        -5.50896         4.00514
LJ           2.68612         3.60317        -1.15648
LJ           4.85295        -1.45551         4.19395
LJ          0.567746         6.12593        -4.14422
LJ           2.21887         3.35806         4.66943
LJ        -0.0563621        -5.92617        -6.14717
LJ           3.11751         3.89982         2.11666
LJ          -6.20878         5.72094        0.787573
LJ          -1.61638        -6.28381         1.55368
LJ          -5.47998        -2.81582         5.45272
LJ           1.28996         5.90255        -3.17673
LJ          -4.66805         1.99461         0.91753
LJ          -3.64224        -1.50097        -3.17329
LJ          0.295394        -4.89754        -6.26579
LJ            5.8857       -0.762655         1.44054
LJ          0.424246         6.26724         6.24104
LJ           3.89251       0.0242959        -2.92303
LJ            1.9678         3.12183         -1.7815
LJ            5.3837        -6.22131         2.48516
LJ          0.257418          1.0592         -1.3803
LJ           1.64822        -2.51284        -1.73451
LJ          0.142735        -6.25917        -5.07506
LJ          -5.49352         2.82015        0.686412
LJ           2.76405        -1.62273        0.872342
LJ           0.31576         5.60936        -2.74012
LJ          -4.22828        -2.39591        -3.82974
LJ          -3.33238        -0.61591         4.34953
LJ          -4.88726        -2.11457         1.36712
LJ           3.45548         6.11738         2.81741
LJ           3.94822        -5.32317         5.04752
LJ          -5.72086        -3.62855         4.77289
LJ          -4.43413        0.955969        -5.87979
LJ          -3.90945         2.91528        0.956196
LJ           5.38153        -2.75248        0.485305
LJ          -3.28835        -3.53098        0.311752
LJ          -2.30248          3.6737         5.38644
LJ          -2.69905         1.06652         4.15812
LJ          -3.33027         1.09713        -3.31571
LJ           3.01848         4.25227        -2.59066
LJ          -1.71581        -1.14012        -3.81921
LJ          -2.07124          1.8653         4.18996
LJ           3.63026        -3.67924         1.41161
LJ           3.44609         4.04251         -1.7071
LJ           4.89702        -1.21152        -1.36157
LJ           0.59519        -4.58466        -5.06933
LJ           6.19698        0.550825        -2.50956
LJ          -6.22564         3.34052         6.41972
LJ          -1.27681           1.076         3.80829
LJ          -5.65206         1.21153        -4.73916
LJ          0.537212       -0.141237         5.96008
LJ          -3.20593         2.89392        -4.28689
LJ          0.631697        -5.61424        -4.33347
LJ           6.19504         5.91978         1.81908
LJ         -0.186116         5.55729         3.25389
LJ           6.40436         3.69072         5.10498
LJ           3.32355       -0.796267        -2.38294
LJ           2.86588        -5.68114         4.67282
LJ          0.578397         5.58068        -5.81171
LJ         -0.575631         2.04103         2.56714
LJ          -3.38015         0.48763        -6.07761
LJ          -1.84043        0.277331         3.61532
LJ          0.533932         4.61955         3.78525
LJ           3.10813        -1.76105        -1.79485
LJ         -0.180812        -2.17649       -0.728858
LJ           1.72632          5.6731         6.08159
LJ           6.00584        -1.95744         1.01761
LJ           2.57636       -0.550542        -1.56579
