108
#Comment!
LJ          -1.48083         6.09523         -4.9316
LJ         -0.827995         5.29586        -5.38175
LJ          -1.93313       -0.278452        -2.30601
LJ          -2.73542         3.39275        -5.06268
LJ           3.10835         4.44193        -2.13004
LJ          -2.63677       -0.220003          5.4841
LJ            5.8002         5.30956        0.356228
LJ          -1.62121         3.92862         6.21011
LJ          0.263072        -4.64809        -5.04172
LJ         -0.233671        -1.10345          5.3018
LJ          -1.06785        -4.18894        -4.32139
LJ           3.21479        -6.24031         3.30422
LJ          -5.52859         5.26901         3.69456
LJ          -5.86009          3.6668         5.55819
LJ          -4.02255          1.6411         5.90228
LJ           4.74298       -0.307737        -2.80701
LJ            3.5724        -1.76857          4.5716
LJ           1.77051        -5.93006        -5.14807
LJ           5.88786        -1.73832        -1.92965
LJ          -4.84665        0.141086        -2.07883
LJ          -1.62254         -2.6488        -2.79911
LJ          0.787957        -5.41975        -4.53801
LJ           1.10286         6.04649         2.37746
LJ          -2.53828         -1.9348        -2.95213
LJ         -0.493755         2.24915        -2.30084
LJ         -0.174488        -2.00514        -5.93027
LJ         -0.329365        -2.38081          4.9578
LJ          -2.05349         4.55174        -4.36338
LJ          -1.39861        -1.45111        -3.02614
LJ             5.549       -0.428618       -0.358976
LJ          -2.24629        -1.05999        -3.52557
LJ           3.49221        0.486749        0.114311
LJ          0.298269        -2.37308         5.92678
LJ          -4.76596        -3.29788         5.39552
LJ           4.46365        -3.42575        -2.93671
LJ           6.37682         2.75347         5.77118
LJ         -0.954499        -3.79477         -3.2876
LJ            3.2535          2.9868         4.91356
LJ           4.26518        -1.55205      0.00746882
LJ           5.25312        -1.66164       -0.838773
LJ           5.76575         -1.6941         4.64033
LJ           5.67836        -5.60163         3.77883
LJ           2.76313         3.39559        -2.12098
LJ           4.82462        -1.53083         3.95919
LJ          0.483563         6.11052        -4.55583
LJ           1.78975         4.01366         4.42508
LJ          0.115862        -6.28482        -6.06437
LJ           2.20644         4.02326         3.00999
LJ          -5.59051         -6.4475         3.56076
LJ          -1.23876        -6.46227         1.82465
LJ          -5.38217         -2.3747         5.47364
LJ          0.118974        -5.49552        -1.46974
LJ          -5.08602         2.19384          0.8754
LJ          -4.76879        0.201093        -3.29508
LJ         -0.611377        -5.40031         -5.7299
LJ           5.06301        -1.32342         1.02083
LJ           1.33942        -5.89114         6.22218
LJ           4.32688       -0.671313        -1.19215
LJ          0.588892         2.53565        -1.00118
LJ           6.09658          -6.251         3.02426
LJ         -0.179377         1.25519        -1.42155
LJ          -1.13646        -3.71819        0.710636
LJ        -0.0695403        -6.08199        -4.96048
LJ          -5.62997         3.06355         1.13566
LJ           6.34343       -0.994982       -0.955334
LJ          0.803328         3.69414        -3.72534
LJ          -3.16585        -1.48103        -4.49123
LJ          -3.16646       0.0409237         4.54984
LJ           5.46124        -2.24776        0.820456
LJ           2.52906        -5.87677          2.5236
LJ           4.66067        -5.82224         4.04322
LJ          -5.66973        -3.88712         4.63913
LJ          -3.71835         1.46142        -5.46834
LJ          -4.30673         2.90714         0.88297
LJ           5.28424        -3.24947         2.29568
LJ           -2.2326        -4.25555        -1.26484
LJ          -1.93937         2.59015         6.20695
LJ          -2.88926         1.82572         5.50589
LJ          -3.10046       -0.586233        -2.64045
LJ           4.11848         5.03394        -2.49519
LJ          -1.70699        -2.11053        -3.80301
LJ          -2.27791         1.79282         3.82343
LJ            5.4178        -3.48552        0.336253
LJ           3.60558          3.7844        -1.42187
LJ           3.74169        -1.85441        -1.57122
LJ           2.19786        -5.38729          4.9144
LJ          -4.97124         1.86384        -2.43613
LJ          -6.01406         3.38258         -6.3263
LJ          -1.71574         1.90195         4.96157
LJ          -4.37673        0.548744        -4.65657
LJ          0.931498         -1.1794          5.8008
LJ          -3.82642         3.09548        -5.00418
LJ          0.877297        -5.62173        -5.60287
LJ          -5.73852         6.01722         2.47095
LJ          0.539095         5.42866          3.1318
LJ           6.08795         4.27286         6.05158
LJ           4.53822        -1.44899        -3.48719
LJ           3.17335        -5.95462         4.59801
LJ         -0.642232         5.77226        -4.35941
LJ          -1.09116         2.25786         3.08381
LJ          -4.75054         1.07119        -5.60543
LJ          -2.74437       -0.823691         3.80561
LJ          0.849871         4.77426         3.91764
LJ           3.91443        -1.49387        -2.70624
LJ          0.438446          -1.476        0.240065
LJ           1.89425         5.99453        -5.62919
LJ            6.3061        -1.72717       -0.135694
LJ           3.34837       -0.826075        -2.05544
