108
#Comment!
LJ          -1.71715         5.60414        -4.63316
LJ          -2.89977        -4.38638        -5.45153
LJ          -2.55907        -3.18911        -5.01462
LJ          -2.18365        -1.67023        -3.19326
LJ          -1.17993        -1.39168        -3.45697
LJ          -3.07438         -1.2626         -4.4855
LJ           5.55252         2.31701        -1.10551
LJ          -5.27216        -1.73685         -5.7155
LJ          -3.58829        -2.85294         5.71351
LJ           -4.4814        0.919908        -3.39879
LJ         -0.305215          4.8575         5.78275
LJ           0.75985        -4.80383        0.710228
LJ           4.37748         5.42056         3.07418
LJ          -2.62195         -1.4647        -2.01674
LJ          -1.67182        -3.70864        -4.77651
LJ           4.64669         2.77841        -1.68263
LJ          -1.36501        -1.36502         -1.3421
LJ          -5.21185         2.10891        -5.98151
LJ          -4.48371        -1.28038        -2.89865
LJ          -3.81761         1.08638        -4.35938
LJ           -4.2966        -4.38932        -5.59919
LJ           -1.3618         5.31803        -3.43386
LJ         -0.232025         4.49249         4.25957
LJ            3.6387        -5.63241        0.842536
LJ          -1.65365        0.442165        -6.04422
LJ           5.14551         3.37504       -0.857153
LJ          -1.22684        -2.25452          -4.335
LJ         -0.697023         6.15617        -2.79619
LJ         -0.808095        -5.97225        -3.70559
LJ           6.33475       -0.683928        -3.49734
LJ          -4.72833        -0.78733        -6.16531
LJ          -2.78356        -2.65708        -2.53036
LJ          -1.77737        -1.29745        -4.25038
LJ          -3.13403        -2.22158        -6.08269
LJ          -2.46023         4.63962         5.90237
LJ          -5.85922         2.84881        -1.96402
LJ           -1.6753       -0.814261        -5.14293
LJ          -1.43371         4.25673         3.96184
LJ          -3.45238         -1.5649        -2.70931
LJ          -3.99976       -0.174289        -1.94621
LJ           4.15777        -4.59147         2.48757
LJ           -5.2099        -1.80584         5.92881
LJ          0.630208         2.97489      -0.0506856
LJ          -4.63795          4.9709         3.23054
LJ          0.324755         6.06367        -4.00487
LJ            2.9681         1.70288         2.89027
LJ         -0.433203          6.0297        -5.50113
LJ         -0.467489         3.49013         4.82954
LJ          -3.62883        -1.37213        -5.74994
LJ           2.38746           3.342         2.51756
LJ            5.3661        0.549105        -1.11267
LJ           6.08922         3.39224        -1.68088
LJ             5.841         4.23874         1.53996
LJ          -4.76661       -0.270996        -2.70783
LJ          -2.24315        -4.97974        -4.55307
LJ           -4.7867        -1.15624         -4.2888
LJ           1.36432        -5.74168         4.91184
LJ          -3.62458     -0.00392894        -3.18578
LJ         -0.242348        0.452874        -4.02184
LJ          -4.53248        -2.56388        -6.06819
LJ         -0.663099         5.74147         6.40346
LJ           5.37643        -5.22701        -1.82546
LJ         -0.597237         5.26706        -4.16396
LJ           5.42507         4.81683        0.563672
LJ           5.35075       -0.754224        -5.42864
LJ           1.14048        -5.17733       -0.730845
LJ          0.242389       -0.532149        -2.11721
LJ          -5.14439         2.42698       -0.382919
LJ          -5.04892       -0.113877         5.77167
LJ           3.94852        -4.31846         -2.7582
LJ           4.77866           6.182         4.06061
LJ          -5.35258        -4.83717        -1.47087
LJ          -1.35053       0.0900547        -4.66525
LJ           5.38922         5.55968       -0.826551
LJ           4.41327        -6.30713         1.89596
LJ          -2.89158        -3.96843        -4.41744
LJ           -5.4271        0.262796        -3.42206
LJ          -1.08287        -2.95604         1.43795
LJ          -3.57114         -3.3005        -5.14733
LJ            4.6902         2.84692        -2.96321
LJ         -0.786398         1.73272        -3.86336
LJ           -2.2007       0.0922921        -2.91254
LJ          -3.76084        -6.05572         1.46553
LJ          -1.90286        -6.39517        -5.22302
LJ          -5.45277       -0.250068        -4.42828
LJ           2.83812        -4.67556        -1.02528
LJ           4.15668        -4.79408         1.19541
LJ          -3.37158        -2.11532        -4.92497
LJ           -2.8122       -0.167085        -1.94429
LJ          -2.80105        -0.75612        -3.53206
LJ          -1.90027        -2.89898        -3.86108
LJ          -2.45738        0.383914        -4.11458
LJ          -3.09054        -2.82886        -4.20502
LJ           -6.1039        -1.44647        -6.27241
LJ          -1.78085         4.66892         -4.2021
LJ           1.38749         2.19589        -1.05579
LJ          -3.87864        -2.21453        -3.55386
LJ          -5.82708        -3.94338         3.88066
LJ         -0.374087         5.58848         4.82109
LJ         -0.845131         6.32652        -4.53026
LJ          -1.93483        -2.30138         -5.5164
LJ          -2.83184        -3.58746        -3.11636
LJ            -1.311         4.18367         6.20625
LJ          -1.19083         0.20904         1.28375
LJ           2.01244         1.07453         5.69095
LJ          -1.51441         5.43691        -5.65113
LJ          -5.68495        -1.11372        -2.96214
LJ          -3.08064        -2.29515         2.94341
