108
#Comment!
LJ          -2.03255        -4.55461        -5.13499
LJ          -1.87694        -3.53294        -5.38931
LJ          -4.71906         1.60914        -3.14148
LJ          -2.70557        -3.56252        -3.59042
LJ          -1.59165        -6.04826        -3.78702
LJ          -1.09082        -2.03157        -3.31135
LJ           1.45378        -1.15761         4.26825
LJ          -5.54923        -2.84416         5.93867
LJ          -5.50205        -2.90581        -5.76455
LJ           5.90158        -1.90291          1.0519
LJ          -4.71552         4.43996        -5.01753
LJ          -1.30326         2.80258        -1.34612
LJ           5.50114         6.07087         2.68379
LJ          0.302082        -2.58947         -3.8389
LJ          -2.17899        -5.83521        -5.16047
LJ          -3.51123        -5.72352        -2.25167
LJ           -1.8239        -1.12837        -4.80107
LJ           1.38696         6.22741          3.3916
LJ          -2.66628         -5.5504        -3.92319
LJ          -2.87984        -3.29024         5.61284
LJ          -1.16252         -4.6537        -4.37146
LJ           4.61526        -1.81375        0.881099
LJ          -1.26284        -4.99103        -5.66618
LJ           3.05002         5.87819       -0.686711
LJ          -1.72849        -6.04105        0.215426
LJ          0.278083        0.553183         -1.2903
LJ          -3.67309        -4.00114        -5.18592
LJ            -2.721        -4.27277         5.93094
LJ          0.609063         5.49129         4.07762
LJ           5.13456         4.15521         5.37816
LJ         -0.397174        -3.82453         3.62465
LJ            0.2947        -3.34027         -2.7987
LJ          -3.06613        0.791514         1.76449
LJ          -3.41569        -2.19066        -4.95622
LJ            4.4237         3.05012         5.17362
LJ           -3.4499        -5.97367        0.827799
LJ           -3.6471         5.89763        -6.37627
LJ             5.088         -5.7436        -1.21278
LJ          -3.72321        -3.17192         -6.2466
LJ          -3.04869        -4.46632         -5.9161
LJ         -0.126646         1.66717        -2.44148
LJ          -3.64998         -5.6356        -4.25353
LJ          -2.39152        -6.32383        -6.03201
LJ          -4.53691        -4.11099         5.52936
LJ          -2.94519        -4.24911        -4.28593
LJ           5.98978         2.44397        -4.52783
LJ          -2.75389        -3.00262        -5.66916
LJ          -1.84582        -4.26924         -6.4257
LJ           2.34034        -1.29313         5.56685
LJ           1.29167        -1.50354         1.65053
LJ           2.41657         2.14571        -1.57628
LJ          -5.46868        -3.47136        -4.58826
LJ           -0.6957         2.86102        -2.46553
LJ          -2.63733         2.26689         3.53062
LJ            -3.779        -5.79158          -6.318
LJ           6.20853         5.42692          2.1972
LJ           5.00785        -4.11231        -2.57365
LJ          -2.39083         -5.3065        -2.25641
LJ           1.55999         5.74021        -2.01252
LJ           -0.2662        -5.79758        -6.44602
LJ           0.10788         4.57061         3.93476
LJ          -1.31338        0.487274        -3.24742
LJ          -3.09151        -6.36029        -5.09163
LJ        -0.0782088         1.71525        -3.61104
LJ          0.557268        0.344755         5.34456
LJ         -0.705896        -3.38088        -4.15471
LJ           3.23871         6.03664        0.402434
LJ           4.41566        -3.44592         2.28258
LJ          -2.55186        -5.26881        -6.43322
LJ          -3.05743        -5.09801         -4.9264
LJ           -1.4828         1.72265        -3.82382
LJ           5.80751         1.78792         4.81567
LJ          -1.78664        -2.69405        -4.55198
LJ         -0.763843          -1.025       -0.958326
LJ        -0.0890467        0.720909        -3.52348
LJ         -0.692019        -3.51259          -5.258
LJ          -1.97133        -3.10337         6.41461
LJ           5.76608       -0.847165         5.75523
LJ           4.29297         2.42523        -2.08582
LJ          -4.02931        -4.51998        -6.45522
LJ           2.47004         -1.8265        -2.40513
LJ           1.18392          5.2122        -1.00645
LJ          -2.07837        -4.62772        -3.38659
LJ          -4.48537        -5.23841         5.43127
LJ           1.93422        -5.91808          5.9265
LJ          0.049932         5.38067         5.21411
LJ         -0.737597        0.758379        -2.20805
LJ          -2.43958        -3.76887          4.3345
LJ         0.0566103        -4.17886        -4.88671
LJ          0.513064        -3.27958        -4.81622
LJ           2.69071         6.00099         3.19668
LJ           3.26018        -1.77858        -3.41729
LJ           5.18166        -3.18288        0.377752
LJ          -2.74182        -3.20154        -4.57167
LJ           -3.4345        -5.17799         5.83751
LJ         -0.505635        -3.41656        -1.57833
LJ          -1.83078          -3.893         5.33787
LJ         -0.706144         -2.3144         -4.3083
LJ          -3.39332        -6.24129          5.6707
LJ          -1.04512        -3.45503        -2.71329
LJ          -1.04085        -4.92163        -3.19961
LJ          -5.19139        -1.43509         4.19969
LJ          -1.97762        -3.87431         -4.2604
LJ           -1.8172        -2.14714        -5.86289
LJ          0.196969        -3.80843        -3.75092
LJ           6.34176         5.66441         5.94168
LJ          -4.49144         4.98383        -1.70239
LJ         -0.628076       0.0380548        -1.28334
