108
#Comment!
LJ           -2.3821        -4.44562        -5.11539
LJ          -2.12379        -3.41834        -5.66772
LJ          -5.27986        0.648288        -1.82086
LJ          -2.58446        -3.94736        -3.94282
LJ          -2.38137        -5.70029        -3.79835
LJ          -2.05868        -2.12328        -4.33145
LJ          0.968955        0.609668         4.25363
LJ          -4.47849        -3.22698         5.22647
LJ          -5.04748        -2.91419        -5.78186
LJ           4.05369        -2.59717       -0.450892
LJ          -4.78118         4.71442         -5.8658
LJ         -0.272926         2.85751        -1.64823
LJ           5.09705         5.88552         1.88758
LJ         -0.936038        -3.16602        -4.43334
LJ          -1.56748        -4.73386        -6.19066
LJ          -3.58457        -5.28599        -1.79883
LJ          -3.06111         -2.7562        -4.02061
LJ          0.601575         5.92909         3.40568
LJ          -3.62359        -5.92052        -3.45778
LJ          -1.26495          -2.958         4.43148
LJ          -1.87337        -5.40903        -4.58205
LJ           5.29876        -1.70915        -2.27283
LJ         -0.715072        -5.49485        -5.75394
LJ           4.47258        -5.93082         1.16328
LJ          -1.13519        -5.28465         1.19939
LJ          0.274279         1.30687       -0.708065
LJ          -3.52801         -3.7382        -6.17941
LJ          -2.00957        -3.12738         6.07838
LJ         -0.356541         5.56492         3.43274
LJ           4.35831         2.08262         4.54166
LJ          -1.25608        -4.11218         4.84817
LJ         -0.392956        -4.49143        -1.94225
LJ          -2.60826        -1.26423        0.259919
LJ          -3.64233        -1.75055        -5.73354
LJ           2.96836         2.47904         3.66122
LJ          -2.86965           5.178       -0.835863
LJ          -3.86846        -5.90704         6.23957
LJ            5.5454        -5.91946        -1.70774
LJ          -3.89137        -2.67484         6.11092
LJ          -2.75365        -4.13838         6.03625
LJ         -0.785654         2.92171        -2.76482
LJ          -2.94922        -5.54714        -4.56773
LJ          -2.95014         6.07784        -5.50042
LJ          -3.11162        -3.26239         4.81511
LJ          -3.26167        -4.51792        -4.37599
LJ           6.05378         2.33694        -3.86312
LJ          -4.29934        -2.41319        -5.00122
LJ          -1.85479        -4.64474         5.59324
LJ           3.29516        -1.69002        -5.82448
LJ           1.05651         -1.8495        0.206846
LJ           2.87046         3.46321        -3.03317
LJ          -5.28701        -4.09897        -3.13291
LJ          -1.35666         3.62497        -1.72162
LJ          -3.07611         1.30176         5.49334
LJ          -3.88686        -6.21438        -5.59716
LJ          -5.96367         6.12368         3.76027
LJ           5.95438         6.45542        -3.17206
LJ          -3.59381        -5.80135       -0.531305
LJ           2.73079         6.10557        -2.24847
LJ         -0.589375         -4.8136        -3.62737
LJ         -0.515479          5.2083         2.28464
LJ          0.456896         1.71945        -2.78362
LJ          -3.29074         6.39814        -4.47948
LJ           1.02695         3.36122        -2.90296
LJ          0.581726       -0.744746         3.87772
LJ         -0.981098        -3.60367        -3.28698
LJ           3.71607         6.22396        0.638432
LJ           4.25309        -3.55954         1.55179
LJ          -2.64683        -5.25966         6.05727
LJ          -3.96229        -4.84836        -5.20794
LJ         -0.684631         1.93369        -3.15083
LJ           6.02206         3.82013         3.98256
LJ           -2.1667        -3.17577        -4.67959
LJ          -1.13368       -0.469525        -1.05373
LJ           1.37928        0.804762        -3.67169
LJ           -1.2332        -4.45556        -5.17716
LJ          -3.17524        -2.69742        -5.90904
LJ          -5.78512      -0.0830493         5.57448
LJ           5.54889         3.62498        -1.50767
LJ           -3.5189        -4.87995        -6.34356
LJ           2.06178        -3.09589        -1.85674
LJ           2.28165         -6.1681        -1.36262
LJ          -3.05402        -5.08198        -2.93346
LJ          -4.34735        -5.68666         5.29528
LJ           1.40767        -6.17371         6.44314
LJ          0.481535        -6.11466         4.14355
LJ          0.180704          1.3152        -1.73256
LJ          -2.24773        -3.80646         4.99132
LJ         -0.395255         -4.1787        -4.39766
LJ         -0.144904        -2.36492        -5.10898
LJ           2.17752         5.88144         3.05193
LJ           1.89793        -1.64403        -1.54852
LJ           5.56584        -4.01016        0.752956
LJ          -3.21168        -3.34684        -5.14319
LJ          -3.56286        -4.01259         5.43402
LJ          0.371657        -4.73671       -0.619747
LJ          -1.16023        -3.73281         5.89446
LJ           -1.3018        -2.53369        -5.43951
LJ          -3.04473         6.39631        -6.42753
LJ         -0.767702        -5.11696        -1.02584
LJ          -1.79082        -4.82834        -3.28428
LJ          -3.43509        -2.30345         5.02725
LJ          -1.46451        -4.20581        -4.19906
LJ            -2.509        -2.13989        -5.30024
LJ          0.146903        -3.90108        -3.28102
LJ          -6.35162        -4.47881         5.04287
LJ          -4.67566         2.88194        -1.01227
LJ         -0.254333       -0.380448        -1.80876
