108
#Comment!
LJ          -2.81965        -5.26218        -4.58213
LJ          -1.78814        -4.79257         5.75225
LJ          0.449869        -2.37715        -3.55878
LJ          -2.72102        -2.64707        -3.51747
LJ          -3.32971        -3.15794          -2.871
LJ          -4.32518        -3.64142        -3.14104
LJ          -1.11751         2.53449        -4.97248
LJ          -6.35895        -2.14388         5.20633
LJ          -4.83254        -4.87128         6.11691
LJ           -1.9789        -1.75136         6.29158
LJ          -4.09186        -5.82642        -6.28903
LJ           2.43525         5.97019       -0.356574
LJ           3.94715         5.16098        0.704107
LJ          -2.96137        -2.04233        -2.51206
LJ          -1.31932        -3.20086         5.12215
LJ          -6.39404         4.96907        -3.93304
LJ          -4.15551        -1.70265        -5.03604
LJ          -2.53185          3.4822        -1.92228
LJ          -3.07435        -1.58503        -3.87384
LJ          -4.00403        -5.84386        -4.40193
LJ          -2.19827        -3.61043        -5.57882
LJ          -3.11155         5.18637        -5.67591
LJ          -3.09798        -6.05235        -6.06263
LJ           4.84443         4.52013         0.65978
LJ           -2.1604         4.48411        -2.32237
LJ          0.722286        0.778518        -0.20784
LJ          -1.09969        -2.97781        -5.15396
LJ          -1.25229        -5.14194        -6.03612
LJ          -1.32994         4.36611         4.18178
LJ          -1.41991        -3.23657        -1.30028
LJ          -2.62543        -4.14856        -4.41631
LJ          -3.87291         6.42646        0.945663
LJ          -3.34886       -0.991181        -4.98067
LJ          -3.36928        -3.44204        -6.23902
LJ          -3.59133         -5.6062        -3.54083
LJ           3.32041        -3.91101         5.16461
LJ           1.27297        -1.99321        -4.34729
LJ          -3.65372        -5.49976        -5.31975
LJ          -1.58071        -2.88451         6.33601
LJ          -2.16611        -4.83818          3.8646
LJ           2.97724         5.35091        -1.82383
LJ          -4.60085        -6.10464        -5.34021
LJ           2.83858        -5.61908        -1.33633
LJ          -4.05271         1.23808         3.28984
LJ          -1.97619         6.04657        -5.18079
LJ           5.32465         1.71365       -0.123177
LJ          -2.55919         -4.3209        -6.40941
LJ         -0.646425        -2.42965         2.67521
LJ          -4.54404       -0.770567        -4.33605
LJ           5.97385       -0.987407         -2.2939
LJ           3.24689        -2.08456         2.27602
LJ           5.57978         5.38573        -3.67474
LJ           3.61832         4.48188        -1.14902
LJ           -3.8317       -0.548208        -2.59877
LJ          -3.86862        -4.78734        -6.29353
LJ           5.41411        -3.02807         5.83361
LJ          -2.43961        -2.90156         1.77482
LJ          -1.74985        -1.46116        -5.43633
LJ           5.36578         6.12816         1.77901
LJ          -4.81031        -4.49956        -5.76906
LJ          -3.30137         6.39686         5.72682
LJ           1.38453         5.13214        -1.96439
LJ          -2.49431        -5.29029        -5.83178
LJ           4.88922          5.8661        0.747594
LJ           6.26427        -3.19163        -5.53713
LJ            1.0955         5.19581        -5.54018
LJ           6.36574         5.11263        0.810487
LJ           2.51089         6.39101         6.34715
LJ          -2.03667        -3.46086        -2.64916
LJ           5.92518        0.085655        -5.67017
LJ           1.59756        -6.42329         5.06358
LJ          -5.94997         -2.2238         6.22283
LJ          -3.26755        -4.54197        -2.90801
LJ           2.65089         4.10796        -1.80113
LJ           3.12046         5.25223       0.0927765
LJ          -3.14184        -3.45615        -4.98974
LJ          -3.10806        -2.22757        -4.73934
LJ         -0.723509         5.54445        0.893098
LJ          -3.14835        -4.43717        -5.31967
LJ           6.03507          4.3919        -3.15922
LJ         -0.980157        0.349825        -5.52641
LJ          -1.95178        -1.60711        -3.91493
LJ           3.78803        -5.79729        -1.74196
LJ         -0.387237        -4.09716        -5.98064
LJ           -1.7766        -3.09488        -3.93176
LJ         -0.535086         5.51099         3.97796
LJ           5.28012         5.69622       -0.416338
LJ          0.176104         -5.4976         5.97272
LJ          -4.06159        -1.37518        -3.60662
LJ          -2.89435         -0.6024        -2.08129
LJ           1.76034        -6.11995       -0.877195
LJ           1.33401       -0.733021        -1.44877
LJ          -4.70129       -0.482012        -3.29209
LJ          -5.88656        -3.74569         6.21288
LJ          -1.35731        -4.84876        -4.80864
LJ           1.75336           6.153        -5.35219
LJ          -1.81891        -2.31475         -4.7359
LJ          -2.72732        -2.65736        -5.75145
LJ          -1.13735        -6.01855         6.17163
LJ          -1.36305        -5.38546         4.39828
LJ          -3.40171        -3.48761        -3.82965
LJ          -1.39768        -3.88657         6.46092
LJ          -2.16089        -6.14347         6.15928
LJ           6.10748        -3.35464         5.06315
LJ           1.26687        0.453498        -1.13597
LJ          -1.90062         5.83335         5.70384
LJ          -4.38206        -3.71778         6.17076
LJ         0.0948513         2.29568       -0.516461
