108
#Comment!
LJ          -2.18728        -4.37342        -4.93567
LJ          -1.43033        -3.54197        -5.30019
LJ          -4.46118         2.06465        -3.76084
LJ          -2.57313        -3.31725        -3.64964
LJ           -1.0857         -5.8997        -4.06884
LJ          -1.03731        -2.24094        -3.61057
LJ            1.1972        -2.10064         4.29841
LJ          -6.24878         -2.8998         5.85547
LJ          -6.04067        -2.47114        -5.69543
LJ           5.72813        -1.60051         1.42494
LJ          -4.64209         4.39835        -4.66033
LJ          -1.37312         2.54304        -2.03871
LJ           5.85855         6.05656         3.01436
LJ        -0.0230768        -2.97991        -3.83397
LJ          -2.17315        -6.17306        -4.98712
LJ           -2.7785         -5.6176        -2.57609
LJ         -0.938392      -0.0396034        -5.82072
LJ           1.58447         6.33676         3.82919
LJ          -1.98314        -5.24014        -4.25453
LJ          -3.19576        -3.72988         6.19908
LJ          -1.10286        -4.39281        -4.27452
LJ           5.22764        -2.37805         2.54155
LJ          -1.00829        -5.24065        -5.00594
LJ             2.124          5.1869       -0.971639
LJ          -1.73089         6.45623        0.356335
LJ           0.13305        0.241932        -1.81432
LJ            -3.856        -4.28928        -4.91204
LJ          -2.56373        -4.71341         6.07047
LJ           1.16851         5.35369         4.81207
LJ           5.21421         4.81053         5.70517
LJ         -0.329351        -3.58658         3.35148
LJ          0.267566        -2.65381        -2.81672
LJ          -3.22486         1.82485         2.51027
LJ          -2.51723        -2.17719        -4.66255
LJ           5.58472         3.59815         6.02458
LJ          -3.53481        -5.03462         1.51146
LJ          -3.43626          5.9698        -6.13027
LJ           4.83138        -5.61285        -1.08991
LJ          -4.03921        -3.53298        -5.67419
LJ          -2.69976        -3.86681        -5.82544
LJ        -0.0359943        0.737771        -2.87004
LJ          -3.72976        -5.66842        -4.53985
LJ          -2.30798        -5.59936         5.69119
LJ          -4.45323        -4.84937         5.61333
LJ           -2.8581        -4.44454         -4.0941
LJ           5.96733         2.49657        -4.82813
LJ          -3.07692        -2.86946        -5.45361
LJ           -1.7284        -4.26409        -6.44249
LJ           2.03519       -0.924758         5.00615
LJ           1.39951        -1.34279         2.32522
LJ           2.24623         1.53731       -0.933053
LJ          -5.13641          -3.502        -5.01105
LJ         -0.470679         2.02695        -2.31763
LJ           -2.4783         2.63488         2.56532
LJ          -3.81404        -5.75048        -6.42665
LJ           5.65335          5.2152         1.49769
LJ           4.55815        -3.07613        -2.14642
LJ          -3.10226        -5.46151        -3.66408
LJ           1.05592         5.53019        -1.64744
LJ          -0.96805        -5.53192          5.0263
LJ         0.0102867         3.91801         4.22183
LJ          -2.39463        0.181965        -3.74432
LJ          -3.30766        -5.92304        -5.52346
LJ         -0.400328         2.09101        -3.53396
LJ          0.879221        0.778342         5.84337
LJ         -0.519135        -3.60821         -4.5878
LJ           3.11862         6.10406       -0.395703
LJ           4.61883        -3.23524         2.41237
LJ          -2.30757        -5.15109        -5.93539
LJ          -3.08545        -5.04038         -5.1841
LJ          -1.68116         1.13098        -3.78725
LJ           5.66975         0.94492         5.20462
LJ          -1.51448         -2.1221         -4.5434
LJ         -0.438069       -0.723931         -1.2625
LJ          -1.00639        0.324673        -3.16434
LJ          0.106672        -2.87443         -5.9191
LJ          -2.18826        -3.14905        -6.38407
LJ           5.15786         -1.2189         5.83204
LJ           3.62268         1.85495        -2.34018
LJ          -3.32422        -4.62053        -6.08806
LJ           2.89031        -1.09163        -3.00226
LJ          0.865745         4.57358       -0.982415
LJ          -1.90626         -4.4481        -3.45968
LJ          -5.19498         -6.1696         5.72663
LJ            2.0894         -5.8264         5.64909
LJ          0.166351          5.2609         5.39116
LJ         -0.944095        0.421156        -2.11887
LJ           -3.0692         -3.4154         4.75595
LJ       -0.00494084        -4.67186        -4.90917
LJ          0.700289        -3.72488        -4.84932
LJ           3.08822         6.09318         3.25764
LJ           3.61457        -2.00628        -3.94674
LJ           4.96475        -2.43844        0.528897
LJ          -2.47981        -3.28001         -4.6898
LJ           -3.3211        -5.36711         5.46835
LJ         -0.653007         -2.7996         -1.6869
LJ          -1.80045        -4.31814         5.18311
LJ         -0.206797        -1.84096        -4.28336
LJ           -3.1957         6.45156         5.85709
LJ         -0.922843        -3.62387        -3.13249
LJ         -0.607167        -4.53658        -2.67767
LJ           -6.0377        -1.23399         4.01023
LJ          -1.37997        -3.25035        -4.01961
LJ           -2.0233        -2.53679        -5.44723
LJ        -0.0497757        -4.00965        -3.68377
LJ           6.12618         4.30442         6.27697
LJ          -4.38874         5.98307        -2.03317
LJ         -0.966371       0.0795406       -0.664734
