108
#Comment!
LJ          -3.08357        -5.64149        -4.49724
LJ          -1.94006        -4.90143         6.28057
LJ           1.08626        -2.23425        -3.09873
LJ          -2.49669        -2.45791        -3.98875
LJ          -2.94833        -3.39838        -2.92642
LJ          -3.76048        -3.94746        -3.36153
LJ          -1.81462         2.41602        -5.33233
LJ             6.416         -2.2928         5.04217
LJ          -5.39153        -4.59808         6.41882
LJ          -1.32301         -1.9116        -6.28802
LJ          -4.45291        -5.45434        -6.29581
LJ            2.2992         5.17388       -0.356026
LJ           3.72251         4.94589        0.763465
LJ           -3.3405        -2.26801        -2.94752
LJ          -1.70384        -3.26554         5.26358
LJ          -6.21943         5.27578        -3.95074
LJ          -4.46729        -2.07386         -4.8404
LJ          -2.48973          4.0145        -1.28139
LJ          -2.89094        -0.76559        -4.31725
LJ          -3.39952         6.09073        -4.95872
LJ          -2.30528        -4.18935        -5.40889
LJ          -2.86997         5.41966         -6.3889
LJ          -3.78752        -6.45344        -5.97768
LJ           5.22056         4.89313         -0.2124
LJ          -1.91511         4.46718        -2.21846
LJ          0.347419         1.24445      -0.0255731
LJ          -1.01169        -2.79156        -5.81928
LJ         -0.859389        -5.07352        -5.82828
LJ          -1.82969         4.35344         3.50944
LJ          -1.55854        -2.93068         -1.1087
LJ          -2.27413        -4.31006        -4.20751
LJ          -3.45595         6.42394           1.371
LJ          -3.54069        -1.17134        -5.17987
LJ          -3.39284         -3.8381        -5.54677
LJ          -2.85098        -5.12962        -2.20359
LJ           2.90014        -3.26559         5.51868
LJ           2.07889         -2.2756        -4.54722
LJ          -3.62049        -5.45097        -5.41827
LJ          -2.02224        -3.10691        -6.32537
LJ          -1.98551        -4.16228          4.7452
LJ           2.33509         5.65089        -1.51061
LJ          -4.38704        -6.14785        -5.26401
LJ           3.24785           -5.92        -1.71678
LJ          -3.99753        0.975189         3.28656
LJ          -2.22905        -5.75696        -5.40586
LJ           5.41017         1.76263       -0.372836
LJ          -2.76114         -4.1602         6.40989
LJ          -0.72497        -2.33111         2.80317
LJ          -4.38975        -1.11915        -4.32193
LJ           6.35947        -1.19692        -1.59798
LJ           3.23362        -2.58229         2.77617
LJ           5.65711         5.57405        -3.59736
LJ            2.6947         4.33022        -1.24579
LJ          -3.89774       -0.999766        -2.82349
LJ          -3.54231        -4.85041          -6.441
LJ           5.56638        -3.11988         5.79324
LJ          -2.76105         -2.2856         1.42093
LJ          -2.63388        -1.53751        -6.03436
LJ           5.02626         6.08509         1.60469
LJ          -4.16323        -4.52589        -5.63667
LJ          -3.62532         6.33746         5.71183
LJ           1.43825         5.18273        -2.04335
LJ          -2.77829        -5.00208        -5.92619
LJ           4.72749         5.86097        0.407603
LJ           5.89815        -3.00654        -4.84177
LJ          0.991913         5.26966         6.35862
LJ           5.62727         5.27026         1.27045
LJ           3.16333        -6.24258        -5.93346
LJ          -1.82864        -3.76293        -3.40005
LJ          -6.42366        0.540331        -5.89339
LJ           1.53401        -6.11148         5.39666
LJ          -6.25245        -1.80684         6.20229
LJ          -2.91527        -4.57914        -3.28659
LJ           2.00499         4.01379        -1.99425
LJ           3.39837         4.99347       -0.458257
LJ          -2.92715        -3.14804         -4.7408
LJ          -3.14016        -2.09726        -4.73551
LJ         -0.639552         5.26222          1.4569
LJ          -3.12064        -4.70966        -4.91763
LJ           6.14754         4.60231        -3.36031
LJ         -0.916471        0.651554        -5.51509
LJ          -1.68437        -1.35596        -3.08745
LJ           4.34358        -5.70783         -1.3805
LJ         -0.846589        -3.99274        -5.35749
LJ          -1.24238        -2.79912        -4.37517
LJ          -1.26415         4.79951         4.54735
LJ           5.89989         6.04928        0.551383
LJ         -0.365721        -4.64598         5.87956
LJ            -3.752        -1.96321        -3.86541
LJ           -3.0011        -1.05817        -2.15677
LJ           1.71007         6.25147       -0.886419
LJ           1.39355        -0.97036         -1.4708
LJ          -4.99331       0.0799928        -3.69506
LJ          -5.05902        -4.02701         5.39582
LJ           -1.2645        -4.66431        -4.61231
LJ           1.68647         5.91807        -5.91175
LJ          -1.93885         -2.6381        -5.14766
LJ          -2.87412        -2.55786        -5.92588
LJ          -1.15889        -6.08427         6.33135
LJ          -1.04497        -5.92357         4.08311
LJ          -3.58365        -3.92155        -4.35275
LJ           -1.2333        -3.98056        -6.40113
LJ          -2.87517        -5.67886         6.10076
LJ          -6.17779        -3.59851         5.76927
LJ          0.816798        0.462846       -0.696972
LJ          -2.22265         6.31311         5.34186
LJ          -4.11167        -4.41802         5.67311
LJ           0.41908          2.4406       -0.945041
