108
#Comment!
LJ          -3.48092        -5.12246         -5.4422
LJ          -3.63816        -4.00903        -6.04209
LJ          -6.42231       -0.806316        0.218759
LJ           -3.8848        -3.76699        -3.93943
LJ          -2.92732        -4.80664        -3.06353
LJ          -2.69479         -3.8222        -4.27788
LJ          -1.06269         1.74987         4.29342
LJ          -3.86968        -2.58802         4.95081
LJ          -4.34961        -2.92875        -5.18313
LJ           1.99811        -2.36881        -2.57227
LJ          -4.08488           6.442        -6.28932
LJ          0.735662          3.4367        -1.59219
LJ           4.53318         6.15651         1.39648
LJ          -1.80578        -4.14987        -4.91453
LJ          -2.57301        -5.15489         6.34044
LJ          -3.86215        -6.21644        -1.75431
LJ          -3.78196         -3.8927        -4.95956
LJ        -0.0660276         5.29331          2.3409
LJ          -3.83117        -4.77143        -3.67778
LJ         -0.900972        -5.16273         5.59116
LJ           -2.0451        -5.30207        -5.35297
LJ          -6.45109        -2.06779        -6.30577
LJ          -1.56124        -6.21594        -3.93312
LJ           5.12973         5.87011         2.24034
LJ         -0.937037        -4.83109         2.66794
LJ          0.494905         2.09003       -0.538339
LJ          -3.41316        -3.38546         5.61084
LJ          -1.65265        -3.25284         5.90391
LJ          -1.00709         5.40386         1.75403
LJ           1.41611        0.100913         2.28961
LJ          0.387666        -5.37947         6.38582
LJ          0.633892        -5.94478         1.68686
LJ          -1.84848        -2.90277        -2.50794
LJ          -3.94064        -1.67524        -5.59963
LJ           2.39422        0.738295         2.51472
LJ          -1.53193         2.81903        -3.44091
LJ          -4.20455        -4.25741         5.92319
LJ          -6.28032         6.08555        -3.71453
LJ          -3.05311        -1.93645         -6.4053
LJ          -2.70903        -4.16699         6.15095
LJ        -0.0263368         3.22571        -2.28787
LJ          -3.14282         -6.1981        -4.51167
LJ          -4.59453        -5.78427        -3.21274
LJ          -3.59359        -1.96627         3.31881
LJ          -4.08842         -5.6089         -4.4561
LJ           6.17415         2.25771        -2.78393
LJ          -4.04947        -2.78962         6.40846
LJ         -0.487363         -3.3151         5.43575
LJ           4.83096         -2.2683        -3.52141
LJ          -1.25026        -2.26853         1.10198
LJ           3.05249         5.40597        -5.08534
LJ          -4.55902        -5.25559        -2.21685
LJ         -0.799012         3.31714        -1.49719
LJ          -3.87156       -0.434812        -4.64553
LJ          -3.16968        -5.87767        -6.12377
LJ          -4.34586        -5.25143         6.04024
LJ          -5.96113          3.5621        -2.35543
LJ          -5.45369        -5.20272        -3.01257
LJ           4.13875        -5.46115        -1.87064
LJ          -2.17385        -5.40387        -4.19391
LJ          -1.64156         6.32442         2.08057
LJ           1.85395          3.2593        -1.82773
LJ          -3.39262        -5.92004        -3.45771
LJ           1.32432         4.12799        -1.10469
LJ           2.08704       -0.958963         1.57956
LJ          -1.31427        -5.30111       -0.513617
LJ           5.60068        -6.28963         1.67898
LJ           4.84308        -3.99812      -0.0827565
LJ          -1.61012         -4.6511        -6.45362
LJ           -4.4186          5.6191        -5.60191
LJ          0.427038         3.34391        -4.47156
LJ           6.20468         -6.0681         2.78138
LJ          -1.90214         -4.4995        -3.65099
LJ          -0.71746        0.986431        -1.89418
LJ           2.75932         1.80646         -3.0795
LJ          -2.56264        -4.34046         -5.6755
LJ          -3.18053          -2.816         -5.7422
LJ          -3.49449        0.929041         5.45415
LJ          -5.53254         5.46578       -0.983848
LJ          -4.28635        -5.77675        -5.41287
LJ            1.0084        -6.05144         -2.4138
LJ           4.22904        -4.50906        -2.48535
LJ          -4.66473        -3.88416        -2.42524
LJ          -3.63146        -6.04938          5.2838
LJ         0.0766607         -6.1726        -5.93742
LJ           2.34095        -3.00575           3.386
LJ            1.3858         2.89093       -0.650547
LJ            -2.147        -2.54313         5.14604
LJ         -0.964528        -3.16233        -5.30843
LJ          -1.99063        -3.04768        -4.84028
LJ          0.825828         5.85142         3.02733
LJ           1.19551         -1.7475       -0.993192
LJ           5.94195        -2.83259         1.59421
LJ          -4.59829        -4.54985        -5.44956
LJ          -1.76714        -4.42745         5.41031
LJ         -0.417106        -5.18781        0.271522
LJ         -0.758988        -2.34883         5.92193
LJ          -2.03372        -2.50256        -6.05745
LJ          -3.32352        -4.86003         5.52437
LJ          0.173348        -6.35513        0.430686
LJ          -3.11043        -4.92798        -4.46713
LJ           -2.6642        -2.92683         6.18799
LJ          -1.14963        -5.18772        -4.55823
LJ          -2.62222         -1.9267        -5.20062
LJ          -1.84492        -5.23844        -1.40984
LJ          -5.30419       -0.296862         3.86368
LJ          -4.66245       -0.204092       -0.072017
LJ          0.293316        0.688939        -1.63404
