108
#Comment!
LJ          -1.78722        -4.40185        -4.69515
LJ          -1.28343        -3.75716        -5.36026
LJ          -4.34103         2.27791        -4.04925
LJ          -2.92657        -3.19159        -3.87391
LJ          -1.03659        -6.07178        -3.96624
LJ          -1.04873        -2.31539        -3.66382
LJ          0.996089        -2.55002         4.19833
LJ            6.3656         -2.9236          5.7226
LJ          -6.21093        -2.31478        -5.58858
LJ           5.41079        -1.66023         1.64608
LJ          -4.60468         4.38508        -4.49941
LJ          -1.45467         2.42757        -2.39562
LJ           6.03599         5.98314         3.07374
LJ        -0.0427085        -3.10874        -4.01888
LJ          -2.26605         6.42144        -4.74991
LJ          -2.24901        -5.45983         -2.8429
LJ         -0.529832        0.419764        -6.26413
LJ           1.71029         6.22177         4.16596
LJ          -1.90753        -5.30354        -4.01631
LJ          -3.50651        -3.65191         6.32676
LJ         -0.883274        -4.23399        -4.04809
LJ           5.70639        -2.53456         3.15422
LJ          -1.05722        -5.03525        -4.89624
LJ           1.73891         4.90791       -0.981299
LJ          -1.73976         6.26198        0.422977
LJ          0.258892        0.256539        -1.93196
LJ           -3.7209        -4.55229        -4.40255
LJ          -2.72574        -4.34193         6.01893
LJ           1.34852         5.36769          5.0782
LJ           5.51927         4.95887          6.0213
LJ         -0.300613        -3.47596         3.23903
LJ          0.143409        -2.45154         -2.9006
LJ          -3.33212         2.29502         2.90395
LJ          -2.61372        -2.40338        -4.45754
LJ           5.37369         3.02757         6.05624
LJ           -3.5658        -4.60493         1.82351
LJ          -3.48366         5.90114        -5.98057
LJ           4.70369        -5.55458         -1.0306
LJ          -3.87902        -3.53299        -5.67207
LJ          -2.46422        -3.86475        -5.71833
LJ         -0.144145         0.54875        -3.16462
LJ          -3.87708        -5.44968        -5.30045
LJ          -2.14519        -5.51828         5.16784
LJ          -4.69196        -5.07124         5.74975
LJ          -2.86976        -4.35007        -3.85295
LJ             5.959         2.52578        -4.97358
LJ          -3.11028        -2.80186        -5.54803
LJ          -1.59968        -3.98845        -6.38614
LJ           1.96457       -0.731828         4.85132
LJ           1.44848        -1.27357         2.65111
LJ           2.18082         1.25849       -0.656963
LJ          -4.87857         -3.5633        -5.21934
LJ         -0.326983         1.48063        -2.33499
LJ          -2.37005         2.81181         2.07056
LJ          -3.85989        -5.67909         6.19848
LJ           5.38041         5.18493         1.27006
LJ           4.34633        -2.59554        -1.95139
LJ          -3.21112         -5.3657        -3.74015
LJ          0.804503         5.43301        -1.45717
LJ          -1.43602        -5.27888         4.42336
LJ         0.0215795         3.56043         4.20519
LJ          -2.80099       0.0611904        -3.90331
LJ          -2.98962        -5.93839        -5.85218
LJ          -0.46118         2.03668        -3.36513
LJ           1.02829        0.964344           6.073
LJ         -0.272575        -3.19312        -5.10952
LJ           2.94012         6.01893       -0.897147
LJ           4.68173        -3.15117         2.41895
LJ          -2.06109        -4.89907        -5.76122
LJ          -2.75687         -5.0108        -4.68344
LJ           -1.9951         1.01091        -3.85107
LJ           5.60296        0.554178         5.38828
LJ          -1.21765        -1.68278        -4.66274
LJ         -0.619797        -0.64161        -1.27312
LJ          -1.32251     -0.00783115        -3.24505
LJ          0.445066        -2.58537        -6.35505
LJ          -2.26026        -3.08227         6.26714
LJ           4.89089        -1.39273          5.8637
LJ           3.29113         1.58658        -2.44093
LJ           -3.3323        -5.01023        -6.11438
LJ           3.17375       -0.841325        -3.39833
LJ          0.825242         4.35964        -0.98592
LJ          -1.85188        -4.32082        -3.19307
LJ          -5.38568        -6.46126         5.90552
LJ           2.14461        -5.80436         5.49651
LJ           0.32642         5.36483         5.54926
LJ         -0.970039        0.377195        -2.03032
LJ          -3.30361        -3.39851         5.23018
LJ        0.00782733        -4.87454        -4.95563
LJ          0.571024        -3.82984        -4.87257
LJ           3.15902         6.15483         3.32456
LJ           3.68637        -2.02851        -4.06425
LJ           4.94006        -1.98373        0.760626
LJ          -2.34914        -3.38788        -4.76866
LJ          -3.41481        -5.63839         5.19513
LJ         -0.717738        -2.55305        -1.48426
LJ          -1.67044        -4.54507         5.29896
LJ         -0.092413        -1.89921        -4.22477
LJ          -2.89625        -6.25108         6.07366
LJ         -0.662726        -3.59447        -3.27501
LJ         -0.772476        -4.56984        -2.43115
LJ          -6.43766        -1.14796          3.9276
LJ          -1.78065        -3.40846        -3.87059
LJ          -1.91814        -2.70134         -5.5548
LJ          0.179126        -4.38009        -4.07938
LJ           -6.4126         4.64634        -6.29427
LJ          -4.32756         6.45794        -2.19563
LJ         -0.944555      -0.0610124       -0.379263
