108
#Comment!
LJ          -2.80045        -6.19752        -6.24823
LJ          -2.35375        -3.34265         -6.4017
LJ          -2.56817        -2.48994        -3.31464
LJ          -2.93011        -2.37816        -2.21754
LJ          -1.52368        -2.73739        -2.49526
LJ          -4.45618        -1.97737        -5.63622
LJ           3.50268         3.19471        -2.58399
LJ           6.30528        -4.31338        -6.07177
LJ          -3.04728        -2.63046          5.6813
LJ          -4.09215        -1.49934        -3.68953
LJ          -1.01071         6.17816         5.78004
LJ           1.77574        -5.84237       -0.990059
LJ           4.92229        -6.37391         1.55375
LJ          -2.23379        -1.40389        -2.17461
LJ          -3.39959        -5.44307         6.06316
LJ           5.22179         2.84358        -2.87129
LJ          -2.21934        -1.37865        -3.23221
LJ          -3.55895         2.41578        -4.29395
LJ          -3.21786        -1.30405         -2.8294
LJ           4.31518        -1.18433        -3.73742
LJ          -2.93528        -3.07909        -4.25555
LJ          -1.62617         5.29014        -3.52259
LJ          -2.65436         4.79464         4.31488
LJ           4.24211         -5.9564        0.891331
LJ           -3.0057         1.96748        -5.18055
LJ           3.48918         1.55293        -1.18316
LJ          -2.53312        -2.97968        -5.32743
LJ         -0.521199        -6.16966        -5.47805
LJ        -0.0158802         5.27367         -4.8906
LJ          -4.83325        -2.13469        -3.16947
LJ          -3.95983        -3.02728        -4.81527
LJ          -4.70554        -4.20344         -2.2424
LJ            -1.983       -0.160502        -2.97942
LJ           -1.1556        -3.28087        -6.22701
LJ          -2.74106         6.45325        -5.17783
LJ           6.17928         4.94795         2.42339
LJ           -1.9916       -0.952711        -4.18434
LJ          -1.75387         6.00912         4.96159
LJ           -3.8568         -1.3455        -4.81882
LJ          -2.18891           2.754      -0.0088283
LJ           5.40892        -5.96896        0.368075
LJ          -4.84217        -3.93073         6.37828
LJ           1.72515        -1.26506       -0.342959
LJ           -4.4154         2.99295         3.30327
LJ          -1.51302         5.02893           6.038
LJ           4.59725         1.50499         1.40104
LJ           -1.2944        -5.83378         6.36658
LJ          -1.07866        -5.78059         3.10435
LJ          -3.19174        0.934198        -4.58808
LJ           2.84796       -0.405452         5.01107
LJ           3.93565         0.55941       -0.676488
LJ            4.7868         3.68227        -3.50399
LJ           4.69122         5.34115        0.326957
LJ          -4.45325        -1.26649        -2.63526
LJ          -4.15442        -3.96033        -5.65217
LJ          -4.47773        -3.14506        -3.77919
LJ          0.433284        -4.79445         3.90744
LJ          -2.61765        -1.01422        -5.32919
LJ          -4.14644         3.53732        0.292952
LJ          -4.19201        -3.18038         5.89716
LJ         -0.168592        -5.94997         6.39294
LJ           3.67744         5.94579       -0.142354
LJ          -1.86949        -5.85864        -5.56945
LJ            4.8879         4.31272        0.835508
LJ           5.43086       -0.878393         6.17991
LJ          0.996214        -5.35149        -1.70144
LJ          -4.13509         4.29382       -0.675916
LJ           3.93165         3.97948         3.83721
LJ          -2.25931        -2.12675        -4.56936
LJ           4.19338        -2.76646        -4.20407
LJ           1.25184        -6.29524         1.46411
LJ          -4.93791        -5.04863          3.9287
LJ            3.5486       -0.892077        -3.06747
LJ           4.02653        -2.80673        -1.05123
LJ           3.19394        -6.40853         1.58973
LJ          -3.13542         -1.9191        -5.82139
LJ          -3.53396        -2.61372        -3.44275
LJ          -1.13066        -5.37022         -1.6638
LJ           -3.1599        -4.43526          6.4494
LJ             5.218         4.01895        -2.52884
LJ          -3.71335      -0.0988398        -4.63428
LJ           -1.2291        -1.21071        -2.78694
LJ           5.41882         6.43444        -2.20752
LJ          -1.77816         -5.5453         5.19978
LJ          -3.00579         3.86166        -4.47417
LJ           1.88177         5.86416          2.4675
LJ           5.12674        -6.36782        -0.57513
LJ          -1.12181        -5.89299        -4.20675
LJ          -2.98866        0.189825        -3.81331
LJ          -1.72166       0.0416039        -1.83397
LJ          0.341306         -3.4349       -0.926541
LJ          0.831793        -1.37972        -3.35524
LJ          -4.71641        -2.14684        -2.07387
LJ           6.38691        -1.92437        -6.03823
LJ          -1.50663         6.22618        -4.57183
LJ           1.04047         4.67282        -3.19313
LJ           -3.0909         -1.6814        -3.83656
LJ           -3.5949         -3.2385         -6.1532
LJ          -1.16279         5.18251        -4.43199
LJ          -2.08413        -5.01502        -6.26112
LJ          -3.61513       -0.847426        -6.34472
LJ          -2.58258        -4.03469         -5.5819
LJ         -0.682048         5.20157        -5.72062
LJ            3.8369        0.440271         4.42262
LJ           2.37101         1.20114        -3.47151
LJ          -1.43262         5.93976        -5.58932
LJ          -6.13697        -3.10609        -5.62528
LJ          -1.39756       -0.108633         2.48704
