108
#Comment!
LJ          -2.51649        -4.33561        -5.18732
LJ          -3.06717        -3.73525        -6.08829
LJ          -5.69653       -0.018555       -0.710295
LJ          -3.65122        -4.12887        -4.06009
LJ           -2.6239        -5.13135        -2.85156
LJ          -2.93025        -3.06427        -3.80782
LJ         -0.153893         1.26199         4.29241
LJ          -4.04095         -2.0468         5.14425
LJ          -4.78095         -3.1457        -5.33133
LJ           2.71658        -2.73128        -1.80467
LJ          -4.59915         5.29042         6.40086
LJ         0.0531756         3.15688        -1.95534
LJ           4.75321         5.75309         1.09304
LJ          -1.88933        -3.62336        -4.85085
LJ          -2.12326        -5.16766        -5.94187
LJ          -3.22763        -5.25332         -1.7314
LJ          -3.18674        -3.60582        -5.02627
LJ          0.222998         5.62215          3.0466
LJ          -3.78528        -5.08355        -3.35447
LJ         -0.735441        -4.23675         5.17214
LJ          -2.19878        -5.27551        -4.73137
LJ           5.97859        -1.89019        -4.47839
LJ         -0.711323        -5.34598        -5.17132
LJ           4.81426         -6.1563         2.24535
LJ         -0.379568        -4.88456         2.58085
LJ          0.283642         1.73433       -0.191801
LJ          -3.96472        -3.14963         5.19047
LJ          -2.08629        -3.37597        -6.23458
LJ         -0.838336         5.18391         2.57921
LJ           2.97278        0.586576          3.4665
LJ         0.0831826        -4.94233         5.45601
LJ         0.0488905        -4.69509        0.620451
LJ          -2.13844        -2.94693        -1.06071
LJ          -3.39998        -1.71517        -5.44962
LJ           2.50906         1.90279         2.84693
LJ          -2.18026         3.97811        -2.32381
LJ          -3.64878        -4.53708           6.213
LJ           6.05834        -6.31333        -2.78309
LJ          -3.89069        -1.83757         6.16847
LJ          -2.92532        -3.67878         5.47061
LJ         -0.844551         3.44634        -2.51203
LJ          -2.88442        -5.97247        -5.30699
LJ          -3.80819         6.09732         -4.3832
LJ           -3.5663        -2.71723         3.81737
LJ          -3.78021        -5.03811        -4.53163
LJ           6.10908         2.26012        -3.28382
LJ          -4.39537        -2.19291        -5.69567
LJ          -1.18031        -3.91037         6.04211
LJ           4.07314        -2.00918         -4.5668
LJ        -0.0617232        -2.07144        0.449256
LJ           2.99936         4.53076        -4.18182
LJ          -4.56157        -4.80163        -2.15998
LJ         -0.973339         3.31403        -1.43862
LJ          -3.47366        0.470694        -5.83421
LJ          -3.77153          6.3832        -5.84233
LJ          -5.34507        -6.12251         5.06715
LJ          -6.37189         4.75472        -2.89555
LJ          -5.00636        -5.71641        -1.55748
LJ           3.52325        -6.27663        -2.05359
LJ          -1.71667        -5.25145        -3.43317
LJ           -1.3675         5.93672         1.97621
LJ           1.55701         2.84525        -2.30017
LJ          -3.17937         -5.9476        -3.98166
LJ            1.3053         3.90652        -1.97536
LJ           1.34207       -0.851823         2.63703
LJ          -1.30156        -4.02118        -1.50394
LJ           5.10929        -5.64533         1.37245
LJ           4.45854        -3.69168         0.47189
LJ          -2.22642        -4.36442         6.29692
LJ          -4.03888        -5.98928        -4.96029
LJ         0.0076142         2.62049        -3.77382
LJ           6.20971         5.44275         3.25903
LJ          -2.07638        -4.07104        -3.38936
LJ          -1.04272        0.309519        -1.51567
LJ            2.2063         1.26081        -3.43163
LJ          -1.69114        -4.19311        -5.75423
LJ          -3.03741        -2.71988        -5.96981
LJ          -4.58208        0.506823         5.45212
LJ          -6.36289         4.62231        -1.08945
LJ          -3.30105        -5.15798        -5.63552
LJ           1.71023        -4.15035        -1.89747
LJ           3.37326        -5.10676        -1.97826
LJ          -3.48184        -4.23218        -2.83071
LJ          -4.17689        -6.23997         4.91716
LJ          0.779752        -6.35182        -6.11462
LJ          0.862824        -4.47646          3.1679
LJ           1.07435          1.8188        -1.16072
LJ          -1.72956        -3.34955         5.41286
LJ         -0.728847        -4.19015        -5.32148
LJ            -1.027        -3.15191         -5.4084
LJ           1.78161         5.86641         2.98897
LJ           1.35461         -1.9414        -1.07528
LJ           5.49574        -4.38534         1.34819
LJ          -4.07581        -4.39816         -5.7293
LJ           -2.8281        -4.84037         5.47913
LJ          0.286576        -5.24233       -0.660436
LJ          -1.04662        -2.64466         5.54031
LJ          -1.42717        -2.12157        -6.01858
LJ          -3.26838        -5.89979         6.07366
LJ         -0.381862        -6.23593        -0.26506
LJ           -2.7131        -4.82477        -3.79688
LJ          -3.13351        -2.65415         5.81098
LJ          -1.39704        -4.66646        -4.48912
LJ          -1.96786        -2.62743        -5.24098
LJ          -1.52517        -4.58748        -2.53146
LJ          -5.89494        -2.17886         4.35422
LJ          -4.87597         1.05968       -0.487152
LJ         0.0817802       0.0715335         -1.7817
