108
#Comment!
LJ          -3.68422        -4.89255        -5.41897
LJ          -3.84524        -3.94991        -6.10142
LJ           6.35651       -0.993476         0.40514
LJ          -3.82335        -3.32719        -3.63668
LJ          -2.90828        -4.71236        -3.00259
LJ          -2.77673        -3.85342        -4.47549
LJ          -1.25435         1.85192         4.29367
LJ          -4.12417        -2.75137         5.04575
LJ           -3.9636        -2.95849         -5.4053
LJ           1.82779        -2.28217         -2.7071
LJ          -4.13676        -6.37438        -6.22876
LJ           0.80851         3.42188        -1.59933
LJ            4.4467         6.21259         1.51237
LJ          -1.61732        -4.18695        -4.90002
LJ          -2.46287        -5.27976         6.16254
LJ          -4.17392         6.44927        -1.83951
LJ          -3.70148        -3.94332        -4.88114
LJ        -0.0350421         5.23617         2.25346
LJ          -3.77348        -4.71582        -3.71034
LJ         -0.908429        -5.28925         5.65731
LJ          -2.27841        -5.28174        -5.60172
LJ          -6.33543        -2.11047         6.23968
LJ          -1.84111        -6.37559        -3.73665
LJ           5.34055         5.69148         2.18006
LJ          -1.04049        -4.84344          2.6664
LJ          0.424191          2.0848       -0.613472
LJ          -3.37917        -3.52411         5.56091
LJ          -1.47139         -3.3783         5.78106
LJ           -1.1493         5.46028         1.48247
LJ           1.14807        0.156416         2.12007
LJ          0.368383        -5.31181        -6.45857
LJ          0.676553         -6.2746         1.80357
LJ          -1.79689        -2.64378        -2.83776
LJ          -4.00657        -1.78075        -5.70696
LJ            2.3013         0.42701         2.42782
LJ          -1.38632         2.58994        -3.63726
LJ          -4.24362        -4.08523         5.68522
LJ          -6.12503         5.99551        -3.89689
LJ          -2.89369        -2.11162        -6.17833
LJ          -2.58177        -4.04772         6.24728
LJ       -0.00587714         3.10396        -2.37704
LJ          -3.06447        -6.17759        -4.55661
LJ          -4.59643        -5.87407        -3.26421
LJ          -3.60151        -1.82096         3.30578
LJ          -4.18914        -5.62207        -4.14851
LJ           6.21358         2.30358        -2.66417
LJ          -3.85579         -3.0106         6.36854
LJ         -0.603875        -3.26109         5.22179
LJ           4.99379        -2.32493        -3.30201
LJ          -1.49842        -2.31218         1.23775
LJ           3.06256         5.59026        -5.27453
LJ          -4.69752        -5.19284        -2.29005
LJ         -0.746504         3.31056        -1.57623
LJ          -3.94822       -0.706866        -4.44055
LJ          -3.03148        -5.97801        -6.25975
LJ          -4.37641        -5.32912         6.22831
LJ          -5.89867         3.27997        -2.24218
LJ          -5.54839        -4.89364        -3.23771
LJ            4.2705        -5.23995        -1.85134
LJ          -2.20498        -5.49489        -4.24974
LJ           -1.6799         6.42652         2.12306
LJ           1.87343          3.5373        -1.75817
LJ          -3.42932        -5.82245        -3.49651
LJ           1.55665         4.10749       -0.854131
LJ           2.25088        -1.07504         1.29435
LJ          -1.27509        -5.60857       -0.214212
LJ           5.48705        -6.34724         1.37585
LJ           4.94049        -4.06511       -0.182953
LJ          -1.68972        -4.57488        -6.21323
LJ          -4.46919         5.24801         -5.6079
LJ          0.504687         3.49925        -4.58847
LJ           6.31777        -5.81799         3.05252
LJ          -1.75533         -4.4432        -3.67213
LJ         -0.669502         1.15554        -1.97905
LJ           2.86493         1.93478        -2.99223
LJ          -2.60686        -4.15905        -5.55013
LJ          -3.06582        -3.26243         -5.8306
LJ          -3.26438         1.01052         5.45802
LJ          -5.35581         5.64179       -0.982965
LJ          -4.42452        -5.83545        -5.26382
LJ          0.859998        -6.45095        -2.51908
LJ           4.40545        -4.42679        -2.56855
LJ          -5.03445        -4.12463        -2.35689
LJ          -3.50705        -5.73156         5.42868
LJ         -0.168511        -6.21563        -5.82558
LJ           2.64684        -2.69729          3.4297
LJ           1.58578         3.15148        -0.39454
LJ          -1.95986        -2.52634          5.3622
LJ          -1.32284         -2.9674        -5.34159
LJ          -2.39033        -3.00572        -4.86664
LJ          0.642277         5.86941         3.01336
LJ           1.17907        -1.71771        -1.00172
LJ           6.01708        -2.51573          1.6243
LJ          -4.68215        -4.70449        -5.69483
LJ          -1.63493        -4.35308         5.58916
LJ         -0.436128         -5.3294        0.569599
LJ         -0.917946        -2.54673         6.07459
LJ          -2.09355         -2.5869        -5.71042
LJ          -3.08153        -4.40693         5.33599
LJ          0.242999         -6.1904        0.661286
LJ             -3.07        -4.90121        -4.52512
LJ          -2.47979        -2.96246         6.16975
LJ          -1.26686        -5.33682        -4.73618
LJ          -2.77293        -1.77735        -5.15955
LJ          -1.83607        -5.51424        -1.41862
LJ          -5.16913        0.094124         3.76399
LJ          -4.62307       -0.450938       0.0258315
LJ          0.374966        0.839606          -1.574
