108
#Comment!
LJ          -3.07883        -5.94566        -4.53576
LJ          -1.92348        -4.62032        -6.45241
LJ           1.28845        -2.19553        -2.90941
LJ          -2.44125        -2.46273        -3.95713
LJ          -2.64813        -3.30486        -3.06048
LJ          -3.79947        -4.06131        -3.29479
LJ          -2.06367         2.36191        -5.46458
LJ            6.3596        -2.43982         5.20734
LJ          -5.52524        -4.34734          6.4255
LJ          -1.36127        -1.92091        -6.05944
LJ           -4.5528        -5.54598        -6.14573
LJ           2.33353         4.93283       -0.437479
LJ           3.65221         4.94904         0.59341
LJ          -3.28805        -2.42623        -2.96498
LJ          -1.68842        -2.94342         5.69099
LJ          -6.15403         5.48606        -4.00203
LJ          -4.58952        -2.25063        -4.85844
LJ          -2.42336         4.25178        -1.12938
LJ          -2.97913       -0.680677        -4.50201
LJ          -3.16677         6.01205        -5.37477
LJ          -1.96405        -4.29528        -5.43418
LJ          -2.77104         5.55708          6.2435
LJ          -3.79106        -6.36192        -6.20473
LJ           5.20264         5.16459        -0.52643
LJ          -1.87598         4.41819        -2.10001
LJ          0.252423         1.43284      -0.0711722
LJ         -0.730919        -2.99778        -5.91298
LJ         -0.883827        -5.02521        -5.75859
LJ          -1.92298         4.43769         3.37557
LJ          -1.61992        -2.82021        -1.05997
LJ          -2.37876        -4.30264        -4.21961
LJ          -3.30374          6.4226         1.52589
LJ          -3.72949        -1.22357        -5.21472
LJ          -3.12037        -3.82282        -5.51584
LJ          -2.55255         -4.8093         -1.8555
LJ           2.74961        -3.03117         5.64782
LJ            2.3942        -2.36201        -4.63837
LJ          -3.56424        -5.64763        -5.54406
LJ          -2.06545        -3.14669        -6.27973
LJ           -2.0486        -4.39271         4.88496
LJ           2.41426          5.4237        -1.51631
LJ          -4.53222        -5.99888           -5.05
LJ           3.45259        -6.04227        -1.86908
LJ           -3.9774        0.879494         3.28545
LJ          -2.13883        -5.66572        -5.15149
LJ           5.44097         1.78158       -0.463728
LJ          -2.95228        -4.05264         6.39492
LJ         -0.758277        -2.29686         2.84961
LJ          -4.15617        -1.03599        -4.22623
LJ          -6.42411        -1.27245        -1.34693
LJ           3.22877         -2.7636         2.95915
LJ           5.74789         5.63326        -3.57926
LJ           2.37401         4.33591        -1.31332
LJ          -3.83336        -1.33604        -3.04533
LJ            -3.758        -4.87392         6.31315
LJ            5.8459           -3.15         5.72452
LJ          -2.87368        -2.06172         1.29392
LJ          -2.97622        -1.57413        -6.16317
LJ           4.67619         6.33212         1.46043
LJ           -4.0336        -4.65839        -5.51524
LJ          -3.64247         6.32307          5.7797
LJ           1.42313         5.35738        -2.01781
LJ          -2.74614        -5.18017        -5.98012
LJ           4.90442         5.67143        0.431205
LJ           5.77358         -2.9362        -4.60948
LJ          0.982737         5.33446         6.00018
LJ           5.56272         5.08737         1.29743
LJ           3.33485        -6.16285        -5.68676
LJ          -1.49459        -3.46505        -3.45749
LJ          -6.21106        0.701175        -5.97383
LJ           1.50738        -6.01308         5.55022
LJ          -6.41549        -1.75133         6.04452
LJ          -2.92947        -4.86182        -3.15401
LJ           1.82837         3.78764        -2.09185
LJ           3.47981         4.97688        -0.54157
LJ          -2.83192        -3.26043        -4.73872
LJ          -2.86261        -1.91323        -5.02244
LJ          -0.60997         5.15915         1.66346
LJ          -3.13726        -4.74131        -4.93023
LJ           6.12556         4.59285        -3.37808
LJ         -0.902527        0.764863        -5.50864
LJ          -1.70004         -1.3123        -2.80744
LJ           4.53022        -5.69258         -1.2483
LJ          -1.14699        -3.71662         -5.3213
LJ          -1.04605        -2.87362        -4.54788
LJ          -1.62679         4.47684         4.65507
LJ           5.93678         6.12355         0.97533
LJ         -0.734192        -4.38883         5.96867
LJ          -3.72068         -1.9646        -4.02815
LJ          -3.02568        -1.31989        -2.27067
LJ           1.35273         6.26149       -0.598244
LJ            1.3981        -1.00448        -1.46103
LJ          -5.09197        0.186073        -3.92684
LJ          -5.04587        -4.09174          5.1775
LJ          -1.25525        -4.77072        -4.63722
LJ           1.68902         5.84534         -6.1735
LJ          -1.95236        -2.64398        -5.33075
LJ          -3.06742        -2.73236        -5.68717
LJ          -1.16134        -6.11683           6.456
LJ         -0.965252        -6.10091         4.00944
LJ          -3.76839        -3.93019        -4.59999
LJ          -1.29343        -3.80756         -6.3526
LJ          -3.02532        -5.76404         6.12683
LJ          -6.04455        -3.57429         6.03246
LJ           0.62253        0.463508       -0.493123
LJ           -2.3946        -6.40471          5.3193
LJ          -4.01465        -4.56264         5.26675
LJ          0.543476          2.4234         -1.0595
