108
#Comment!
LJ         -0.980091         6.21081         6.14387
LJ          -1.75149         5.23011        -5.13781
LJ          -3.79623        -1.03853        -2.13468
LJ          -3.26267          4.8741        -4.47695
LJ            4.0139         3.94274        -2.59791
LJ          -3.54996       -0.032379         5.99888
LJ           6.02613         4.47178        0.784646
LJ          -3.24889         1.13861         5.84216
LJ         -0.421694        -5.06848        -4.99731
LJ           1.00116        -1.42342         5.84891
LJ          -0.76826        -2.78636        -4.02754
LJ           3.67981        -6.28448          3.7636
LJ          -4.82127         5.41606         3.78942
LJ           6.38251         4.65253          5.9758
LJ           -5.3077         2.29818        -5.13685
LJ           3.72572       -0.522596        -1.47472
LJ           3.78884        -1.88162         4.31827
LJ           2.63436        -5.27789        -3.81762
LJ           5.43566        -1.69221        0.369229
LJ          -2.70371        0.200359        -4.19318
LJ         -0.447949        -3.10711        -3.06667
LJ           1.15527         6.31469        -5.45251
LJ           1.21376        -6.41182         1.52172
LJ          -2.20698        -1.19235        -2.77171
LJ           1.67316          3.5619       -0.851589
LJ          0.589338        -2.41209         3.95151
LJ          0.349829        -1.85996         4.88619
LJ          -2.39091         3.97729        -3.97443
LJ         -0.609118        -2.57283        -1.98898
LJ            6.3381        -2.32455       -0.314751
LJ          -2.18852       -0.414695        -1.69908
LJ           4.80306       -0.488492        0.821701
LJ           0.49571        -3.01241         4.96045
LJ           -4.1225        -3.78373         5.58202
LJ           4.26654        -2.48459        -3.64546
LJ           5.45826         3.98955         5.69006
LJ          -1.39624        -2.66003        -2.77887
LJ           3.38917         2.40365          4.9255
LJ           5.19427        0.668042        0.749697
LJ           5.43951        -2.93734        -2.36085
LJ           6.12825       -0.862829         5.28026
LJ           5.30556        -5.45081         3.99452
LJ           2.76368         3.71335       -0.539612
LJ           4.74448        -1.49447         4.28372
LJ          0.485256         6.06729        -4.10412
LJ           2.12489           3.402         4.62955
LJ         0.0629303        -5.96706        -6.09189
LJ            3.1987         3.66307         1.99867
LJ           6.38148         5.38732        0.539989
LJ          -1.64788         -6.2676         1.52893
LJ          -5.42907         -2.8483         5.48826
LJ           1.59494         5.69464        -3.72097
LJ          -4.63274         2.09993        0.912892
LJ          -3.90838        -1.52233        -3.02611
LJ          0.282344        -4.81456        -5.78778
LJ           6.08574       -0.564086         1.48048
LJ          0.415962         6.02581         6.20715
LJ            3.9917      0.00205913        -3.10212
LJ           2.42424           3.217        -2.00757
LJ           5.31875        -6.23688         2.55655
LJ          0.379968        0.981673        -1.38488
LJ           2.09765        -2.24998        -2.08564
LJ         0.0233461        -6.46243        -4.98134
LJ          -5.46456          2.7311        0.639484
LJ            2.5093        -1.71282         1.19829
LJ          0.154737          6.0307        -2.78379
LJ          -4.18646        -2.37211        -3.78635
LJ          -3.28419       -0.823815         4.27431
LJ          -4.80317         -1.9563         1.24926
LJ           3.59037         6.13485          2.7033
LJ           3.79057        -5.35399         5.04483
LJ          -5.76706        -3.65699         4.73106
LJ           -4.4921        0.895488         -5.9992
LJ           -3.8615         2.85699        0.961731
LJ           5.42904        -2.84323        0.143185
LJ          -3.44131        -3.41142         0.53948
LJ          -2.36358         3.74378         5.42482
LJ          -2.89125         1.09053         4.13236
LJ          -3.43133         1.08929        -3.60405
LJ           2.81004         3.95651        -2.85095
LJ          -1.82547       -0.862962        -3.76537
LJ          -1.81691          2.0848         4.20853
LJ           3.41583        -3.63003         1.54291
LJ           3.57166         4.02671        -1.53767
LJ           4.84356       -0.918328        -1.30852
LJ          0.422132        -4.23379        -4.88006
LJ           5.88432        0.378684        -2.53685
LJ          -6.30838         3.22826         6.29912
LJ          -1.12803         1.32415         3.71926
LJ          -5.84069        0.975773        -4.62014
LJ          0.448358       -0.255677         5.79219
LJ          -3.03075         3.04191        -4.24528
LJ          0.347424        -5.66718        -4.23356
LJ           6.19851          5.9476         1.60724
LJ         -0.185465         5.52051          3.2779
LJ           6.38973         3.59457          5.2407
LJ           3.34011       -0.750134        -2.43302
LJ           2.67944        -5.47142         5.00141
LJ           1.02603          5.0668        -5.81018
LJ         -0.588259         1.96275         2.61649
LJ          -3.42057        0.660938        -5.92297
LJ          -1.85693      -0.0503789         3.47733
LJ          0.483253         4.66362         3.73453
LJ           2.81024        -1.58303        -1.55887
LJ          -0.25225        -2.27424       -0.935352
LJ           1.57768         5.58186         6.04188
LJ           5.83271        -1.87987         1.63152
LJ            2.5098        -0.68381        -1.19754
