108
#Comment!
LJ          -2.01064         6.40778        -5.64574
LJ          -2.95876        -3.79681        -5.99733
LJ          -2.54768        -2.71715         -4.3557
LJ          -2.42595        -2.27316        -3.14405
LJ            0.1402        -2.18161        -3.13775
LJ           -3.8885        -1.76648        -5.16509
LJ            3.6522         2.95439        -1.11634
LJ          -4.94104        -2.01219        -5.50682
LJ          -2.55079        -3.64735         4.86078
LJ          -4.57583        0.205835        -3.16235
LJ         -0.345283          5.3465         6.09426
LJ            1.2617        -5.60528       -0.847616
LJ           4.55668          5.9892         1.91562
LJ          -2.25295        -1.20509         -2.9426
LJ          -1.95677        -3.67164        -4.34334
LJ           5.77488         2.22966        -1.98221
LJ          -1.93934        -2.03034        -2.29808
LJ          -4.66977        0.388146        -5.64445
LJ          -4.32935       -0.943463         -3.1307
LJ          0.628687         1.23111        -3.49919
LJ          -4.12862        -3.74885        -4.39309
LJ          -1.01844         4.71795        -3.24425
LJ          -1.68085         4.28829          2.9193
LJ           4.02808        -6.10704        0.556173
LJ          -3.66513        0.996453        -5.74844
LJ           4.78538         2.87649        -1.09062
LJ          -1.51859        -2.59369        -4.96383
LJ         -0.138917         6.11753        -3.98705
LJ          -1.03672          6.1315        -3.34067
LJ          -5.56617        -1.02184        -3.25841
LJ          -4.42525        -1.50377         6.16116
LJ          -4.10001        -3.44521        -2.33232
LJ          -1.21403          -1.325        -3.19278
LJ           -1.8771         -2.2496         6.25488
LJ          -2.70358         4.85775        -6.13941
LJ          -6.21459         3.29577       0.0688285
LJ          -2.04451        -1.79638        -4.20073
LJ          -1.42763         4.76156         4.41916
LJ          -3.16251        -1.57254        -3.27353
LJ          -2.76009        0.703344         -1.7758
LJ           5.28381        -5.18662         1.79716
LJ          -5.38906        -0.78028        -5.54831
LJ           1.14533        0.930986      -0.0552136
LJ           -4.5533         4.00923         3.28084
LJ          0.633667         4.72831        -6.01191
LJ           4.04308         1.41523         2.03436
LJ          -1.28362        -5.65944        -5.77404
LJ         -0.469184         4.99172         4.13612
LJ          -4.37984       -0.741515        -5.18173
LJ           2.46192          1.6295         3.03577
LJ           4.83493         1.29529        -1.87151
LJ            4.6654         3.68949        -2.48687
LJ           5.07724         4.25541        0.515577
LJ          -4.42228        -1.06209        -2.06991
LJ          -2.87604        -3.50271         -4.8938
LJ          -5.09175        -1.41004        -4.43803
LJ          0.982657        -5.21053         4.37884
LJ          -3.65852       -0.291947        -3.67365
LJ          -1.67361         1.51967        -1.44831
LJ          -3.68289         -2.8273         5.35833
LJ         -0.259686        -6.06178         6.41229
LJ           3.46014        -5.27849       -0.377756
LJ         -0.822991         6.13312        -4.84149
LJ           5.26524         5.16167         1.12239
LJ           5.42688        -1.32701         6.26694
LJ          0.962895        -5.10204        0.217248
LJ          -1.76568         2.60877        -1.14513
LJ           6.06485         2.99847         2.01171
LJ          -3.23938       -0.985373        -5.10992
LJ           4.04601        -3.57116        -3.48259
LJ           3.08719        -6.38019         2.65992
LJ          -5.13062        -4.74706         1.14633
LJ         -0.190024        0.209036         -4.2999
LJ           4.93081        -5.99963       -0.952963
LJ           4.45786        -5.86909         1.76259
LJ           -3.7961        -2.85808        -4.87627
LJ          -4.64037        -0.56659        -4.08472
LJ            -1.231        -4.10659     -0.00336499
LJ           -3.7511        -4.49895        -6.38214
LJ           5.44772         2.78238        -3.12453
LJ          -3.03107          0.6295        -3.04325
LJ          -1.84869       -0.254572        -2.21585
LJ          -5.42745         6.46301       -0.416399
LJ           -2.1889         6.40001         6.09341
LJ          -3.94147          1.5844        -4.68554
LJ           1.98228        -6.10695       -0.277566
LJ           4.54727        -5.09999        0.759011
LJ          -2.23511        -3.47291         6.19239
LJ           -2.9582       -0.506092        -2.78053
LJ          -2.44971       -0.624562        -3.80746
LJ         -0.782885        -1.68593        -2.16135
LJ          0.228261        -1.37359         -4.1617
LJ          -3.57771        -3.25678        -3.36182
LJ           5.70499        -0.88446        -5.45712
LJ          -1.43399         5.34133        -3.94291
LJ          0.704691         3.58419        -2.27644
LJ          -3.57498        -2.28848        -3.98258
LJ          -4.73193        -3.34322         5.49703
LJ          -1.56083         5.18452         6.16586
LJ          -1.57142        -5.99307         -4.5503
LJ          -2.85677        -1.98956        -5.05765
LJ           -3.6257        -4.49453        -3.82542
LJ          -1.18757         5.18355        -5.48527
LJ           1.04576        0.368602         3.63584
LJ           2.22417         1.29616        -5.61204
LJ         -0.959845         6.05225        -6.09804
LJ          -5.99174        -2.20854        -5.20217
LJ          -2.17403        -1.43935         4.08309
