108
#Comment!
LJ          -2.82843        -6.38183        -6.29686
LJ          -2.29989        -3.20897         6.30471
LJ          -2.36061        -2.46083         -3.2505
LJ          -3.05295        -2.54601        -2.36755
LJ          -1.74284        -2.72599        -2.43329
LJ          -4.19205        -2.06538        -5.64803
LJ           3.16362         3.15679        -2.74788
LJ           6.21279        -4.40339        -6.11528
LJ          -3.28472        -2.54062         5.76863
LJ          -4.26877        -1.69898        -3.91482
LJ          -1.05429         6.05955         6.04366
LJ           1.78332        -5.80998       -0.975202
LJ           5.03891        -6.27809          1.8011
LJ          -2.30089        -1.57739        -2.12161
LJ          -3.26266        -5.45638         5.65424
LJ           5.39413         2.96044        -2.91335
LJ          -2.39063        -1.32655        -3.40772
LJ          -3.39419         2.82399        -4.21019
LJ          -3.19983       -0.979077        -2.79927
LJ           4.74076        -1.57567        -3.86486
LJ          -2.68586         -3.0795        -4.24799
LJ          -1.89053         5.56362        -3.63634
LJ          -2.68307          4.9731         4.59121
LJ           4.24813        -6.15904        0.738906
LJ          -3.03636         2.01049        -4.92217
LJ           3.33879          1.4001         -1.1466
LJ          -2.35976        -2.83465        -5.51777
LJ          -0.77458        -6.02426        -5.52408
LJ         0.0891096         5.30095        -5.22688
LJ          -4.71369        -2.53242        -3.02627
LJ          -3.80322        -2.99629        -4.97696
LJ           -4.7174        -4.45176        -1.99746
LJ          -2.28238       -0.179555        -2.89448
LJ           -1.2428         -3.4166        -6.13901
LJ          -2.85256        -6.28248        -5.11852
LJ           6.01304         5.18051         2.69289
LJ          -1.45099       -0.938901        -4.29758
LJ          -2.00097         6.25884         5.32044
LJ          -3.77629        -1.42445        -4.86072
LJ          -2.18493         3.11012        0.243775
LJ           5.17331        -6.03175        0.277095
LJ          -4.48176        -4.41605         6.43555
LJ           1.79921        -1.54943       -0.386435
LJ          -4.39132         2.87004         3.30445
LJ          -1.44711         5.01043         5.97165
LJ           4.66287         1.52092          1.3157
LJ          -1.62225        -5.92954         6.21006
LJ          -1.12385        -5.41927         2.91076
LJ          -3.10787        0.948374        -4.62529
LJ           3.08542       -0.432979         5.43688
LJ           3.78287        0.499539       -0.565734
LJ           4.80662         3.89356        -3.60782
LJ           4.76194         5.30872        0.288913
LJ          -4.21377        -1.41004        -2.67388
LJ          -4.35937        -4.02744        -5.31817
LJ          -4.62457        -3.01016        -3.98259
LJ          0.336436        -4.76568         3.84838
LJ          -2.56033        -1.10665        -5.38308
LJ          -4.40113         3.79683        0.383316
LJ          -4.16817        -3.06179         5.92972
LJ         -0.377675        -6.10203         6.25016
LJ           3.93015         5.96286       -0.211943
LJ          -1.96448        -5.78899        -5.57645
LJ           4.88581         4.33199        0.683571
LJ           5.41458       -0.872005         6.27268
LJ           1.06873        -5.46339         -1.9212
LJ          -4.43247          4.3959       -0.530581
LJ           3.66162         4.11616         4.04298
LJ          -2.03915        -2.01542        -4.46055
LJ           4.22437        -2.59702        -4.27909
LJ           1.02595          6.4461         1.65802
LJ          -4.91266        -5.08615         4.29291
LJ           4.01912        -1.03387        -2.87271
LJ           3.95512        -2.34549        -1.11869
LJ           3.08604         6.45584         1.39098
LJ          -2.99971        -2.17781        -5.91116
LJ          -3.55603        -2.64239        -3.32087
LJ          -1.07895        -5.52466        -1.88621
LJ           -3.1889        -4.56042        -6.37436
LJ           5.27664         3.95062        -2.56853
LJ          -3.32901       -0.394933        -4.92332
LJ          -1.47184        -1.01753         -2.8653
LJ           5.11499         6.44386        -2.33248
LJ          -1.60876        -5.20177         5.14721
LJ          -2.88057         4.05508        -4.43029
LJ           1.94167         6.01354         2.62159
LJ           4.90589         6.20098       -0.740776
LJ         -0.982651        -5.79888        -3.76727
LJ          -3.03785        0.291799        -3.56235
LJ          -1.68533       0.0186853        -1.82845
LJ            0.4801        -3.73126       -0.856844
LJ          0.873455        -1.33227        -3.18815
LJ          -4.95808        -1.92912          -1.876
LJ          -6.39524        -2.21758        -6.21544
LJ          -1.58459         6.15773        -4.36655
LJ           1.13404         4.80717        -3.32136
LJ           -3.1292        -1.86582        -4.11752
LJ          -3.49057        -3.24559        -5.91918
LJ         -0.888129         5.15952        -4.58954
LJ          -2.14471        -4.89365         6.27369
LJ          -3.88634        -0.98276        -6.36414
LJ           -2.4415        -3.99153        -5.37458
LJ          -1.05388            5.15        -5.72541
LJ           4.01549        0.217062           4.348
LJ           2.39819         1.14143         -3.1565
LJ          -1.50417         6.21882        -5.90877
LJ          -6.02853        -3.08351        -5.78931
LJ          -1.29896       0.0598521         2.28431
