108
#Comment!
LJ          -2.81717        -5.87562        -6.43315
LJ          -2.26499        -2.89189         5.82375
LJ          -2.23536        -2.47549        -3.61833
LJ          -3.22577        -2.62249        -2.42036
LJ          -2.04965        -2.61056        -2.28361
LJ          -4.14129        -2.72927        -5.52417
LJ           2.46516         3.06387        -3.11833
LJ           6.18874        -4.35681        -6.15639
LJ          -3.23499        -2.92975         5.14465
LJ           -4.1411        -1.80502        -4.37586
LJ         -0.925153         5.82258         6.11478
LJ           1.64759        -5.63743        -1.08612
LJ           5.11191        -6.12219         1.94044
LJ          -2.80657        -1.72738        -2.85639
LJ          -2.52705        -5.67382         5.19509
LJ            5.5922         3.24352        -3.27002
LJ          -3.07933       -0.859427        -3.77989
LJ          -3.02607         3.33276        -4.12751
LJ          -3.63427       -0.962215        -2.66393
LJ           5.62272         -2.2097         -3.8152
LJ          -2.51514        -3.27707        -4.25032
LJ          -2.64815         5.58321        -3.36577
LJ          -2.58148          5.2117         5.24118
LJ           4.30868         6.03833        0.895601
LJ          -3.13119          2.1992        -4.20796
LJ           2.97839         1.08574        -1.14165
LJ          -1.63117        -2.87032        -5.55827
LJ          -1.39835        -5.63902        -5.69387
LJ         -0.163402         5.46558         -6.2156
LJ          -4.04581        -3.22895        -2.76748
LJ          -3.54959        -3.08076        -4.43743
LJ          -4.73172        -4.95432        -1.48536
LJ          -2.47717        0.239211        -2.77198
LJ          -2.00237         -4.0515        -6.16574
LJ          -2.89901        -6.11734        -5.25076
LJ           5.61433         5.72915          3.2439
LJ         -0.711742         -1.0323        -4.35033
LJ          -2.92596         6.27997         5.70923
LJ          -3.49372        -1.47177        -5.16477
LJ          -2.19143         3.89823         0.79912
LJ           4.73283        -6.34769       -0.338847
LJ          -3.71256        -5.20176        -6.41854
LJ           1.97507        -2.17876       -0.493348
LJ          -4.33743         2.60242         3.30514
LJ          -1.71004         4.49096         6.08331
LJ           4.79909         1.55299         1.11266
LJ          -1.90748        -5.43561         6.21099
LJ          -1.16263         -4.6089         2.54605
LJ          -2.91934        0.552625        -4.55299
LJ           3.71353        -0.43578         6.26865
LJ           3.46541        0.346476       -0.290532
LJ           4.99581         4.03546        -3.63753
LJ           5.24857          5.5397        0.298136
LJ          -4.13351        -2.01875         -2.5561
LJ          -4.44147         -3.7428        -4.86267
LJ          -5.09262        -2.90849        -4.61525
LJ         0.0496607        -4.73195          3.6865
LJ          -1.88717         -1.3295        -5.15374
LJ          -4.94727         4.26707        0.731059
LJ          -4.42372        -3.37149         6.34317
LJ         -0.810813        -5.84618         6.12148
LJ           3.67827         6.28896       -0.435589
LJ          -2.29053        -5.19986        -5.71714
LJ           4.90638         4.11278        0.461574
LJ           5.41463       -0.919363        -6.43691
LJ           1.34317         -5.7796        -2.23852
LJ          -5.09075         4.71657       -0.357713
LJ           3.06851         4.42041          4.4908
LJ          -1.63323        -1.54721         -3.8662
LJ           4.17557        -2.27463        -4.48214
LJ          0.849497         5.97605         2.33797
LJ          -4.81681        -5.16051         5.14576
LJ           5.22003        -1.53228        -2.70482
LJ           3.79439        -1.30593        -1.29741
LJ           2.86006         6.34346        0.876752
LJ          -3.16122        -2.50564        -5.26308
LJ          -3.43389        -2.32384         -3.7546
LJ         -0.989087        -5.86095        -2.05874
LJ          -2.95838        -4.31218        -6.03127
LJ            5.3784         4.09878        -2.56024
LJ          -2.77669       -0.475899        -4.95237
LJ          -1.70487       -0.889358        -3.14087
LJ           4.43166         6.42126         -2.4533
LJ          -1.26022        -4.80512         5.45362
LJ          -2.50819         4.63571        -4.34453
LJ           1.83284         6.43035         2.64325
LJ           4.87041         5.54132       -0.898103
LJ         -0.788514        -5.83494        -3.42414
LJ          -3.40674        0.296685        -3.51757
LJ          -1.58167       -0.477616        -2.13844
LJ          0.804014        -4.42293       -0.726202
LJ          0.942843        -1.22475        -2.81949
LJ          -5.03707        -1.55088        -2.02002
LJ          -6.22103        -2.48877         6.16703
LJ           -1.3033        -6.28314        -4.82264
LJ           1.32341         5.10981        -3.62049
LJ          -2.81804         -1.7605        -4.44282
LJ          -2.98085        -3.33098        -5.91301
LJ         -0.790673         5.58171        -5.13553
LJ          -2.49974        -4.59677         5.80225
LJ           -4.2892        -1.59481        -6.00004
LJ          -2.22967        -3.84326        -5.02199
LJ           -1.3351         5.09165        -6.00241
LJ           4.32213       -0.337605         4.29827
LJ           2.48553         1.03014        -2.41741
LJ          -2.02627         6.31631        -5.59283
LJ          -5.60158        -3.58395         -6.0279
LJ          -1.08229        0.430909         1.83778
