108
#Comment!
LJ          -3.66097        -5.32128         -5.6405
LJ           -3.7852        -4.24176        -6.03724
LJ           5.88119        -1.41618        0.644847
LJ          -3.32284         -2.6252        -3.38885
LJ          -2.38138        -4.61584        -2.95431
LJ          -2.58029        -4.06184        -4.25084
LJ          -1.84799         2.14562         4.31003
LJ          -4.71017        -2.81766         5.54931
LJ          -3.83976        -2.92182        -5.71731
LJ           1.30092        -2.00776        -3.06159
LJ           -4.3448          6.2067        -6.00403
LJ          0.658463         3.25823        -1.45919
LJ           4.66521         6.19451         1.90869
LJ          -1.67672        -4.56242         -4.6774
LJ          -1.95083         -5.6846         6.08399
LJ          -5.23863         6.07854        -2.45231
LJ          -3.52801        -3.78344        -4.64568
LJ         -0.315047         5.11356         1.80049
LJ          -3.81165        -4.29432        -3.64859
LJ         -0.935197        -5.77274         6.35303
LJ          -2.65105        -5.12189        -5.97906
LJ           -5.9252        -2.26376         5.10177
LJ          -2.99028        -6.38906        -3.46332
LJ           5.58923         5.63666         1.61313
LJ          -1.35152        -4.99456         2.58829
LJ          0.220978         2.46538        -1.03054
LJ          -2.84855        -3.03562         5.35772
LJ          -1.62196        -3.43404         6.31793
LJ          -1.48953         5.79586          1.2138
LJ          0.850771        0.304378         1.71975
LJ         -0.100116        -5.16569        -6.25923
LJ           0.83466         5.78295         1.75727
LJ          -1.71954        -1.96928        -3.94748
LJ          -4.62466        -2.14167        -5.33235
LJ           1.55564       -0.577766         1.98496
LJ         -0.894114         1.91676        -4.16773
LJ           -4.4467        -4.10647         5.48178
LJ          -5.57044         5.78812        -4.42957
LJ          -3.15165        -2.43364        -6.35625
LJ          -2.32384        -4.23529         6.21803
LJ          0.355892         2.69397        -2.40607
LJ            -3.422        -6.03567        -4.53945
LJ          -4.17801        -6.39638        -3.03113
LJ          -3.62906        -1.39932         3.30118
LJ          -4.35991        -5.53157        -4.05137
LJ           6.08526         2.32014        -2.42328
LJ          -3.69223        -3.42793         6.12314
LJ         -0.926613        -3.08295         4.62667
LJ           5.47498        -2.53372        -2.63585
LJ          -2.24389        -2.44648         1.64948
LJ           3.09026         6.14322        -5.84093
LJ          -4.89871        -5.48176        -2.60734
LJ         -0.398434         3.23342        -1.68529
LJ          -4.04519        -1.76895        -4.05139
LJ           -3.5046        -6.11333         6.21784
LJ          -4.64119        -5.58319         6.17357
LJ          -5.46453         2.56023        -1.78349
LJ          -5.55872        -3.97896        -3.66625
LJ           4.71064        -4.55738        -1.78638
LJ          -2.35282        -5.28141        -4.43637
LJ          -1.48065        -6.40065          2.0069
LJ           2.06053          4.1602        -1.51501
LJ           -3.2438        -5.32437        -3.56785
LJ           2.02603         4.55701       -0.448722
LJ           2.69847        -1.34011        0.505464
LJ          -1.02652        -6.34955        0.440597
LJ           5.09635         6.15988        0.857984
LJ           5.21159        -4.29813       -0.547349
LJ          -1.48351        -4.35952        -5.77456
LJ          -4.55573         4.42444        -5.69307
LJ          0.725073         3.95819        -4.91375
LJ          -6.31309        -5.10793         3.80629
LJ          -1.42895         -4.9255        -3.33357
LJ         -0.293296         1.80857        -2.13865
LJ           3.16553         2.33587        -2.71556
LJ           -2.7046        -4.18185        -5.47391
LJ          -2.55178        -3.24699        -6.05585
LJ          -2.55865         1.26024         5.45225
LJ          -4.72313         6.25366        -1.09453
LJ          -4.54805        -5.75907        -5.46691
LJ          0.409008         5.26799        -2.83101
LJ           4.94025        -4.13439        -2.76372
LJ          -6.30866        -4.48944        -2.30944
LJ          -3.28379         -4.6783         5.79604
LJ         -0.999809        -6.05684         -5.6054
LJ           3.56241        -1.76704          3.5552
LJ           2.00884         3.33143        0.264524
LJ          -1.01146        -2.11904         5.48495
LJ          -1.27621        -3.29055        -4.93099
LJ          -3.03203        -2.88222        -4.33582
LJ        -0.0602202         5.96696         3.01477
LJ           1.14832        -1.63668        -1.06934
LJ           6.29925        -1.70087          2.0253
LJ          -5.07563        -4.59348        -6.10699
LJ           -1.2861         -4.7259         6.07801
LJ         -0.763377        -5.70747         1.45263
LJ          -1.23061        -2.58496        -6.16678
LJ           -2.4292        -2.29855        -5.53093
LJ          -2.12693        -4.72292         5.31068
LJ          0.560212        -5.95703         1.65062
LJ          -3.39084        -4.84613        -4.61841
LJ          -2.10501        -2.40919         5.91909
LJ          -1.51992         -5.2952        -5.32261
LJ          -3.57916          -1.799        -5.55763
LJ          -1.71261        -6.35353        -1.22583
LJ           -4.7555          1.2599         3.46724
LJ          -4.53189        -1.19992         0.32653
LJ          0.503318         1.26507        -1.49918
