108
#Comment!
LJ           -1.9661        -4.37931        -4.42856
LJ          -1.27047        -4.03118        -5.28844
LJ          -3.96404         3.13162        -4.98711
LJ          -4.16815        -4.08665        -3.68265
LJ          -1.63008        -6.25023         -3.4736
LJ          -1.24503        -2.45394        -4.26514
LJ          0.292404         -4.1266         3.89362
LJ           5.40059         -2.8221          5.2845
LJ           6.19932        -1.94791        -5.40468
LJ           4.43058        -1.43159         2.81028
LJ          -4.45235         4.23114        -4.03373
LJ          -2.09077         1.81682        -3.37293
LJ          -6.32186          5.7181         3.23158
LJ          0.042076        -3.40008         -3.6024
LJ          -1.54845        -5.83698        -4.90582
LJ           -1.3273        -5.30054         -2.8638
LJ          0.927258         2.01393          5.0681
LJ           2.36653         5.56616         4.89867
LJ          -1.84565        -5.26393        -3.85895
LJ          -3.37696        -3.61154        -5.93443
LJ         -0.814938        -4.20868        -4.13327
LJ          -6.10847        -2.90339         4.99576
LJ         -0.242439        -5.19592        -4.67782
LJ           1.49994         4.23026       -0.743075
LJ          -1.76296         5.61127         0.63567
LJ          0.210869       -0.038651         -2.9011
LJ           -3.8059        -5.01893        -4.08722
LJ          -2.33235        -4.66014         5.96097
LJ           2.02516         5.43606         5.97008
LJ          -6.00947         5.34619        -5.60898
LJ         -0.187659        -2.98257          2.8884
LJ         -0.658849        -1.95382        -3.05767
LJ          -3.48316         3.92946         3.96353
LJ          -1.54532        -1.97588        -5.19096
LJ           4.69271         1.17353         6.25022
LJ          -3.61205        -3.19872         2.88969
LJ          -3.83187         6.27026          -5.566
LJ           4.24911        -5.38348       -0.829418
LJ          -2.94508        -3.75128        -4.67454
LJ          -2.23454        -3.30734        -6.09552
LJ         -0.941057       -0.287951        -3.12743
LJ          -4.14204        -5.49823        -5.97404
LJ          -2.41808        -4.89408         4.54669
LJ          -5.74932        -5.51143         5.77996
LJ          -2.84741         -4.5535        -3.80689
LJ           5.89202         2.63626         -5.5861
LJ          -3.13714        -2.74712        -4.99359
LJ          -1.44331        -4.06471        -6.34661
LJ           1.67441     -0.00829373         4.32279
LJ           1.60241        -1.20256         3.81806
LJ           1.96231        0.328879        0.197563
LJ          -4.19421        -4.39624        -4.97488
LJ         -0.553046        0.223666        -2.10919
LJ          -2.21002         3.33982        0.673712
LJ          -2.93282        -5.56284         6.37157
LJ           4.48271         5.11286        0.559856
LJ           3.62672       -0.975009        -1.33353
LJ          -2.88873        -5.34449        -3.12431
LJ         -0.465854         4.86712        -0.94865
LJ          -2.33782         -3.8229         2.43403
LJ         0.0933409          2.3847         4.21354
LJ          -3.64679       -0.214636         -4.2847
LJ          -1.99125        -5.33825        -5.93209
LJ         -0.196339         2.21852        -3.88284
LJ           1.42206         1.49975        -6.00372
LJ         -0.101427         -3.0431         -6.3623
LJ           2.07107         5.46311        -2.52165
LJ           5.34851        -2.95326         2.64765
LJ          -2.33252        -4.32999        -5.59421
LJ          -2.71467        -5.51538        -4.68412
LJ           -2.8821        0.453568        -3.83854
LJ           5.31988       -0.873706         5.99572
LJ         -0.264042        -1.50859        -4.56941
LJ          -1.54284       -0.566627        -1.17561
LJ          -1.91531       -0.613237        -2.88071
LJ           1.22505        -1.90907         5.63658
LJ          -3.17694        -2.56503        -6.45397
LJ              4.19        -1.94755         5.92274
LJ           2.13865        0.658476        -2.73924
LJ          -3.25848        -5.00571        -5.55735
LJ           4.32443       -0.577212        -4.97367
LJ          0.362523          3.9279        -1.19237
LJ          -1.44482          -4.195        -3.33827
LJ          -5.70519         5.96288         6.31427
LJ           2.28531        -5.52066          5.0992
LJ          0.887843         5.75656         6.03168
LJ         -0.228933       -0.908893        -2.07952
LJ          -2.97039        -3.52137         6.06517
LJ          0.421692        -4.95828        -5.66246
LJ        -0.0786084        -4.04457        -5.71092
LJ            3.0524         6.34397           3.851
LJ           3.72311         -1.5339        -4.15913
LJ            4.5869       -0.753334          1.1889
LJ          -1.77189        -3.09054          -5.081
LJ           -3.2066         -6.0604         5.26772
LJ          -0.87337        -1.33646        -1.25755
LJ          -1.15768        -5.48345         5.53876
LJ         -0.200675        -3.38691        -4.85414
LJ          -2.13254        -5.78715         5.55062
LJ          -0.91663         -3.1443        -3.22774
LJ         -0.709988        -3.92439        -2.56594
LJ           5.23688        -1.08493         3.83081
LJ          -2.04925        -3.47386        -3.94205
LJ          -1.18821        -3.01201        -5.90693
LJ          0.275076         -4.1782        -4.49518
LJ          -5.22753         5.90694        -5.12317
LJ           -3.8663        -4.78167        -3.05978
LJ         -0.843766       -0.683421       -0.299147
