108
#Comment!
LJ          -1.89185        -4.37686        -4.71464
LJ           -1.3537        -3.63643        -5.28793
LJ          -4.38123         2.20638        -3.95289
LJ          -2.79262         -3.2375        -3.88826
LJ          -1.04464        -5.98752        -4.03963
LJ         -0.960661        -2.35653        -3.67317
LJ           1.06278        -2.40216          4.2323
LJ          -6.45814         -2.9186         5.76033
LJ          -6.15705        -2.36088        -5.61896
LJ           5.52612        -1.62663         1.57609
LJ          -4.61739         4.38948         -4.5527
LJ          -1.44766         2.48145        -2.26966
LJ           5.97753         6.00865         3.05588
LJ         -0.142646         -2.9916        -3.94286
LJ          -2.22995        -6.44193        -4.82853
LJ          -2.44909        -5.52792        -2.75669
LJ         -0.667389        0.266619         -6.1165
LJ           1.66706         6.27036         4.04165
LJ          -1.88847         -5.2566        -4.13576
LJ          -3.45233        -3.65618         6.27228
LJ          -1.08313        -4.31267         -4.1043
LJ           5.55628        -2.47992         2.96335
LJ          -1.05666        -5.15928         -4.8866
LJ           1.76723         5.02147        -1.02215
LJ          -1.73675         6.32663        0.400832
LJ          0.190746        0.159395        -1.82433
LJ          -3.74994        -4.47546        -4.56344
LJ          -2.59475        -4.46399         5.95889
LJ           1.26416         5.35102         5.01061
LJ           5.39758         4.92504         5.90316
LJ         -0.310936        -3.51337         3.27521
LJ          0.217788        -2.50362        -2.83997
LJ           -3.2945          2.1421          2.7759
LJ          -2.59733        -2.32532        -4.48218
LJ           5.44938         3.21693         6.04799
LJ           -3.5556        -4.74806         1.71944
LJ          -3.47191         5.90025        -6.01705
LJ           4.74702        -5.57353        -1.05056
LJ          -4.00053        -3.49703        -5.65005
LJ          -2.55963        -3.83896        -5.72289
LJ        -0.0713629        0.607603        -3.10119
LJ          -3.87388        -5.55455        -5.03712
LJ          -2.14496        -5.54499         5.28017
LJ          -4.55902        -5.04981         5.75416
LJ          -2.84237        -4.32497        -3.86414
LJ           5.96174         2.51536        -4.92393
LJ          -3.18241        -2.80032        -5.52862
LJ          -1.59094        -4.09132        -6.43507
LJ           1.98987       -0.794457         4.90381
LJ           1.43236        -1.29587         2.54088
LJ           2.20224         1.35135       -0.747548
LJ          -4.92022        -3.53837        -5.17615
LJ         -0.357403         1.67695        -2.30049
LJ          -2.40806           2.749         2.23228
LJ          -3.91396        -5.63279         6.23956
LJ           5.47095          5.1939         1.34385
LJ           4.41731        -2.75613        -2.01583
LJ          -3.18595         -5.4363        -3.64058
LJ          0.963087         5.42038        -1.47442
LJ          -1.30783        -5.39045         4.64709
LJ         0.0170236         3.67753          4.2094
LJ          -2.68886       0.0836066        -3.85378
LJ          -3.10821        -5.99317        -5.84837
LJ         -0.435909         2.07295        -3.45128
LJ          0.979877        0.903617           5.996
LJ         -0.378638        -3.31037        -4.96103
LJ           3.00548         6.05208        -0.72782
LJ           4.64884        -3.18948         2.41186
LJ          -2.16089        -5.01481        -5.82833
LJ          -2.85621        -4.96328        -4.83859
LJ          -1.89228          1.0819        -3.84318
LJ           5.62536        0.685303         5.32689
LJ          -1.33052        -1.79153        -4.62655
LJ          -0.48891       -0.611586        -1.31182
LJ          -1.22452       0.0758204        -3.21799
LJ          0.338737        -2.67421        -6.22304
LJ          -2.20609        -3.03403         6.38576
LJ           4.97853        -1.33478         5.85353
LJ           3.40266         1.67644        -2.40844
LJ          -3.29963         -4.9172        -6.14354
LJ           3.07427       -0.915719        -3.25988
LJ          0.857551         4.45021       -0.988796
LJ          -1.88678        -4.36891        -3.32274
LJ          -5.33556        -6.37545         5.84377
LJ           2.12802         -5.8086         5.55083
LJ          0.292254         5.33099         5.48839
LJ          -1.00469         0.39904        -2.05728
LJ           -3.2315        -3.38936         5.03926
LJ         0.0780239        -4.75943        -4.92193
LJ          0.614069        -3.85187        -4.88033
LJ           3.14128         6.13369         3.29914
LJ           3.66735        -2.02983        -4.03231
LJ           4.94015        -2.14238        0.670007
LJ           -2.3086        -3.42524        -4.78295
LJ          -3.37482        -5.58218         5.27108
LJ         -0.701055        -2.63522        -1.53969
LJ          -1.79005        -4.46068         5.30642
LJ         -0.096947        -1.84123        -4.25479
LJ           -3.0209        -6.29565         6.07285
LJ         -0.700283        -3.62934        -3.24397
LJ         -0.710239        -4.55649        -2.49111
LJ          -6.30284        -1.17532         3.95552
LJ          -1.61515        -3.31805        -3.85803
LJ          -1.95459        -2.71715        -5.52968
LJ         0.0999418        -4.27452        -3.93333
LJ           6.39855         4.51794        -6.40335
LJ           -4.3492         6.29868         -2.1404
LJ         -0.960239      -0.0101751       -0.454873
