108
#Comment!
LJ          -1.68293         5.87851          -4.417
LJ          -2.10595        -4.68588        -6.19764
LJ          -2.12282        -2.95375        -5.59335
LJ          -1.64564       -0.676982        -3.47046
LJ          0.137086        -3.46549        -3.75976
LJ          -3.72798       -0.570565          -5.429
LJ            4.3896         2.58569         -2.4106
LJ          -4.74084       -0.595928        -6.03902
LJ          -3.41299        -3.25364        -5.22532
LJ          -3.83226        0.392654        -5.66493
LJ         -0.187042         2.36577        -5.29554
LJ           2.20144        -5.76136         1.82136
LJ           5.30482         -6.1284         4.20093
LJ          -3.43013        0.138778        -2.81713
LJ          -1.81058        -2.86086         -4.2213
LJ           5.08918         1.50952        -0.99064
LJ         -0.847029       -0.864232        -2.01942
LJ          -6.14522         3.79003        -6.14958
LJ          -6.17119        -2.28277        -2.17192
LJ          -3.40418        0.697822        -4.22055
LJ          -2.19733        -2.03578        -6.08609
LJ          -1.37688         5.44903        -3.34142
LJ            1.3231         4.93187          4.9684
LJ           3.53916        -4.85686         1.31813
LJ        -0.0567496        0.565241         4.59228
LJ             5.826         2.93607        0.252379
LJ          -2.12049        -2.12101        -3.37532
LJ           -2.2852        -4.96666        -3.53921
LJ          -2.00333        -4.08586        -4.18411
LJ           6.17014        -1.28984        -2.77184
LJ          -5.46406       -0.556332         -5.1157
LJ          -3.82451        -2.06586        -1.38871
LJ          -2.79621        0.429829         -5.5759
LJ          -3.46202        -4.24587         5.78984
LJ          -1.51529         4.66986        -6.35275
LJ          -2.59182         3.58044        -4.42477
LJ          -1.33808        -1.53895        -4.62815
LJ          0.445843         4.59883         3.63213
LJ          -4.85479        -2.33185         -2.0469
LJ          -5.18144        -1.71501        -1.22459
LJ           3.20891        -5.62896         3.20092
LJ           -4.4629        -2.90374        -5.76877
LJ           1.12469         4.30503        -1.53666
LJ          -4.74971         6.28233         3.10832
LJ         -0.701931         5.68101        -4.18355
LJ          0.983821         3.13358         3.96559
LJ          0.213085         4.97165        -4.48901
LJ          -0.20328         3.30402         5.75345
LJ          -3.55876        -1.42417        -4.84472
LJ           2.81721         4.35926         2.05653
LJ            5.6689       -0.417799        0.661532
LJ           6.43432         2.14205       -0.101806
LJ           6.02607         5.19877        0.871044
LJ          -3.84775        -1.07943        -2.36893
LJ         -0.971129        -6.16816        -4.48768
LJ          -4.70009      -0.0693776         -3.6769
LJ           1.39011         6.29718         5.62973
LJ          -5.66244       0.0461736        -4.21838
LJ           -2.9423       -0.932763         5.80484
LJ          -4.50099        -3.95858        -6.16031
LJ         -0.421613         3.84738         -5.8366
LJ           6.45177        -5.64603        -3.52028
LJ          -1.62846         4.67954        -4.08663
LJ           6.33953         3.88653         1.28973
LJ          -6.19612        0.837152        -3.40517
LJ          0.918914        -3.04188        -1.29972
LJ         -0.656702        -3.92604        -4.49527
LJ          -3.75898         2.11386        -4.58816
LJ           5.70741         -1.2389        -6.42994
LJ           3.03813        -4.86125       -0.771969
LJ           5.63971         5.76454         3.71202
LJ           -5.2063        -5.00683        -4.48335
LJ          -2.67259        0.980145        -2.86966
LJ           6.03681         4.18257        0.172867
LJ           4.90435        -5.93506         2.82031
LJ          -1.59803        -3.87039        -5.43409
LJ          -5.94779       -0.280521         -2.9536
LJ         -0.908679        -1.48219         3.26284
LJ          -3.18518        -4.26435        -5.34304
LJ           4.93193          3.4861        -2.66765
LJ           1.57258         5.43488        -5.47424
LJ          -2.96519         1.69954        -3.85545
LJ          -1.72629        -5.35772         3.93667
LJ         -0.695183        -6.42437        -3.22103
LJ           5.80937        0.160081        -3.09694
LJ           3.02955        -4.10721        -1.85239
LJ           3.09584        -6.00503         2.18823
LJ          -3.60633        -1.49447        -3.71312
LJ          -2.50665         -1.1302        -3.02078
LJ          -2.48187        0.246761        -3.82652
LJ          -2.93209        -3.18979        -3.93822
LJ          -4.63873        -1.22106        -4.47746
LJ          -2.77761        -2.43932        -4.91277
LJ          -4.51067        -1.90025        -6.26235
LJ          -1.95841         4.07064        -5.03956
LJ           1.06561         1.66394         2.02265
LJ          -4.48772        -1.82126        -3.16877
LJ           5.45904        -4.88773         1.95954
LJ         0.0881056         5.65893         4.59263
LJ         -0.865161         4.85215        -4.93052
LJ          -3.42524       -0.440498        -4.18423
LJ          -1.34038        -1.71392        -2.76821
LJ         -0.501912         4.54647         6.22656
LJ          -4.32806        0.300771       -0.903681
LJ           1.70303         1.07479         3.36861
LJ          -1.65119         5.44499        -5.41701
LJ          -5.58575        -1.19145        -2.36315
LJ          -4.30694        -3.19222        0.127795
