108
#Comment!
LJ         -0.228873        -5.38285         5.77844
LJ          -2.54752         5.62487        -5.43146
LJ          -3.46361       -0.695322        -1.52003
LJ          -3.09835         4.34104        -3.95035
LJ           3.34889         3.87469        -2.67405
LJ          -3.41526       -0.244428         6.41962
LJ           5.97863          3.7814          1.3536
LJ          -4.78951       -0.229272         3.44384
LJ         -0.724066        -5.29159        -5.50523
LJ           1.24993        -1.60481          5.8803
LJ          -1.28328        -1.84952        -2.60438
LJ           3.75815        -5.94881         4.47864
LJ          -4.63394         5.48715         3.74013
LJ            6.4025         4.29142         5.89148
LJ          -5.27299         2.63107         -4.6263
LJ           2.33188       -0.191096       -0.834528
LJ           3.87147        -2.03233         3.96208
LJ           3.00235         -5.1295        -3.67732
LJ          -6.32731        -2.82943        0.338564
LJ          -2.08973        0.475294        -4.93709
LJ         -0.743263        -3.72499        -3.92701
LJ          0.859654         5.81627        -6.15578
LJ           1.26222        -6.34206         1.38642
LJ          -1.43119       -0.328011        -2.43706
LJ           1.74567         4.19668        -1.20248
LJ           2.02805        -2.47274         4.18965
LJ           0.15379        -2.08743         4.98856
LJ          -2.22504         4.45945        -3.38837
LJ         -0.464197        -2.32995        -2.05133
LJ           6.29757        -2.90547       -0.758519
LJ          -2.73804       -0.180185       -0.897954
LJ           4.95966       -0.710865         1.67295
LJ          0.233795        -2.38137         3.41699
LJ          -4.26058        -3.71969         5.62535
LJ           4.62614        -2.62807        -4.06808
LJ           5.41732         4.01245         5.37077
LJ         -0.481566          -2.572        -3.16448
LJ           3.40899          2.2054         4.88965
LJ           5.65906        0.625277         1.45505
LJ             5.774        -3.13738        -2.29626
LJ           6.07271       -0.647852         5.32182
LJ           5.11624        -5.09624         3.47827
LJ           3.15274         4.41196        0.242612
LJ           5.32424        -1.28565         4.94288
LJ           1.18961        -6.31724        -4.30695
LJ           2.18033         3.23776         4.51474
LJ          -1.26737        -5.40483         5.79458
LJ           3.75821         2.21761        0.921658
LJ           5.69268          5.3526        -0.62574
LJ          -1.76305        -6.20735         1.43886
LJ          -5.24458        -3.06235         5.56529
LJ           1.97961         4.91646        -4.46846
LJ          -4.50118         1.82799         1.01222
LJ          -4.41179        -1.73448        -3.35662
LJ          0.669336        -5.51558        -6.12714
LJ           5.58853        -2.06595         1.96475
LJ         -0.769084         5.80618        -6.07757
LJ            3.7408        -0.25084        -3.18705
LJ            3.1145          2.6735         -2.0073
LJ           5.90609         6.05844         2.90112
LJ           1.05915        0.548146         -1.4815
LJ           2.86396        -2.11521        -3.95569
LJ          0.252728        -5.57712        -4.86975
LJ           -5.0252         2.81496        0.476205
LJ           1.86617        -2.39482         2.74015
LJ         -0.180448        -6.36962        -2.02824
LJ           -4.2201        -2.72754        -3.98615
LJ          -3.03754         -1.5494          4.2702
LJ          -4.20098        -1.62485        0.418817
LJ           4.01315        -6.11404         3.13081
LJ           2.27516        -6.03059         4.31392
LJ          -5.72123        -3.74302         4.71281
LJ          -5.01102         1.35518         6.17879
LJ          -4.02357         2.95898        0.833251
LJ           5.84073        -1.75631        0.233697
LJ          -5.04142        -1.73143         2.02719
LJ          -2.61589         3.94856         5.54109
LJ          -2.78271        0.891835         3.79341
LJ          -3.21347        0.678203        -4.48912
LJ           2.84451         3.39116        -3.47052
LJ           -2.0329        0.216663        -3.25455
LJ          -1.35247         2.64592         4.32429
LJ           2.31886        -3.12204         1.96588
LJ           4.39223         4.48618       -0.518298
LJ           4.42719        0.876932       -0.457838
LJ         -0.530334        -4.88627        -4.46482
LJ           5.50529       -0.222237        -2.40081
LJ           6.30593         3.45157        -6.01717
LJ          -1.00727         1.54639         4.19485
LJ          -6.22193        0.597124        -4.48022
LJ         0.0934843       -0.529442          5.0507
LJ          -3.09926         3.01526        -4.51154
LJ          0.267196        -6.05273        -3.72436
LJ           5.69871         6.05057        0.903073
LJ         -0.294123         5.53317         3.29189
LJ           6.35215         3.97113         4.77285
LJ           3.12793       -0.955938        -2.51336
LJ           3.36751        -5.25128         5.37354
LJ           2.94755         4.13384        -6.08209
LJ         -0.345912         1.95988         2.09795
LJ          -3.81809        0.253504        -5.58899
LJ          -2.05505       -0.195342         3.15831
LJ          0.441556         4.68143           3.646
LJ           2.58254        -1.18158        -1.44903
LJ         -0.181374        -2.71672       -0.371275
LJ           1.90782         4.38582        -6.12129
LJ            6.2818       -0.584475         1.84962
LJ           2.39535        -0.13773        0.211249
