108
#Comment!
LJ          -2.36197        -5.80796        -4.58937
LJ          0.112594         5.14165        -4.94763
LJ          -1.87449       -0.596697        -3.73643
LJ          -2.69703         1.42923        -5.51337
LJ           2.34859         4.59812        -2.10996
LJ          -1.15672       -0.992545         3.91477
LJ           5.21813         5.29948        -1.24929
LJ          -2.41734         2.93716          5.2453
LJ         -0.801932        -4.82726        -4.57347
LJ         -0.759192        -1.10258         5.54528
LJ          -1.34307        -4.00637        -3.71449
LJ           3.33022         5.49086         3.14559
LJ           6.27089         5.39464         3.28254
LJ          -5.28303         3.65747        -6.27348
LJ          -3.59172         3.57198         3.63885
LJ           4.94653        -1.48913        -2.79686
LJ           3.10083        -1.76297          5.0984
LJ           2.73028         6.34902        -6.08921
LJ           5.62329        -1.93453        -2.20123
LJ          -5.60018         0.72965        -3.27639
LJ          -2.07852        -3.87328        -4.62917
LJ           1.10706         6.01959        -4.45459
LJ           2.84409        -5.87359         2.37484
LJ          -2.32499        -3.96757        -3.46564
LJ          -3.06743         2.14258        -2.28871
LJ         -0.368717        -1.81387        -5.39197
LJ          -0.88319        -2.79972        -6.29205
LJ          -1.56214         6.16721        -5.53843
LJ          -2.03716        -2.20632        -4.11911
LJ           6.17161        0.137079        -1.65235
LJ         -0.930597        -1.07879        -3.46006
LJ           3.30857       -0.242467       -0.606871
LJ         -0.068278        -1.15103         6.34948
LJ           -6.2649        -3.22868         4.51569
LJ           4.95067        -3.04863        -2.31027
LJ           -5.6558         2.64725        -6.45143
LJ          -1.59671        -2.99482        -3.38036
LJ           3.19037         3.47359           4.788
LJ            4.6152        -2.96717       -0.813107
LJ           4.58596        -1.91657        -1.68431
LJ           5.83779        -2.75942         4.03802
LJ          -5.83171        -5.62859         3.77704
LJ           3.45333         4.62814         -2.5241
LJ           5.70805        -1.87965         3.49468
LJ          0.196686         -5.5455        -5.33319
LJ           1.85274         4.43721         4.92754
LJ          -0.54441         6.34934        -5.40941
LJ          0.927575          3.5325         3.44162
LJ          -5.08542        -5.00802         5.16104
LJ         -0.552634         6.19141         2.25483
LJ          -5.44182        -2.36528         5.21731
LJ          -1.78353        -3.95986       -0.369925
LJ           -5.5372         2.54517        0.799636
LJ          -4.52649         1.31588        -3.95263
LJ          -1.35524        -5.38222        -5.92995
LJ           5.43609         -2.4358        -1.26914
LJ           1.81095        -6.23303        -5.26855
LJ           3.80399        0.666368        -1.79325
LJ          0.837134         1.52985        -2.68705
LJ          -5.60352        -5.94276         5.02054
LJ         -0.490021         1.47527         -1.1344
LJ          -3.60607        -4.64683         2.66522
LJ          0.139587        -6.38067        -4.54004
LJ          -6.03164         3.27496         1.57365
LJ           5.53584        -1.07575        -1.64051
LJ           1.38851         2.59626        -4.66586
LJ          -2.69096        -1.82796         6.35954
LJ          -1.54735        -1.25456         4.92016
LJ           4.19162        -3.77213        0.334787
LJ          0.914383         -4.3483         2.02492
LJ           4.71669        -6.39752         3.47194
LJ          -5.52507        -3.88058         4.79831
LJ          -2.58751         2.25763        -4.65077
LJ          -4.42356         2.86036         0.81996
LJ           4.91783        -3.79133         3.01556
LJ          -0.63645        -4.76415        -2.87862
LJ          -3.38327         2.07427         6.45158
LJ          -3.73489          1.7721        -5.40268
LJ          -1.94137       -0.505644        -2.51231
LJ           4.01949         4.13561        -1.51968
LJ          -1.81613        -1.67668        -2.88125
LJ          -2.88185        0.989451        -6.36892
LJ           6.39092       -0.710524       -0.217014
LJ           2.99883         3.61209        -1.98391
LJ            3.4225         -1.2557       -0.594202
LJ           1.77043        -5.50361         2.83058
LJ          -4.08803         2.84471        -1.82675
LJ          -4.84334         2.62401         5.62319
LJ          -2.63676         3.16988        -6.36388
LJ          -3.38547          1.3462        -4.18383
LJ         -0.926786        -2.15531         5.71653
LJ          -3.52151         3.16579         -5.6497
LJ          -1.17499         -3.9938        -5.40723
LJ          -4.80299        -6.25022         4.28214
LJ         -0.269815         4.42551         3.90183
LJ           -6.2141         3.36292         5.95417
LJ           6.01775        -1.24718        -3.63348
LJ           3.66973         6.43307         4.01903
LJ          0.109643         5.86917        -3.74586
LJ          -1.15801         2.56844         3.73401
LJ          -4.47168          2.4673        -3.80024
LJ          -2.09923     -0.00262578         5.59756
LJ           1.18068          5.0222         4.08448
LJ           4.98316        -1.58558          -3.996
LJ          0.784222        -1.06165          1.0144
LJ            2.5752         6.03761        -4.98485
LJ          -5.83406        -2.08942        0.737092
LJ           4.27385       -0.230095        -1.40256
