108
#Comment!
LJ          -2.65199        -5.54896        -4.97782
LJ          -2.40306        -3.50712         6.06309
LJ          -1.96462        -2.94623        -3.78613
LJ          -3.33156        -2.57318        -2.87863
LJ          -2.96171        -2.13945        -1.95043
LJ           -3.9435        -2.81344        -4.47539
LJ          0.774674          2.8039        -4.00178
LJ          -5.83176        -3.35856         6.11884
LJ          -3.24692        -4.20176         5.40872
LJ          -3.20022        -1.41872        -5.46049
LJ          -2.57556        -6.27798        -6.37542
LJ           1.95035         -5.8703        -1.17424
LJ           4.87457         6.17882         1.53693
LJ          -2.84311        -1.10211        -2.57411
LJ          -1.08491        -4.65524         4.84915
LJ            6.1525         4.05855        -3.80934
LJ            -3.545        -1.19127         -4.5216
LJ          -2.46659         3.19159        -3.67295
LJ           -4.3072        -1.82273         -3.8077
LJ          -5.37416        -3.41537        -3.70375
LJ          -2.28544        -3.45264        -4.66488
LJ          -3.36718         5.21752        -4.14253
LJ          -2.27703         5.46694        -6.41253
LJ           4.85563         5.13717         1.19256
LJ          -2.99675         3.39558        -2.65211
LJ             1.987        0.511784         -0.8039
LJ         -0.618321        -3.71982        -5.43629
LJ          -1.37953        -5.15878          6.1299
LJ         -0.359896         5.33299         6.17137
LJ          -2.32409        -3.99073        -2.53252
LJ          -3.06249        -3.31222        -3.65593
LJ          -4.74876        -6.13705       -0.280792
LJ          -2.97842       -0.305278        -3.46617
LJ          -3.09443        -3.44208        -6.02769
LJ          -3.21184        -5.55224        -3.84576
LJ            4.5246        -5.65426         4.21846
LJ         -0.160826       -0.956955        -5.04476
LJ          -3.87585         -5.4262        -5.72698
LJ          -2.16112        -1.56999        -5.55776
LJ          -2.22952           5.838         2.16254
LJ           4.35131         6.12409        -1.35466
LJ          -3.85863        -5.49657         5.56017
LJ           2.43754         -3.7315       -0.806619
LJ          -4.20297         1.95446         3.29918
LJ           -1.7812         4.11083        -5.86381
LJ           5.07629          1.6168        0.550529
LJ          -2.49972        -4.88143         6.22111
LJ         -0.787757        -2.97713           2.303
LJ          -3.58731          0.1307        -4.19418
LJ           4.99698       -0.456067        -4.41081
LJ           3.28015       -0.726503        0.912668
LJ            5.2844         4.64648        -3.71126
LJ           5.42894         5.03029       -0.777859
LJ          -4.02584        -1.84681        -2.69904
LJ          -4.10466        -4.44024        -5.74211
LJ            6.2449        -2.89162        -5.83484
LJ          -1.21735        -4.38393         2.86427
LJ          -1.59234        -1.20853        -4.22478
LJ          -6.45372         5.52209         1.46629
LJ          -4.87612        -3.83367         6.18553
LJ          -2.35092        -5.82319         5.52994
LJ           2.41758         5.95519         -1.0976
LJ          -2.87943        -4.44947        -5.78633
LJ           5.00015         4.47737        0.219582
LJ           5.74707        -1.46225        -6.09635
LJ           2.06071         6.16645        -3.19914
LJ          -5.61983          5.3774       0.0786407
LJ           1.57779         5.20172         5.54226
LJ          -2.37863        -2.04653        -2.86913
LJ           4.56144        -1.28153         -4.9496
LJ            1.4151         5.78469         3.90703
LJ          -5.88106        -4.35119        -6.42055
LJ          -4.56491        -3.01454         -2.6573
LJ           3.48789         1.73621        -1.47993
LJ           2.33402         6.01794      -0.0445137
LJ          -3.25524        -2.82827        -5.25177
LJ          -2.96177        -2.03144         -4.3124
LJ         -0.917642         6.32513       -0.646737
LJ          -3.28071        -3.81734        -4.73054
LJ           5.63867         4.19013        -2.72902
LJ          -1.08897       -0.693083         -5.4774
LJ          -2.43053        -1.41671        -3.68968
LJ           2.86578         6.34061        -2.67365
LJ          -1.29454        -4.00019         6.25107
LJ           -2.2481        -5.90094        -3.74232
LJ          0.663993        -6.40739         2.72113
LJ           4.18376          5.1398       -0.168102
LJ         -0.436056         6.32078        -5.46728
LJ          -4.20559        -0.56405        -3.65221
LJ          -1.57743          -1.206        -2.12849
LJ           1.33019        -5.70438       -0.276326
LJ           1.02119       -0.931844        -1.94011
LJ           -4.8587        -0.80077        -2.73764
LJ          -5.79415        -4.25302         5.34435
LJ          -1.69001        -5.86918        -5.94342
LJ           1.73575         5.94913        -4.33527
LJ          -1.85983        -2.35451        -4.92162
LJ          -2.18944        -2.65478        -5.81459
LJ         -0.206273        -6.39632         5.79595
LJ          -2.12542        -4.41531         5.26481
LJ          -4.30534        -3.32943        -5.31293
LJ          -1.74354        -3.78937        -5.54803
LJ          -1.50273         6.28951         6.25315
LJ           5.03883        -1.72902         4.36318
LJ           2.16317        0.839508        -1.80867
LJ          -1.15092         5.13886        -6.20127
LJ           -5.2131        -4.04114        -5.65594
LJ         -0.550674         1.34251        0.738192
