108
#Comment!
LJ          -1.72465        -5.06979        -4.78189
LJ          0.218033         5.03471        -4.74059
LJ          -1.60151        -1.02665        -4.22373
LJ          -3.30856         1.25941        -4.40235
LJ            2.4879          4.6621        -2.62207
LJ          -1.14264        -1.64044         4.86903
LJ           4.16791         4.28974        -2.50879
LJ          -3.03273         2.24728         5.82035
LJ          -1.06851        -4.23787        -4.32656
LJ          -1.50451       -0.761302         6.19849
LJ         -0.437891        -3.51849        -3.48939
LJ           3.67263         5.14086         2.86172
LJ           6.19645         6.05432         3.30113
LJ          -4.40362         3.71627        -5.85733
LJ          -3.22074         4.72111         2.20782
LJ           4.82653        -2.51723        -2.56611
LJ           2.76874        -1.80602         5.43801
LJ           1.55443         6.09396        -5.97465
LJ           6.32145        -2.37389        -2.13748
LJ          -5.68894         1.59352        -4.45356
LJ          -2.68467        -3.40136        -4.99192
LJ           1.32503          5.4679        -4.75732
LJ           3.04656        -5.61449         3.59252
LJ          -2.84137        -5.83563        -3.65588
LJ           -3.7674         1.43834         -3.4268
LJ         -0.971087       -0.893949         -5.5227
LJ          -1.64768        -3.03087        -6.05687
LJ          -1.46501         6.42261        -4.87527
LJ          -2.71151        -2.67264        -3.60648
LJ          -5.99843       -0.239475        -2.06922
LJ           -1.8016        -2.05263        -3.78263
LJ           3.03123       -0.363373        -1.33353
LJ         -0.279105        -1.38517         5.64625
LJ             5.895        -4.16292         3.82461
LJ           3.42646        -2.63171        -3.99165
LJ          -4.58194         1.95526        -5.48703
LJ          -1.63224        -3.23017        -3.91779
LJ           2.71335         4.15316         4.71616
LJ           6.16655        -2.87688         -1.1197
LJ           5.04423        -1.49615        -1.65396
LJ           5.45294        -3.08971           3.711
LJ          -5.97014        -5.35319         4.94304
LJ           3.45901         5.37496         -1.5992
LJ           6.38447        -1.99205         2.94444
LJ         -0.158707        -5.59523        -5.65942
LJ           1.65143         4.21294         4.52518
LJ         -0.403858         6.23965        -4.68823
LJ          0.709813         2.90738         4.17855
LJ          -4.44099         -4.9057         5.08878
LJ        0.00389818         5.96123         2.64709
LJ           -5.6793        -2.15235         4.68749
LJ          -3.08683        -2.94761      -0.0362353
LJ          -5.98588         2.66358        0.611698
LJ          -4.43418         1.99637        -4.10031
LJ         -0.962709        -5.43898         6.32381
LJ           6.30458         -1.5044        -1.40199
LJ           1.87138        -6.12138        -4.60255
LJ           4.39029       -0.127972        -1.91773
LJ          0.687166        0.949517        -3.48789
LJ          -4.97758        -5.88467         5.43944
LJ         -0.489874         1.65733        -1.45544
LJ          -4.66796        -5.07969         3.78314
LJ          0.846105         6.31093        -5.21796
LJ          -5.76761         3.35929         1.69698
LJ           5.92399       -0.563341        -1.78069
LJ           1.71093         1.94468        -5.09447
LJ          -2.92298         -1.5457         4.53909
LJ          -1.66257        -1.77695         5.99965
LJ           3.82227        -4.06838       -0.674012
LJ           0.82181        -4.36287         2.18082
LJ           4.38909          6.2351         3.27389
LJ          -5.29954        -4.11942         4.87093
LJ          -2.98573         3.51843        -4.68273
LJ          -4.81672         3.02263         1.02515
LJ           4.72015        -4.15981          3.5446
LJ        -0.0256304        -4.47791        -3.93294
LJ          -3.55259           1.346         5.64451
LJ          -3.11917          2.2154         -4.8538
LJ         -0.726165       -0.486929         -3.3065
LJ           3.64974         4.35539        -1.23063
LJ          -1.84389       -0.800459        -3.21897
LJ           -4.2469        0.496307        -5.44177
LJ           5.60137        0.592186          -1.876
LJ           3.31866         3.74303        -2.52119
LJ            3.0248        -1.18734       -0.146466
LJ           1.92559        -5.11087         1.15548
LJ           -4.9163         3.97175        -1.15134
LJ          -4.51796         2.15546         6.26337
LJ          -3.44017          1.5288        -6.00642
LJ          -2.30656         1.25499        -4.11345
LJ          -1.14248        -2.00855        -5.92996
LJ          -3.65198         2.94469        -5.48421
LJ          -1.06989        -2.75968        -4.85136
LJ          -4.23011        -5.61729        -6.45761
LJ         0.0503456         4.25719         4.64056
LJ           -5.5302         3.01133        -6.44883
LJ          -5.89651        -1.40529        -2.47342
LJ           3.29649         6.45333         2.66106
LJ          0.542957          6.2258        -4.17921
LJ          -1.11338         3.09798         4.40001
LJ          -3.24205         2.74144          -3.809
LJ          0.393655       0.0567034        -5.92984
LJ           0.50806         5.29557         3.97061
LJ           5.48299        -1.45269        -2.72787
LJ           1.01738       -0.807742         1.46984
LJ           2.44039         5.85589        -4.92551
LJ           6.07588         -2.0287       -0.309839
LJ           4.07141        -1.04193        -1.58754
