108
#Comment!
LJ          -1.23783        -6.34151        -5.67899
LJ         -0.140441        -6.14244        -3.97004
LJ          -1.98735       -0.563815        -5.14438
LJ          -2.22692        0.977624        -4.47077
LJ           1.50935         5.55618        -3.28918
LJ          -2.57532       -0.869203          5.5363
LJ           4.18705         4.43461        -2.06954
LJ          -2.57319        0.129556         6.08789
LJ           -2.0488         -2.8796        -5.54192
LJ          -2.08336        -1.76075         6.08527
LJ          -1.05588        -1.10182         -3.5016
LJ           3.04174        -6.25606         2.50173
LJ          -6.06252         -5.8915         3.60034
LJ           -4.3309         3.14266        -2.24097
LJ          -2.41694        -5.51127        -1.30714
LJ          -5.09559       -0.474111        0.253748
LJ           1.74303        -1.41158        -5.86924
LJ           4.20252        -6.44798        -6.14219
LJ           6.27784        -3.14385        -1.98597
LJ          -4.01806         1.89132        -4.77822
LJ          -1.96704        -2.79145         -2.3157
LJ          0.544801         5.47429        -5.45599
LJ           1.61892         6.04807         4.44975
LJ            1.1911         5.03876         6.37303
LJ           4.86268         1.84594       -0.803603
LJ            4.2549        0.785759         3.65983
LJ          -2.49328        -3.24612        -4.29384
LJ          -2.02094        -5.27325        -4.31858
LJ          -3.14228        -5.74743        -3.76737
LJ           -5.7828        -1.41238        -1.89853
LJ          -2.71167        -1.48962        -4.35704
LJ           5.57363         -2.2809          -2.768
LJ          -2.66935        -2.38492        -6.29489
LJ          -6.11957        -4.82565         4.80924
LJ           1.20925        0.741167         6.04013
LJ          -3.00286         2.03939        -4.44455
LJ           -1.2832        -2.62566        -3.34913
LJ         0.0674118         4.18646         3.99312
LJ          -6.15392        -2.15038        -1.24571
LJ            5.9182        -1.69317        -1.90265
LJ           4.78522        -6.24562          3.7061
LJ          -5.73264         -4.0017         6.46127
LJ           2.51682         5.86006        -3.10912
LJ           -5.4687         -3.8895         2.84881
LJ         -0.496135         5.77538        -4.33906
LJ           1.13703         3.58977         3.80437
LJ         -0.438151        -6.16299         -5.0034
LJ          0.617307          3.6101         5.29798
LJ          -4.36833        -3.98405         6.21305
LJ           2.07531         5.55323         2.88438
LJ           6.42624         -1.3627         3.13937
LJ          -6.31349       -0.373259          0.2331
LJ           6.37052         3.69355        0.499278
LJ          -4.55192         3.66117         -3.5073
LJ         -0.963556        -5.25895        -4.94732
LJ          -6.22917       -0.672034        -3.36376
LJ           1.01864         6.31315         -5.9242
LJ           5.35853        -1.23707          -2.926
LJ           3.91741       -0.099471         -6.1326
LJ          -4.65458        -5.08972        -6.17787
LJ         -0.430252          1.8902        -2.66659
LJ          -6.07945        -6.42791         6.01537
LJ          -0.16488         4.66205        -4.98356
LJ          -5.78024         3.56305         1.84139
LJ           6.14396       -0.438461        -2.00388
LJ           1.71257       -0.557315        -3.62392
LJ           -1.3992        -2.30888         5.60014
LJ           -1.8537       -0.783113        -6.39231
LJ           3.71422        -3.72815        -3.45668
LJ           2.51011        -4.81754       -0.320915
LJ           3.94157         -6.3638         1.50393
LJ          -6.13453        -5.88973        -5.93638
LJ          -4.32766         2.48171        -3.26788
LJ          -5.51897         3.42744        0.709358
LJ           4.52988        -5.37736          3.0293
LJ          -1.31554        -1.98314        -6.16371
LJ          -4.32629       -0.726995        -4.23245
LJ          -1.31486          1.4792        -5.76215
LJ          -1.20955        -1.17681        -4.99414
LJ           4.29362         3.30057        -2.44059
LJ          -1.17948        0.241862        -5.50926
LJ          -3.93109          2.8297        -4.26107
LJ            2.5812        -3.05242        -5.07947
LJ           1.09758         4.42345        -3.60937
LJ            3.2219       -0.224166        -1.19042
LJ            1.4434        -4.21063        0.815422
LJ           6.00302         5.94425        0.993149
LJ          -3.22229      0.00915094        -4.71914
LJ           -2.9049       -0.835613        -5.96816
LJ          -3.10445        0.988281        -5.10552
LJ          -3.04552        -2.88887         -5.1379
LJ          -3.25691        0.216582        -5.90885
LJ           -2.2326        -1.70157        -5.37498
LJ          -3.61703        -3.18552        -5.93006
LJ           0.23245         5.97058          5.9779
LJ          -3.08503         2.88861         4.72995
LJ          -4.91463        -1.34543       -0.853212
LJ           3.98113        -6.31214         2.93657
LJ          0.894585         5.53716        -4.14419
LJ         -0.169873         4.15849        -5.99283
LJ          -2.17931        0.257931        -5.77075
LJ           1.39435        0.262385        -3.01007
LJ        -0.0375696         4.67087         5.92638
LJ            5.2212        0.533544        -1.45465
LJ           1.70746       -0.219499         2.47084
LJ         -0.699675         5.58717        -5.55899
LJ           6.42474      -0.0482239       -0.864841
LJ           5.13462        -3.21874        -2.28516
