108
#Comment!
LJ          -1.19849        -6.31551        -5.69628
LJ         -0.153147        -6.16451        -3.94405
LJ          -2.08507       -0.558408        -5.07926
LJ          -2.21227        0.884587        -4.51995
LJ           1.54546         5.48873        -3.26993
LJ           -2.5685       -0.848139         5.55332
LJ           4.19253         4.45559        -2.07225
LJ          -2.55795        0.114262         6.13475
LJ          -1.99944        -2.84945        -5.47402
LJ          -2.09002        -1.71905         6.00159
LJ          -1.06213        -1.14558        -3.52438
LJ           3.04274        -6.28748         2.49314
LJ          -6.06564        -5.88559         3.59855
LJ          -4.33667         3.19928        -2.28676
LJ          -2.42878        -5.55207         -1.2529
LJ          -5.08843       -0.524638        0.202789
LJ           1.76363        -1.43789        -5.90656
LJ           4.13938         -6.4323        -6.14414
LJ           6.24681         -3.0523        -2.04915
LJ           -4.0323         1.82656        -4.78179
LJ          -2.00739        -2.79712        -2.31722
LJ           0.53976          5.4895        -5.44267
LJ           1.63871         6.06585         4.44145
LJ           1.08354         5.00089         6.43707
LJ           4.93524         1.84861       -0.866792
LJ           4.18852        0.782642         3.72928
LJ          -2.47008        -3.27974        -4.29745
LJ          -1.96064        -5.28715        -4.34716
LJ          -3.13273        -5.71707        -3.76337
LJ          -5.83582        -1.40327        -1.88109
LJ           -2.7053        -1.53082        -4.35545
LJ           5.55773        -2.23238        -2.71388
LJ          -2.69579         -2.3218        -6.27875
LJ          -6.15079        -4.82644         4.75773
LJ           1.22154         0.67389         6.06881
LJ          -3.05394          2.0133        -4.42557
LJ          -1.27021          -2.607        -3.37994
LJ         0.0882671         4.17767         3.98152
LJ          -6.13389        -2.11973         -1.2638
LJ           5.95494        -1.72652        -1.89009
LJ            4.7712        -6.22317         3.68871
LJ          -5.70089        -4.01082         6.43348
LJ           2.52541         5.85645        -3.08513
LJ          -5.47646        -3.85779         2.84425
LJ         -0.546288         5.75874        -4.38285
LJ           1.14347         3.55874         3.81926
LJ         -0.420245        -6.13894        -5.02044
LJ          0.615506         3.65562         5.24503
LJ          -4.37459         -3.9692         6.19533
LJ           2.03495         5.53984         2.93326
LJ            6.4355         -1.3673         3.16312
LJ          -6.28132       -0.415729         0.28657
LJ           6.39163         3.67045         0.51667
LJ           -4.5752         3.65901        -3.51154
LJ          -1.00323        -5.27901        -4.93821
LJ          -6.24455       -0.695143        -3.30931
LJ           0.96891         6.30198        -5.98059
LJ           5.36379        -1.27512        -2.94004
LJ           3.85191      -0.0883902        -6.10614
LJ           -4.6663        -5.09073        -6.20073
LJ         -0.431769         1.88893        -2.64465
LJ          -6.07136        -6.41952         5.96455
LJ         -0.120947         4.67568        -4.93997
LJ          -5.78531         3.55793         1.82308
LJ            6.1126       -0.471875         -2.0107
LJ           1.72544       -0.509364        -3.68074
LJ          -1.40397        -2.28572         5.50778
LJ          -1.85453       -0.874695        -6.35332
LJ            3.6982        -3.75374        -3.41845
LJ           2.50493        -4.84201        -0.27925
LJ           3.98236        -6.36448         1.47666
LJ          -6.12339         -5.9032        -5.92039
LJ          -4.30583         2.48686        -3.22697
LJ          -5.51375         3.42096        0.719819
LJ            4.5618        -5.30755         3.05554
LJ          -1.29973        -1.95648        -6.10071
LJ          -4.32322       -0.725308        -4.32079
LJ          -1.37509         1.59147        -5.71967
LJ          -1.19871        -1.18534        -4.96674
LJ           4.27883         3.29681        -2.42941
LJ          -1.12767        0.219069        -5.42267
LJ          -3.94194         2.85508        -4.29483
LJ           2.63133        -3.00959        -5.02591
LJ           1.15699         4.41847        -3.55787
LJ           3.20763       -0.236318        -1.16519
LJ            1.4271        -4.18972        0.814395
LJ           6.03489         5.92362        0.955733
LJ          -3.10946       0.0144226        -4.74774
LJ          -2.85703       -0.781176        -5.97855
LJ          -3.08965         1.01317        -5.18226
LJ          -3.04327        -2.88734        -5.15411
LJ          -3.24464        0.259601        -5.93502
LJ          -2.20082        -1.75178        -5.30265
LJ          -3.64685        -3.25728        -5.93314
LJ          0.261343           5.982         6.00297
LJ          -3.13059         2.89944         4.76301
LJ          -4.92276        -1.38113       -0.880873
LJ           3.95038        -6.33879         2.97649
LJ          0.900422         5.54915        -4.10586
LJ         -0.164922         4.11213           -6.06
LJ          -2.22032         0.32012        -5.86092
LJ           1.39738        0.279049        -3.00171
LJ        -0.0433768         4.71026         5.88769
LJ           5.21209        0.564897          -1.462
LJ           1.69634       -0.228427         2.45589
LJ         -0.619105         5.64205        -5.57363
LJ           6.42807      -0.0495616       -0.861468
LJ           5.10221        -3.20284        -2.29408
