108
#Comment!
LJ          -2.01076         6.27224        -3.81927
LJ          -0.83948        -5.24125        -6.42637
LJ          -1.49099        -2.15785        -5.92367
LJ          -2.13666         1.09965        -3.80578
LJ          0.680499        -5.64758        -5.22257
LJ          -3.73256      -0.0564221        -5.94871
LJ           4.09672         3.14583        -2.15277
LJ          -4.84949        0.181226        -5.56024
LJ          -2.55178        -2.65255        -5.87427
LJ          -2.69288         0.28112         6.26557
LJ         -0.435309          1.0107        -4.41169
LJ           2.19652         -5.7063         2.06319
LJ           6.07668        -5.75537         4.41391
LJ          -3.91796        0.707765        -3.59948
LJ          -2.20987        -3.50048        -4.83207
LJ           6.08251        0.980311        -0.76108
LJ             0.185       -0.528465        -2.55581
LJ           6.30098         4.66926         -6.1938
LJ           6.02082        -2.24674        -1.68423
LJ          -3.53929         1.25645        -4.77719
LJ         -0.849788         -2.2288        -4.12902
LJ          -1.19686         5.17561         -3.5975
LJ           1.60783         4.07989         5.34579
LJ           3.10695        -5.23027         2.68828
LJ          0.878573        0.931745         2.79937
LJ           6.15117         2.03007         1.16695
LJ          -1.98821        -1.14453        -2.75836
LJ          -2.93874        -5.14574        -3.25836
LJ          -2.22787        -5.31325        -4.30056
LJ          -5.93682        -1.46468        -1.95315
LJ          -4.95649       -0.904583        -5.71809
LJ          -4.38318         -3.1615        -1.72539
LJ          -2.59089     -0.00978771        -5.56312
LJ          -3.77141        -4.34176        -6.05235
LJ         -0.297966         5.72824        -6.21244
LJ          -1.85702         2.97004        -4.42006
LJ          -1.74177        -1.93371        -3.55344
LJ           1.21764         4.67015         3.77543
LJ          -5.70047        -2.90394        -1.99576
LJ          -5.35379        -2.03865        -1.28978
LJ           3.41687        -6.36098         3.42694
LJ          -5.17686        -3.35956        -5.21238
LJ           1.42303         4.94046        -2.40483
LJ          -4.88673        -5.90615         3.04008
LJ          -0.75968         6.14071        -4.00235
LJ        -0.0639735         4.58007         4.55237
LJ         -0.411618         5.62769        -4.89522
LJ          0.710996         3.35796         5.70377
LJ          -3.90444        -2.64892        -4.69743
LJ           3.03628         4.96241         1.92713
LJ           5.87488       -0.826912         1.52298
LJ           5.80752         1.39287        0.330311
LJ           6.12117         4.80447        0.694931
LJ          -4.09814        0.477668        -2.55278
LJ         -0.710535         6.42669        -5.60016
LJ          -5.93604       -0.626671        -3.79957
LJ           1.06393         5.91023         5.74783
LJ          -6.46056        0.609857        -3.61621
LJ          -4.97915       -0.798424         5.37749
LJ          -4.76652        -4.74517        -5.95427
LJ          -0.64163         2.40084         -4.6309
LJ          -6.21918        -6.01576        -4.34996
LJ          -2.10713         4.68704        -4.46905
LJ          -6.26053         4.03521          1.5397
LJ            6.1337       -0.244933        -2.94734
LJ          0.994065        -1.85259        -1.76439
LJ          -1.45945         -4.4907        -4.74598
LJ           -2.9128         1.10149        -5.64897
LJ           5.00471        -2.02099        -5.57919
LJ           2.19722        -4.18641       -0.403996
LJ           5.24751        -6.32714         2.91348
LJ          -5.86438        -4.99526        -5.71971
LJ          -2.95454         1.19714        -3.26473
LJ           -6.3007         3.96963        0.274074
LJ           5.36156        -5.32489         3.32262
LJ         -0.994015        -3.48232        -5.33327
LJ          -5.35797       -0.162876        -2.95339
LJ         -0.795969       -0.602917         4.29495
LJ          -1.84559         -3.4557        -6.33533
LJ           4.93465         3.48694        -2.78946
LJ           1.29206        -5.07705        -5.92157
LJ          -2.67908         1.99469         -4.6436
LJ         -0.592218        -4.97042         5.38386
LJ         -0.159423         5.44789        -3.34502
LJ           5.21406        0.374188        -2.92439
LJ           3.20585        -4.77413         -1.3523
LJ           3.48213         6.45686         2.11966
LJ          -5.26248        -1.24254         -3.0277
LJ          -3.17615       -0.461519        -4.70402
LJ          -3.04384        0.523419         -4.0954
LJ          -3.53374        -3.22926        -5.59551
LJ          -4.21441        -1.00109        -4.61757
LJ          -2.12682        -2.47458        -4.87529
LJ          -4.78094        -1.90212        -5.04762
LJ         -0.933839         4.86078        -5.59144
LJ         -0.228865         2.22505         2.87155
LJ          -4.72748        -1.17704        -1.78043
LJ           4.50066         6.32876         1.61034
LJ          0.546686         5.26901         5.20647
LJ         -0.786359         4.34135        -4.37694
LJ          -4.13246        0.284163        -4.74506
LJ           0.46134         -2.0006        -3.18864
LJ          0.735056         4.41561         5.91184
LJ          -5.88519        0.292126        -1.97255
LJ           2.28438         0.50614         3.16277
LJ          -1.46062         5.57119        -4.81922
LJ          -5.57709       -0.818504        -1.03415
LJ          -5.23433        -3.77587        -1.33704
