108
#Comment!
LJ          -2.76088        -5.04612        -4.39154
LJ          -1.51766        -4.35128         5.76331
LJ         -0.573936        -2.63779        -3.57994
LJ          -2.92894        -2.69644        -3.52382
LJ          -3.47468        -2.76471        -2.29815
LJ          -3.97685         -3.5764        -3.25115
LJ         -0.482188         2.62321        -4.64916
LJ           6.44277        -2.46679         5.43409
LJ          -4.30138        -4.96269         6.03057
LJ          -2.62998        -1.42759        -6.04102
LJ          -3.79584         -5.8298         6.20618
LJ           2.53757        -6.14647       -0.744297
LJ           4.14439         5.42564        0.868502
LJ           -2.8806        -1.82669        -2.48485
LJ         -0.915929        -3.45383         4.85995
LJ          -6.38093         4.59693        -3.93679
LJ          -3.61407        -1.76063        -4.66976
LJ          -2.50715         3.20265        -2.55992
LJ          -3.25967        -1.74423        -3.71579
LJ          -4.52934        -4.93832        -4.41578
LJ          -2.22744        -3.31787        -5.53623
LJ          -3.14588         5.17741        -5.08332
LJ          -2.51612        -5.98594        -6.05485
LJ           4.75879         4.50636         1.03137
LJ          -2.44383         4.29783        -2.36597
LJ           1.06205        0.387123       -0.501625
LJ         -0.716365        -3.84137        -5.06025
LJ          -1.85065        -5.33519          6.3963
LJ         -0.653932         4.72474         4.84229
LJ           -1.4593        -3.50186        -1.74671
LJ          -2.76902        -3.58854        -4.63405
LJ          -4.25483         6.42629        0.558975
LJ          -3.17761       -0.737933        -4.24742
LJ          -2.86737        -3.59707        -6.36253
LJ          -3.39539        -4.97453        -3.42868
LJ           3.71592        -4.49568         4.84716
LJ          0.901634        -1.62507        -4.59226
LJ          -3.85677        -5.44939        -5.50311
LJ          -1.66796        -2.48525        -5.89375
LJ          -2.23704        -5.62484          3.1905
LJ           3.50404         5.70154        -1.87213
LJ          -4.89827        -5.95429        -6.33741
LJ           2.70288        -5.12724        -1.06902
LJ          -4.10278         1.47689           3.293
LJ           -2.0043           5.204        -5.24438
LJ           5.24525         1.67483         0.10352
LJ          -2.62273        -4.66087         6.25932
LJ         -0.612752        -2.53527          2.5519
LJ          -4.18582         -0.5862        -4.63556
LJ           5.64103       -0.794072        -2.93476
LJ           3.25879        -1.63267         1.82272
LJ           5.35411         5.18237        -3.66624
LJ           4.03705         4.46643        -1.13059
LJ          -3.82132       -0.546108        -2.64436
LJ          -3.60093         -4.3622        -6.27707
LJ           5.69564         -2.8562         5.97868
LJ          -2.11154        -3.45493         2.11557
LJ          -1.48826        -1.54014         -5.4386
LJ           5.63188          6.1259         1.81805
LJ          -4.85755        -4.71246        -6.00744
LJ          -2.86464         -6.4595         5.96187
LJ           1.60002         5.30162        -1.76675
LJ          -2.92553         -4.9808        -5.63672
LJ           5.38203         5.36073        0.578207
LJ           6.13698        -2.68376        -5.59457
LJ           1.33234         5.35222        -4.59835
LJ          -5.96856         5.30296        0.512635
LJ           1.64003         6.05231          5.9824
LJ          -2.42804        -2.74698        -2.51696
LJ           5.40839       -0.340331        -5.46677
LJ           1.67536         6.24328         4.80898
LJ           -5.8086        -3.02224         -6.4557
LJ          -3.78403        -4.47336        -2.44733
LJ           3.42189         3.79691        -1.44616
LJ           2.60992         5.49133        0.200571
LJ           -3.5081        -3.04684        -5.47588
LJ          -3.01177        -2.64998        -4.60444
LJ         -0.798055         5.80122        0.381047
LJ          -3.52922        -4.35851        -5.07152
LJ           5.91386         4.33651        -3.02618
LJ          -1.07813        0.014481        -5.52476
LJ          -2.19101        -1.34418        -3.70416
LJ           3.58935        -6.10218        -2.18395
LJ         -0.649608        -4.54522         6.39298
LJ          -1.70459        -4.19704        -3.62502
LJ         -0.130017         5.88769         3.47913
LJ           4.48785          5.2335       -0.463206
LJ          0.252908        -6.32008         6.24907
LJ          -4.29891        -1.27368        -3.42849
LJ          -2.24472       -0.587098          -1.878
LJ           1.33651        -6.03506       -0.535982
LJ           1.19865       -0.633977        -1.38649
LJ          -5.23389       -0.379876        -3.05452
LJ          -5.90645        -4.05659         6.00971
LJ          -1.18371        -4.66757        -5.27606
LJ           1.83759         6.24044        -5.10661
LJ          -1.96756        -2.59054        -4.72176
LJ          -2.85308          -2.536        -6.09594
LJ          -0.82687        -5.69793         6.06315
LJ           -1.7899        -4.90734         4.70342
LJ          -3.83785        -3.37446        -4.43765
LJ          -1.62003        -3.90603        -6.15462
LJ          -1.72211         -6.3696         6.03774
LJ           5.66145        -2.78123         4.55045
LJ            1.6976        0.685902         -1.4972
LJ          -1.54535         5.45483         6.01869
LJ          -4.21134        -3.61816        -5.83001
LJ         -0.142053         2.00685      -0.0893651
