108
#Comment!
LJ          -2.82125        -5.84537        -6.38455
LJ          -2.26623        -2.87667         5.74977
LJ          -2.11344        -2.44899        -3.61891
LJ          -3.17123         -2.6593        -2.40462
LJ          -2.14106        -2.54507        -2.35677
LJ          -4.16534        -2.84887         -5.2831
LJ           2.33934         3.04446        -3.18501
LJ           6.22585        -4.31098        -6.15775
LJ          -3.18256        -3.02451          5.1178
LJ          -4.12192        -1.70457        -4.44933
LJ          -1.06395          5.8643         6.12521
LJ           1.61775        -5.59576        -1.10104
LJ           5.10671        -6.11745         1.93925
LJ           -2.9116        -1.75326        -2.97386
LJ          -2.34613        -5.59114         5.18612
LJ           5.66073         3.27426        -3.29396
LJ          -3.20553       -0.768759        -3.86694
LJ          -2.96588         3.35175        -4.12297
LJ          -3.71706       -0.900771         -2.6894
LJ           5.75025        -2.29226        -3.77129
LJ          -2.40176        -3.27274        -4.17778
LJ          -2.77449         5.56971        -3.35651
LJ          -2.52501         5.10208         5.32378
LJ           4.43018          5.9221        0.867035
LJ          -3.14735         2.24477        -4.05996
LJ           2.91462         1.00843        -1.14662
LJ          -1.51387        -2.96198        -5.55541
LJ          -1.32501        -5.52489        -5.81417
LJ         -0.202116         5.45658        -6.30401
LJ          -3.93737        -3.39086        -2.79693
LJ          -3.60777        -3.12877        -4.40319
LJ          -4.73307        -5.04204        -1.39478
LJ          -2.49301        0.248383        -2.78495
LJ          -2.10651        -4.16064        -6.20881
LJ          -3.05326        -6.01319        -5.26481
LJ           5.53696         5.83674         3.33467
LJ         -0.663969         -1.0714        -4.33877
LJ          -3.08739          6.2706         5.84196
LJ            -3.445        -1.38104         -5.2107
LJ          -2.19379         4.04174        0.900071
LJ           4.75248        -6.33077       -0.436903
LJ          -3.62939        -5.21977        -6.40355
LJ           2.00978         -2.2928       -0.514968
LJ          -4.32757         2.55407         3.30495
LJ          -1.78633         4.41681         6.09166
LJ           4.82233         1.55833         1.07354
LJ          -1.87863        -5.35636         6.17068
LJ          -1.15692        -4.46154         2.49194
LJ          -2.87096        0.473652        -4.58294
LJ           3.83916       -0.436829         6.41334
LJ           3.39597        0.334718       -0.265828
LJ           4.97107         4.10954        -3.71453
LJ           5.27915         5.50328        0.338004
LJ          -4.19206        -2.07249        -2.53037
LJ          -4.50078        -3.82448        -4.92166
LJ          -5.16388        -2.82435         -4.7361
LJ        -0.0171324        -4.72792         3.64866
LJ          -1.83343        -1.33411        -5.06789
LJ          -5.05189         4.37158        0.749663
LJ          -4.46475        -3.51611         6.36851
LJ         -0.887832         -5.8244         6.07281
LJ           3.50984         6.26113       -0.484806
LJ          -2.38992         -5.1009        -5.60559
LJ           4.91584         4.11321        0.412908
LJ           5.41172       -0.932367        -6.39882
LJ           1.38534        -5.83184        -2.29451
LJ          -5.20548         4.75588       -0.281414
LJ            2.9607         4.47624         4.57164
LJ          -1.50882        -1.60729        -3.84085
LJ            4.1849        -2.22107        -4.51035
LJ          0.860109         5.89614         2.48604
LJ          -4.78749        -5.17162         5.31441
LJ           5.45119        -1.65145        -2.71236
LJ           3.76562        -1.11217         -1.3342
LJ           2.81511         6.31737        0.778441
LJ          -3.13598        -2.49305        -5.12621
LJ          -3.41928        -2.23963        -3.78261
LJ         -0.989385        -5.91739         -1.9418
LJ          -3.23867        -4.32026        -6.02712
LJ           5.42007         4.10115        -2.52448
LJ          -2.69218       -0.588253        -4.87326
LJ          -1.78511       -0.728435        -3.15357
LJ           4.30851         6.40941        -2.45741
LJ          -1.22632        -4.75122         5.51935
LJ           -2.4249           4.792        -4.31638
LJ           1.77562        -6.42445         2.61677
LJ           4.84768         5.48066       -0.879586
LJ         -0.749781        -5.86477        -3.54571
LJ          -3.49309        0.216796        -3.49939
LJ          -1.56074        -0.57946        -2.16905
LJ          0.874242        -4.56621       -0.709755
LJ          0.952225        -1.20465        -2.75318
LJ          -4.98408        -1.49862         -2.0991
LJ          -6.16577        -2.57548         6.09687
LJ          -1.23902        -6.26655        -4.89311
LJ            1.3566         5.16543        -3.67543
LJ          -2.71407        -1.69632        -4.43232
LJ          -2.90824        -3.20441        -5.89301
LJ         -0.844539         5.72537        -5.30763
LJ            -2.493         -4.5519         5.73491
LJ          -4.39716        -1.72444        -5.98951
LJ           -2.0903        -3.85357        -5.09022
LJ          -1.26068         5.10176        -6.05363
LJ           4.37465       -0.440466         4.29823
LJ           2.51397         1.01437         -2.2533
LJ           -2.0066         6.24632        -5.62217
LJ          -5.51354        -3.65447        -6.09463
LJ          -1.04294        0.498438         1.75652
