108
#Comment!
LJ          -1.90109         6.45242        -5.65907
LJ          -3.03291        -3.81381         -6.0524
LJ          -2.45638         -2.7142        -4.30994
LJ          -2.45984        -2.64759        -3.20923
LJ         0.0746782         -2.4035        -3.08685
LJ          -4.24164        -1.61333         -5.4278
LJ           3.52057         3.11707         -1.2688
LJ          -5.07927        -2.29844        -5.56645
LJ          -2.51983        -3.64029         4.77131
LJ          -4.45525       0.0396296        -2.96173
LJ          -0.40188         5.44845         6.15163
LJ           1.32832        -5.63812       -0.879585
LJ           4.60376         6.08067         1.59896
LJ          -2.20133        -1.12694        -3.03242
LJ          -2.16131        -3.67064          -4.445
LJ           5.63433         2.09742         -2.0092
LJ          -1.81034        -1.91584        -2.38303
LJ          -4.52943        0.486813        -5.47962
LJ          -4.27678         -1.0761        -3.11992
LJ            1.1095         1.01445        -3.46837
LJ          -3.93069        -3.50928        -4.31412
LJ         -0.893605         4.58004        -3.11191
LJ          -1.82462         4.28751         2.98006
LJ           4.03222        -6.09465        0.407158
LJ          -3.60384         1.10137        -5.74777
LJ           4.74834         2.67741        -1.17552
LJ          -1.60043        -2.55908        -5.08811
LJ         -0.264574          6.0832        -4.23234
LJ         -0.954911         6.11602        -3.35494
LJ          -5.41874         -1.0278        -3.45675
LJ          -4.43846        -1.58692         6.38248
LJ            -4.252         -3.5533        -2.24087
LJ           -1.0512        -1.29391        -3.05439
LJ          -1.71388        -2.39261        -6.36802
LJ          -2.78702         4.88709        -5.90969
LJ          -6.20365         3.44484        0.308816
LJ          -2.12817         -1.6045        -3.84738
LJ          -1.50209         4.82876          4.5222
LJ          -3.05891        -1.47155         -3.5114
LJ          -2.69992        0.829632        -1.59182
LJ           5.43524        -5.22959         1.75031
LJ          -5.58495        -1.29467         -5.4994
LJ           1.20559        0.706327      -0.0820155
LJ          -4.54311         3.90218         3.28482
LJ           0.45778         4.66405        -6.29115
LJ           4.10999         1.41885          1.9597
LJ          -1.20645         -5.5854        -5.74333
LJ         -0.428006         5.24321          3.9791
LJ          -4.38536       -0.481207        -5.21539
LJ           2.51516         1.39924         3.07285
LJ           4.85432         1.36561        -1.76737
LJ           4.61732         3.55564        -2.49937
LJ           5.02418         4.33159        0.379415
LJ          -4.50087        -1.06875        -1.91177
LJ           -3.1816        -3.50136        -4.98969
LJ          -5.06383        -1.50142        -4.55958
LJ          0.933965        -5.15846          4.3248
LJ          -3.47815       -0.331852        -3.96866
LJ          -1.92635         1.76904          -1.185
LJ          -3.56811         -2.7789         5.25916
LJ           -0.1976        -6.03722         6.45807
LJ           3.32961        -5.44629       -0.247078
LJ          -1.11754         6.20254        -5.00224
LJ           5.14778         5.19767         1.26871
LJ            5.6012        -1.32758         6.36409
LJ          0.925798        -5.07403     -0.00778085
LJ          -2.00787         2.87275        -1.12004
LJ           5.84653         3.08669         2.22841
LJ          -2.91135       -0.989889         -4.6467
LJ           4.05853        -3.49219        -3.55591
LJ           2.97518        -6.32422         2.45015
LJ          -5.10361        -4.77561         1.43291
LJ          0.123124        0.152484        -4.18869
LJ           4.81277        -5.81211       -0.890878
LJ           4.34317        -5.84407         1.75268
LJ          -3.92368        -2.63897         -5.1311
LJ           -4.4933       -0.545193        -4.09881
LJ          -1.24015        -4.23728       -0.169695
LJ          -3.72331        -4.57304         6.43799
LJ           5.47493         3.00954        -3.13697
LJ          -3.26741        0.627979        -3.20997
LJ          -1.69412       -0.598953        -2.22515
LJ           -5.6255         6.45392       -0.620485
LJ          -2.20982         6.30382         6.12448
LJ          -3.83273         1.87045        -4.64272
LJ           1.85893        -6.34465       0.0313232
LJ           4.73633        -5.23748        0.851013
LJ          -1.86109         -3.5994         6.33631
LJ          -3.16438       -0.418095        -2.91803
LJ          -2.49768       -0.607941        -3.88537
LJ         -0.809692        -1.59398        -2.05944
LJ          0.354452        -1.42695        -4.18746
LJ          -3.71272        -3.16948        -3.37577
LJ           5.65609       -0.924954        -5.54942
LJ          -1.44842         5.26532        -4.18608
LJ          0.611587         3.73294        -2.39343
LJ          -3.48992        -2.37492        -4.00375
LJ          -4.66448        -3.31217         5.66998
LJ          -1.39933         5.24197        -6.44328
LJ          -1.62475        -5.78467        -4.83268
LJ          -3.00174        -2.08014        -4.94876
LJ          -3.55452        -4.65051        -3.81537
LJ          -1.08651         5.27417        -5.46781
LJ           1.30373        0.395187         3.89303
LJ           2.24573         1.32037        -5.42992
LJ          -1.02383         6.20969        -6.19032
LJ          -6.06056        -2.33922        -5.19716
LJ          -2.09188        -1.29735         3.91434
