108
#Comment!
LJ          -3.07733        -6.06266        -6.36305
LJ          -2.95609        -4.33125        -5.94263
LJ           4.26487        -1.65018       -0.513463
LJ            -2.589        -1.89219        -4.28178
LJ         -0.978557        -4.57762        -3.64827
LJ          -2.53927        -3.69082        -4.12824
LJ          -3.10383         2.09427         5.36979
LJ          -5.75633        -2.22798         6.27688
LJ          -4.04052        -3.70454        -6.21105
LJ         -0.203411        -1.23437        -3.84827
LJ          -4.39594        -6.27087        -6.13442
LJ           2.12913         4.49703        -1.84338
LJ           5.26531         5.73103         1.05907
LJ          -1.48356        -3.37078        -3.91572
LJ          -1.23641         -5.6132         5.60355
LJ          -5.33576        -6.25004        -4.11251
LJ          -3.48453        -3.95266        -5.06443
LJ          -1.04021         5.52323       -0.027794
LJ          -4.58673        -3.41037         -5.2441
LJ          -1.62467        -5.67817        -5.33089
LJ          -2.82291        -4.86341        -5.02604
LJ          -3.90402        -3.80251         3.55347
LJ          -4.04295         6.20436        -4.64107
LJ           5.67465         5.51868       0.0109172
LJ          -1.51507         5.77411         1.09114
LJ        -0.0633113            1.89       -0.988868
LJ          -1.44416         -2.3232         5.05514
LJ          -0.76018        -3.84647        -6.14476
LJ          -1.98336         4.82705         3.09556
LJ          0.272122        -1.74315         0.74941
LJ          -1.56008        -4.46501        -4.67492
LJ         -0.622651         6.21403         1.75859
LJ          -3.64404        -1.29015        -5.68126
LJ          -4.97847        -3.00313        -6.08422
LJ          -0.61337        -1.00703        0.430828
LJ          0.560052        0.112319        -5.41342
LJ          -5.88874        -3.52236        -5.97586
LJ          -4.67155         5.50646        -3.89664
LJ          -3.85368        -2.68577         5.99555
LJ          -1.98315        -3.44107          6.2217
LJ           1.82101         3.54253        -1.42356
LJ           -4.5764        -5.79358        -4.52849
LJ          -5.94183         6.00015        -2.41533
LJ          -3.70905       -0.422085         3.28744
LJ          -4.25685          6.4197        -3.59695
LJ           5.84336         2.08681        -1.71065
LJ          -2.96121        -3.70181         5.52619
LJ          -1.25234        -1.87359         3.75157
LJ          -5.56054        -2.97293        -2.43842
LJ          -4.28977        -2.37028         2.07593
LJ           3.15281         -5.2657         5.53304
LJ          -6.18776        -6.14131         -3.0823
LJ          0.292844         3.52469        -2.45596
LJ          -3.81207        -2.81936        -4.18313
LJ          -3.92496        -4.73528         6.31592
LJ           -6.1615        -4.85568         6.21449
LJ          -4.42098        0.880242       -0.576469
LJ          -4.41078        -3.43581        -3.62408
LJ           4.90499        -4.30282        -2.09331
LJ          -3.63126        -5.89525        -5.32844
LJ          -2.45219         6.05061         3.26973
LJ           1.62099         4.96924       -0.940645
LJ          -3.20392        -6.05577        -3.91375
LJ           3.42885         5.34437        0.773708
LJ            3.9123        -1.93752        -1.46047
LJ          0.659203        -5.79371         1.75863
LJ           4.34511         5.29249         1.28748
LJ           5.74783        -5.35446        -2.20184
LJ          -0.57532         -3.8704        -4.25184
LJ          -4.77309         2.74939          -5.897
LJ           1.15513         5.25491        -5.66654
LJ           -5.9747        -3.44649         5.18272
LJ          -1.69283        -5.36135        -3.15002
LJ         -0.490591          2.2692        -2.18696
LJ           3.79858         3.51771        -1.86145
LJ          -2.45696        -3.59306        -5.27775
LJ          -2.82858        -2.39824         6.17159
LJ          -1.05079         2.79407         4.38704
LJ          -3.61088        -4.89335        -3.26517
LJ          -5.60471         6.11255        -5.00014
LJ         -0.593962         2.39668        -4.39738
LJ          -6.04108        -1.82452        -2.46663
LJ            4.2936        -5.18804         -1.0246
LJ          -1.79154        -4.23666        -5.82657
LJ         -0.595983         3.94268        -4.60929
LJ           6.19792        0.747449         3.87834
LJ           2.98281         4.32071         1.35208
LJ          -1.13695        -2.95737         6.00367
LJ          -2.70197        -2.30927         -5.2463
LJ          -3.01984        -3.41125        -2.75225
LJ          -1.81112         5.56999         2.22288
LJ           1.18148        -1.41115        -1.34876
LJ          -5.73106       -0.454339          4.8208
LJ          -4.28934        -3.58022         5.65561
LJ         -0.870602        -5.00733        -5.83838
LJ          0.812096         -6.0981         2.82269
LJ          -1.36829        -3.51149        -5.34457
LJ          -3.68373        -2.85156        -5.72095
LJ          -1.37176        -4.64181         6.15608
LJ         -0.216588          5.8422         3.62072
LJ            -3.961        -4.93249        -4.36247
LJ          -1.79329        -2.57854        -5.97631
LJ          -2.77654        -6.26995        -4.79877
LJ          -4.42837        -2.18082        -6.16214
LJ          -1.16808         4.27191       -0.227492
LJ          -3.53325           4.456         2.69163
LJ          -4.20833        -3.27084         1.46234
LJ          0.862077         1.79147        -1.52615
