108
#Comment!
LJ          -2.43279        -4.23386        -4.83687
LJ          -3.06928        -3.74206        -5.81064
LJ          -5.61046        0.114079        -1.01053
LJ          -3.52886        -3.82031        -3.83596
LJ          -2.63682        -5.45131          -2.635
LJ          -2.80165        -2.44649        -3.84973
LJ          0.135123         1.10686         4.29074
LJ          -4.09961        -2.11608         5.02165
LJ          -4.71655        -3.36797        -5.55254
LJ           2.84851        -2.86791        -1.52752
LJ            -4.687         5.08111        -6.37124
LJ         -0.130742         2.92996        -2.09568
LJ           4.80412         5.76299         1.19034
LJ          -1.57722        -3.54357         -4.9496
LJ          -2.05571        -5.36724        -5.60475
LJ          -3.18572        -5.29072        -1.69517
LJ          -3.07414        -3.28015        -4.83701
LJ          0.259779         5.68585           3.165
LJ          -3.69427        -5.30202        -3.47451
LJ         -0.724787        -3.75205         4.93498
LJ          -2.11757        -5.34771        -4.52129
LJ           5.80718        -1.84186        -3.89965
LJ         -0.847605        -5.60419        -5.45059
LJ           4.78324        -6.00902         2.21108
LJ         -0.344047        -4.93587         2.38322
LJ          0.319377         1.63132       -0.280098
LJ          -3.85296        -3.24261         5.18351
LJ          -2.11144        -3.07079         6.46131
LJ         -0.676617         5.24824         2.90473
LJ           3.38261        0.922797         3.78847
LJ         -0.158573        -4.84394         5.23289
LJ         -0.170887        -4.42582       0.0664935
LJ           -2.2758        -2.49516       -0.702109
LJ          -3.26665        -1.61492        -5.15341
LJ            2.5837         2.10848         3.01759
LJ          -2.40844         4.31791        -1.92995
LJ          -3.59057        -4.52474         6.03534
LJ           5.90509        -6.16106        -2.47355
LJ          -3.97713        -2.08258          6.3444
LJ          -2.97397        -3.75322         5.65628
LJ         -0.948579         3.52547        -2.73288
LJ          -2.76099        -6.24834        -5.39793
LJ          -3.28897         6.04191         -4.8769
LJ          -3.60752        -2.94726         4.27783
LJ          -3.58078        -4.65496        -4.62187
LJ            6.0944         2.27835        -3.43693
LJ          -4.16858        -2.18447        -5.53882
LJ          -1.62188        -4.44028         6.01292
LJ           3.86315        -1.92627        -4.89883
LJ          0.325095        -2.01342        0.227699
LJ           2.97991         4.25354        -3.89224
LJ          -4.88815        -4.56041        -2.39227
LJ         -0.988538         3.28463        -1.41481
LJ          -3.35712        0.698073        -6.24368
LJ          -3.80378         -6.4178        -5.82342
LJ          -5.62688        -6.30829         4.70292
LJ           6.41647         5.15432        -3.01354
LJ          -4.72575        -5.82324        -1.18124
LJ           3.31923        -6.42051        -2.11559
LJ          -1.52194        -5.25147        -3.62552
LJ          -1.20515         5.76398         1.95319
LJ           1.32105         2.54289        -2.44273
LJ          -3.28209        -6.00117        -4.27118
LJ           1.29272         3.95871        -2.19624
LJ            1.1452       -0.839923         2.95328
LJ          -1.20728           -3.78        -1.82452
LJ           4.81729        -5.76124         1.05926
LJ           4.43374        -3.65352        0.735057
LJ          -2.53533        -4.73806         6.29545
LJ          -3.87239        -5.71617          -5.016
LJ         -0.148467         2.43552        -3.44221
LJ             6.159         5.01006         3.44724
LJ          -2.11935        -3.63338        -3.89162
LJ          -1.05057        0.094078        -1.40669
LJ           2.01248         1.11571        -3.51887
LJ          -1.31306        -4.24688        -5.75677
LJ          -3.41829        -2.69957        -6.01849
LJ          -4.91135        0.356989          5.4739
LJ           6.29802         4.35459        -1.18333
LJ          -3.10374        -4.80223        -5.77644
LJ            1.9829        -3.51032        -1.71689
LJ           3.08972        -5.39096        -1.80975
LJ          -3.33815        -4.59151        -2.68797
LJ          -4.19396        -6.17468         4.92648
LJ           0.96402        -6.31743        -6.21325
LJ             0.545        -4.93477         3.23584
LJ          0.840923         1.58739         -1.2133
LJ           -1.9389        -3.56169         5.22429
LJ         -0.304693        -4.13121        -5.15915
LJ         -0.619637         -2.8116        -5.21345
LJ           1.96575         5.86915         2.99342
LJ           1.44665        -2.04036        -1.13315
LJ           5.39658        -4.51235         1.19879
LJ          -3.99852        -4.05739        -5.37037
LJ          -2.93853            -4.9         5.08463
LJ           0.45826        -5.21419       -0.744814
LJ         -0.932304        -2.83797         5.63391
LJ          -1.40832        -2.42517        -5.87585
LJ          -3.13588         -6.1008         6.30715
LJ          -0.51472        -6.08065       -0.444057
LJ          -2.76889        -4.62821        -3.90309
LJ           -3.1823        -2.71736          5.8216
LJ          -1.48386        -4.52366        -4.51159
LJ          -2.46406        -2.58595        -5.33984
LJ         -0.974895        -4.51564        -2.73655
LJ          -6.04171        -2.78061         4.52472
LJ          -4.80049          1.5752       -0.612131
LJ        -0.0516357      -0.0771871        -1.79301
