108
#Comment!
LJ          -2.53314        -4.32375        -4.79423
LJ          -2.56978         -3.5893        -5.87606
LJ          -5.47938        0.321455        -1.34755
LJ          -2.99232         -3.7651        -3.59877
LJ          -2.51077        -5.78247        -2.96587
LJ          -2.55874        -2.22137        -4.16806
LJ          0.475663        0.922623         4.28567
LJ          -3.99815        -2.54574         5.19526
LJ          -4.69098        -3.01031        -5.89809
LJ           3.35381        -2.78679        -1.08407
LJ          -4.74833         4.90118        -6.17165
LJ         -0.236424         2.78843        -2.12531
LJ           4.90078          5.9082           1.429
LJ          -1.17171        -3.24294        -4.83671
LJ          -2.08429        -4.88417        -5.97612
LJ          -3.32668        -5.23485        -1.67645
LJ          -3.26074          -2.867        -4.65945
LJ          0.507308         5.85665          3.3343
LJ          -3.65254        -5.33197         -3.5791
LJ          -0.90724        -3.35735         4.64082
LJ          -2.15752        -5.33333        -4.75237
LJ           5.59873        -1.78672        -3.22939
LJ         -0.837841        -5.64073        -5.63662
LJ            4.7286        -5.94988         1.97277
LJ         -0.683094        -5.07122         1.88435
LJ          0.258413          1.5126       -0.264198
LJ           -3.9314        -3.60195         5.78361
LJ          -2.34868        -2.92936         6.21559
LJ         -0.693009          5.2916         3.11525
LJ           3.81877         1.37401         4.12488
LJ         -0.556978        -4.60598         5.00818
LJ         -0.327754        -4.30468       -0.736969
LJ          -2.41759        -1.98951       -0.301483
LJ          -3.12479        -1.82044        -5.00859
LJ            2.7093          2.2879         3.25595
LJ          -2.61083         4.67881        -1.47487
LJ          -3.85477        -5.10482         6.05519
LJ           5.74174         -6.0247        -2.12506
LJ          -4.23119         -2.2393         6.15053
LJ          -2.73314        -3.95141         5.90054
LJ         -0.965339         3.42813        -2.73671
LJ          -2.80177        -5.90136        -5.32788
LJ          -3.09742         5.72898        -5.19047
LJ           -3.4388        -2.98808          4.3524
LJ            -3.395        -4.68775         -4.3204
LJ            6.0776         2.30155        -3.61404
LJ          -4.23237        -2.23945        -5.04021
LJ          -1.67057        -4.71387         5.66435
LJ           3.62836        -1.82907        -5.28124
LJ          0.811091        -1.95367       -0.081698
LJ           2.95093         3.92888         -3.5473
LJ          -5.09976        -4.35192         -2.6851
LJ          -1.00278         3.32463        -1.63851
LJ          -3.23612        0.951048         6.19465
LJ          -3.76546        -6.43786        -5.70564
LJ          -5.79934         6.40883         4.30016
LJ            6.2414         5.65512        -3.11653
LJ          -4.33098        -5.86985       -0.823248
LJ           3.08843          6.2895        -2.18901
LJ          -1.29044        -4.93123        -3.57789
LJ         -0.946463         5.53166         2.05675
LJ          0.843406         2.31339         -2.5239
LJ          -3.39074        -6.45157        -4.11844
LJ           1.22932         3.81127        -2.48741
LJ          0.914738       -0.821642          3.3242
LJ          -1.10447        -3.60941        -2.34408
LJ            4.3081        -6.29461        0.747142
LJ           4.44674        -3.67404         1.09347
LJ          -2.66935        -5.12717         5.95588
LJ          -3.95651        -5.22896        -5.27289
LJ         -0.341116          2.2096        -3.15362
LJ           6.10061         4.51371         3.66702
LJ           -2.1949        -3.18404        -4.32698
LJ          -1.13142       -0.135789        -1.24453
LJ           1.76962        0.969805         -3.6004
LJ          -1.13109        -4.55283        -5.52545
LJ          -3.64407        -2.92775         -5.8665
LJ          -5.27817        0.177742         5.51233
LJ           5.98873         4.05153        -1.31267
LJ           -2.9849        -4.48744         -5.7993
LJ           1.90659        -3.01464        -1.62614
LJ           2.74625        -5.66155        -1.60974
LJ          -3.14719        -4.81246        -2.72105
LJ          -4.29155        -6.05283         5.00491
LJ           1.15815        -6.26362        -6.32587
LJ          0.544504        -5.41472         3.59609
LJ          0.653319         1.38139        -1.51698
LJ          -1.78757        -3.59219         5.28049
LJ         -0.310246         -4.0695        -4.88281
LJ         -0.390936        -2.58937        -5.08466
LJ             2.114         5.87003         3.00499
LJ           1.55655         -2.1578         -1.1508
LJ           5.38855        -4.22227        0.992036
LJ          -3.58454        -3.72561        -5.18797
LJ          -3.14605        -4.57146         5.16712
LJ          0.386227        -5.17024        -0.66463
LJ          -1.18952        -3.17871         6.06221
LJ          -1.58512        -2.88438         -6.0228
LJ          -2.98499        -6.22943         6.40078
LJ         -0.505925        -5.69907       -0.689885
LJ          -2.29451        -4.67214        -3.42147
LJ          -3.06764         -2.5214         5.61928
LJ          -1.37264        -4.23958        -4.47709
LJ          -2.54225        -2.67072        -5.42226
LJ         -0.527392        -4.34654        -2.96221
LJ          -6.18428        -3.48115         4.73296
LJ          -4.74334         2.12483       -0.772329
LJ         -0.111045       -0.239635        -1.82624
