108
#Comment!
LJ         -0.874833         6.40333         -5.2367
LJ         -0.911385         5.24179        -5.25841
LJ           -3.4143       -0.965484        -2.36921
LJ          -3.14998         4.46279        -4.75152
LJ           3.78976         3.94256        -2.43685
LJ          -3.28621     -0.00486754         5.80722
LJ           5.94696         4.91968        0.824714
LJ           -2.2866         2.80734         6.38125
LJ          0.261806        -4.80968        -5.68588
LJ          0.210922        -1.18766         5.58635
LJ         -0.723882        -3.63581        -4.36444
LJ           3.69968        -6.04837         3.70922
LJ          -5.04046         5.33014         3.84106
LJ          -6.20887         4.04512         5.86682
LJ          -4.71311         1.80872        -6.31386
LJ           4.49754       -0.787915        -2.12646
LJ           3.59309         -1.8426         4.41417
LJ           1.59299         -5.8018         -4.1863
LJ           5.41576        -1.77787       -0.527537
LJ          -4.09553         0.50865        -3.29959
LJ         -0.366776         -2.9851        -2.71971
LJ           1.19587         6.06371        -4.67889
LJ           1.15492         6.39463         1.74268
LJ           -2.4871        -1.86694        -2.72835
LJ            1.4815         2.61791        -1.39972
LJ         -0.403311        -2.56834         5.31058
LJ          0.260689        -1.96942         4.69485
LJ          -2.03732         4.42466        -4.31841
LJ          -1.03909        -2.08105        -2.57132
LJ           6.33938       -0.993344      -0.0255506
LJ          -2.27074       -0.623322        -2.59549
LJ            3.9169        -0.12604        0.254238
LJ          0.839399        -2.81201         5.35732
LJ          -4.47685        -3.53318         5.48454
LJ           4.03267        -2.58825         -3.0494
LJ            5.8118         3.51093         5.92793
LJ          -1.53218        -2.79297        -3.28631
LJ           3.38474         2.62971         4.93861
LJ            5.0489        -0.04812        0.441317
LJ           5.15414        -2.35982        -1.99142
LJ           5.79703        -1.24953         4.86546
LJ            5.4318        -5.83303         3.71189
LJ           2.72552         3.59076        -1.54758
LJ           4.94248        -1.44487         4.24624
LJ            1.1498         6.41527        -3.55833
LJ           1.99226         3.63431         4.65656
LJ         -0.162421          6.3501         6.44275
LJ           2.86178         4.58921         2.51004
LJ          -5.73491         6.37808         1.94154
LJ          -1.49201        -6.34588         1.64901
LJ          -5.33054        -2.62107         5.54898
LJ           1.03254         -6.3267        -2.45992
LJ          -4.83362         2.07549        0.899841
LJ          -4.10316       -0.970537        -3.19885
LJ         -0.148013        -5.04489         6.25929
LJ           5.18236        -1.08058        0.342109
LJ          0.744779        -5.95348         5.82631
LJ           3.88299        0.174578        -1.73065
LJ          0.210607         2.44802        -1.34501
LJ           5.58301        -6.23702         2.51605
LJ        -0.0266015         1.44477        -1.39472
LJ          0.386085        -3.01309       -0.565871
LJ         0.0255795        -6.06503        -5.08728
LJ          -5.43222         2.92138        0.896697
LJ           4.05434        -1.17097       -0.188829
LJ          0.431947          4.5082        -3.06807
LJ          -3.90662         -1.9163        -3.61938
LJ          -3.43358       -0.378564         4.42476
LJ          -5.58631        -2.48239         1.53959
LJ           3.02434         5.76211         2.58866
LJ           4.22663        -5.47355         4.63528
LJ          -5.68183        -3.83817         4.65779
LJ          -4.20387         1.17555         -5.4751
LJ          -4.19469         2.89928        0.907856
LJ            5.0849        -2.85205         1.38304
LJ          -2.84443        -3.86638       -0.367332
LJ          -2.15165         3.17704          5.3285
LJ          -2.87749         1.29511         4.63608
LJ          -3.16792        0.974206        -2.65525
LJ           3.51832         5.00021        -2.89929
LJ          -1.46961        -1.77991        -3.91811
LJ          -2.13877         2.03861           4.259
LJ           4.44147        -3.61265        0.990115
LJ            3.9008         3.94233        -1.26155
LJ           4.36402        -1.96109        -1.25861
LJ           1.10367        -5.45051        -5.93792
LJ          -5.81924         1.03289        -2.44369
LJ          -6.11235         3.26083        -6.06674
LJ          -1.19086         1.54114         4.06907
LJ          -5.02076        0.916866        -4.82924
LJ          0.782463       -0.402012         6.25393
LJ           -3.5549         2.82663        -4.40441
LJ          0.894656        -5.60438        -4.85279
LJ           6.21097         5.76078          2.0557
LJ         0.0134569         5.46153         3.28245
LJ           6.10458         4.12018         4.94993
LJ           3.76227       -0.961214        -3.08977
LJ           2.97298        -5.77903         4.61743
LJ        -0.0510694          5.7334        -5.55383
LJ         -0.771706         2.03177         2.86719
LJ          -4.06697        0.222283        -5.93844
LJ          -2.19661       -0.312631         3.54293
LJ           0.55889         4.70529         3.83643
LJ           3.63008        -1.83972        -2.15562
LJ          0.187844        -1.90203       -0.276903
LJ          0.818359        -6.42149        -6.05589
LJ          -6.36519        -1.96587        0.867111
LJ           3.11334       -0.689962        -2.07231
