108
#Comment!
LJ        -0.0846972        -5.41531         5.91326
LJ          -2.52486          5.6154        -5.42768
LJ          -3.52397       -0.746551        -1.58279
LJ          -3.16601         4.24744        -4.05101
LJ            3.3456         3.80826        -2.58282
LJ           -3.4329       -0.216661          6.4621
LJ           5.98014         3.78576         1.34629
LJ          -4.72955       -0.137725         3.56432
LJ         -0.614816        -5.33172        -5.50288
LJ           1.18172         -1.6212         5.81041
LJ          -1.26749        -1.78995        -2.72409
LJ           3.79055        -5.95079         4.38593
LJ          -4.63872         5.48565         3.74099
LJ            6.3522         4.21869           5.998
LJ          -5.27367         2.62828         -4.6386
LJ           2.28151       -0.176464       -0.908009
LJ           3.86991        -2.02783         3.97466
LJ           2.99271        -5.13403        -3.68085
LJ          -6.32119        -2.85677        0.341446
LJ          -2.19374         0.48299        -4.86816
LJ         -0.675512         -3.7896        -3.92276
LJ          0.817789         5.78755         -6.1278
LJ           1.26136        -6.34353         1.38933
LJ          -1.43536       -0.420918         -2.4229
LJ           1.76911         4.19199        -1.20243
LJ            2.0118        -2.45328         4.10833
LJ          0.222596        -2.01436         4.96974
LJ          -2.15235         4.47076        -3.34543
LJ         -0.373666        -2.39669        -1.99584
LJ           6.27051        -2.87513       -0.773996
LJ          -2.66397       -0.138023       -0.856063
LJ           5.06803       -0.777761         1.68073
LJ          0.276922        -2.36969         3.47148
LJ          -4.35104        -3.68051         5.60019
LJ           4.60483        -2.62043        -4.05534
LJ           5.46482         4.01856         5.41309
LJ         -0.630931        -2.59378        -3.13416
LJ           3.37487         2.23837         4.88051
LJ           5.69396        0.570839         1.46153
LJ            5.7856        -3.12516        -2.25441
LJ           6.13392       -0.599633         5.35076
LJ           5.06421        -5.15584         3.46908
LJ           3.16857          4.4088        0.219351
LJ           5.24531        -1.34702           4.895
LJ           1.07483        -6.25586        -4.38494
LJ           2.21234          3.2138         4.52883
LJ          -1.31881         -5.4113         5.83481
LJ           3.71945         2.29849         1.00386
LJ            5.6428         5.33706       -0.576999
LJ          -1.76057        -6.20861         1.44073
LJ          -5.18267        -3.09171         5.57583
LJ           1.97379         4.92155        -4.50185
LJ          -4.50206         1.79975         1.02216
LJ          -4.41451        -1.69097        -3.32759
LJ          0.493839        -5.47833        -6.06816
LJ           5.62135        -1.96061         1.89568
LJ         -0.730483         5.85341        -6.06873
LJ           3.69427       -0.340942        -3.11059
LJ           3.12297         2.77454        -2.07414
LJ           5.88804         6.07217         2.89134
LJ           1.11641        0.512792        -1.45805
LJ           2.89557         -2.0989        -3.92924
LJ          0.294065        -5.59187        -4.98678
LJ          -5.04142         2.82984          0.4719
LJ           1.83244        -2.37711         2.86747
LJ         -0.171082          -6.364        -2.06164
LJ          -4.21195        -2.76307         -4.0096
LJ          -3.03479        -1.53353         4.26323
LJ          -4.21554        -1.61983        0.429354
LJ           4.03903        -6.06342         3.24962
LJ           2.31169        -6.00975         4.33407
LJ          -5.69452        -3.74754         4.72454
LJ          -4.99837         1.34199         6.19483
LJ           -4.0146         2.97287        0.831978
LJ           5.74072        -1.83379        0.115256
LJ          -4.93879        -1.86928         1.98419
LJ           -2.6102          3.9454         5.53943
LJ           -2.7223        0.834127         3.76224
LJ          -3.16151        0.611471        -4.61567
LJ           2.82208         3.38007        -3.48714
LJ          -2.06924        0.232832        -3.32202
LJ          -1.35634         2.63771         4.32335
LJ           2.33353        -3.14272          1.9455
LJ           4.41601         4.51114       -0.513229
LJ           4.46484        0.787883       -0.538013
LJ          -0.46019        -4.82465        -4.43934
LJ           5.48363       -0.223152        -2.41025
LJ           6.31573         3.52425        -6.11886
LJ          -1.02581         1.54319         4.18457
LJ          -6.21602         0.60251        -4.48109
LJ           0.10947       -0.604785         5.05667
LJ          -3.10828         3.09784        -4.47269
LJ          0.235966        -6.03249        -3.71015
LJ           5.69838         6.02495         0.88051
LJ          -0.32737         5.57434          3.2747
LJ           6.35418         3.95879         4.73183
LJ            3.1158       -0.907218        -2.45472
LJ           3.33873        -5.27881          5.3324
LJ           3.02859         4.11425        -6.07253
LJ          -0.35017         1.95888         2.10903
LJ          -3.74089        0.290578        -5.51999
LJ          -2.10268       -0.137473         3.20798
LJ          0.478599         4.63939         3.66535
LJ           2.64545        -1.13866        -1.57442
LJ         -0.186778        -2.70654       -0.411431
LJ            1.8051         4.44882        -6.09225
LJ           6.05895       -0.444251         1.88635
LJ           2.41156       -0.138394        0.233933
