108
#Comment!
LJ          -1.77323        -5.11148        -4.78949
LJ          0.239037         5.09691        -4.75074
LJ          -1.59119        -1.02308        -4.21912
LJ          -3.37329         1.25419        -4.34581
LJ           2.47495         4.67242          -2.608
LJ           -1.0883         -1.6006          4.9177
LJ           4.17223         4.29654        -2.46438
LJ          -3.03797         2.29784          5.7642
LJ          -1.08541        -4.17907        -4.30095
LJ          -1.50513       -0.727908         6.13576
LJ         -0.438485        -3.56293        -3.48364
LJ            3.6515         5.10628         2.86461
LJ           6.18102          6.0377         3.30064
LJ          -4.38662         3.67567        -5.88622
LJ          -3.23396         4.67944         2.26078
LJ           4.82084        -2.46016        -2.61267
LJ           2.78113         -1.8043         5.42555
LJ           1.54989         6.06778        -5.93231
LJ           6.29316        -2.31931        -2.16237
LJ          -5.66019         1.56363        -4.40947
LJ          -2.67815        -3.45459        -4.98847
LJ           1.31053         5.43551        -4.79338
LJ           3.02769        -5.59871          3.5555
LJ          -2.84362        -5.76976        -3.62853
LJ          -3.69581         1.41775        -3.44743
LJ          -1.00778       -0.979232        -5.41245
LJ          -1.60398        -3.02087        -6.05417
LJ          -1.51042         6.39607        -4.90816
LJ           -2.7496        -2.64705        -3.61805
LJ          -5.97999       -0.227557        -2.09639
LJ          -1.73072        -2.01418        -3.76109
LJ           3.03345       -0.337189        -1.32602
LJ         -0.300688        -1.37585         5.62416
LJ           5.85407        -4.13717         3.83318
LJ           3.46696        -2.66618        -3.94452
LJ          -4.64536         1.98305        -5.53736
LJ          -1.60395        -3.24175        -3.92881
LJ           2.72363         4.12766          4.7221
LJ           6.12981        -2.82335        -1.08753
LJ           5.10149        -1.50885         -1.7158
LJ           5.46103        -3.04405         3.71919
LJ          -5.94507        -5.35374         4.84465
LJ           3.46441         5.33353        -1.60627
LJ           6.36146        -1.97926         2.95678
LJ         -0.158313        -5.58211         -5.6567
LJ           1.67876         4.23593         4.54079
LJ         -0.363164         6.19743        -4.69862
LJ          0.717213         2.92604         4.14491
LJ          -4.46668        -4.94743         5.10726
LJ        -0.0204357         5.97303         2.62642
LJ          -5.67024        -2.16833         4.70678
LJ          -3.03859        -2.98521      -0.0481566
LJ          -5.97511         2.65527         0.61304
LJ          -4.42581         1.98371        -4.09607
LJ         -0.961477         -5.4629         6.35451
LJ           6.25367        -1.51677        -1.33618
LJ           1.85517        -6.11107        -4.57249
LJ           4.35701      -0.0629742         -1.9345
LJ          0.694816        0.971083         -3.4576
LJ          -4.99838        -5.88494         5.43446
LJ         -0.490746         1.65156        -1.44085
LJ          -4.66729        -5.08157         3.73951
LJ          0.842304         6.35917        -5.25321
LJ          -5.74518         3.34738         1.67528
LJ           5.89953       -0.635952        -1.76333
LJ            1.7005         1.96993        -5.08099
LJ          -2.93262        -1.55994         4.60469
LJ          -1.63008        -1.79206         5.94832
LJ           3.83171        -4.06227       -0.632237
LJ          0.810062        -4.34714         2.18069
LJ            4.4413         6.24282          3.2913
LJ          -5.30288        -4.07144         4.88667
LJ          -2.93407         3.51137        -4.67591
LJ           -4.8297         3.02785         1.04215
LJ             4.783        -4.16283         3.54386
LJ        -0.0237295        -4.49675        -3.89004
LJ          -3.58001         1.36386         5.68385
LJ          -3.14586         2.23106        -4.84828
LJ          -0.76398       -0.468899        -3.28312
LJ           3.66305         4.37788        -1.25584
LJ          -1.82682       -0.834565        -3.26547
LJ          -4.17282        0.542949        -5.47403
LJ           5.63178        0.602128        -1.77828
LJ           3.34554         3.73839        -2.50395
LJ           3.03649        -1.21024       -0.136992
LJ           1.92283        -5.13712         1.20106
LJ          -4.88658         3.93295        -1.17649
LJ          -4.52944         2.24023         6.19593
LJ          -3.41142         1.56306        -6.02133
LJ          -2.30467         1.27577        -4.07742
LJ          -1.16442        -1.99448        -6.01381
LJ          -3.67757         2.92669        -5.52453
LJ          -1.05424        -2.75087        -4.87998
LJ          -4.21781        -5.63856         6.41303
LJ         0.0298261         4.27866         4.61623
LJ          -5.54951         2.99056        -6.46324
LJ          -5.95675         -1.4225        -2.51518
LJ           3.31958        -6.46204         2.70585
LJ          0.521934          6.2359        -4.19452
LJ           -1.1262         3.06937          4.3737
LJ           -3.3261         2.70383        -3.79002
LJ          0.322304       0.0474172        -5.97474
LJ          0.543147         5.26171         3.98249
LJ           5.47227        -1.53375        -2.67849
LJ           1.00814       -0.816955         1.45343
LJ           2.47917         5.85759        -4.91257
LJ           6.12403        -2.08731       -0.334369
LJ           4.02426        -1.01408        -1.55476
