108
#Comment!
LJ          -3.01205        -5.61484         -4.4199
LJ          -1.86192        -5.15768         6.17512
LJ          0.893618           -2.27        -3.30056
LJ          -2.40935         -2.4401        -3.76988
LJ          -3.01299        -3.39449        -2.84769
LJ          -4.06016        -3.79846        -3.25835
LJ          -1.56238         2.46362        -5.20072
LJ          -6.45987        -2.18593         5.00548
LJ          -5.11418        -4.80912         6.34878
LJ          -1.48236        -1.86301         6.41068
LJ           -4.4247        -5.49396        -6.25847
LJ           2.24983         5.55452       -0.316605
LJ           3.83305         4.99722        0.811927
LJ          -3.20403          -2.205         -2.7173
LJ          -1.59931         -3.2581         5.19536
LJ          -6.24014         5.16702        -3.97116
LJ          -4.24388        -1.98728          -4.911
LJ          -2.51878         3.80719        -1.49344
LJ          -2.89801        -1.01179        -4.14607
LJ          -3.66515         6.38348        -4.64944
LJ          -2.19779        -3.56034        -5.48333
LJ          -3.02587         5.41054        -6.11051
LJ          -3.48335          6.3199        -6.07696
LJ           5.20648         4.72964        0.201714
LJ          -1.99096         4.48666        -2.27697
LJ          0.452116         1.08546      -0.0197912
LJ           -1.2511        -2.87084        -5.58168
LJ          -1.01011        -4.99194        -5.97842
LJ           -1.6942         4.30445         3.71933
LJ          -1.50156        -3.04077        -1.16546
LJ          -2.34928        -4.37333        -4.33623
LJ          -3.60775         6.42501         1.21629
LJ          -3.39965        -1.16759        -5.10529
LJ          -3.42363        -3.78207        -5.69246
LJ          -3.15503          -5.386        -2.65579
LJ           3.05146        -3.50023         5.38957
LJ           1.75152        -2.18937        -4.44028
LJ          -3.73509        -5.38166        -5.48102
LJ          -1.91932         -3.1953        -6.36435
LJ          -2.04806        -4.30975         4.43989
LJ           2.56987         5.50905        -1.62076
LJ          -4.52638        -6.22467        -5.22316
LJ           3.04334        -5.82189        -1.53848
LJ          -4.01762         1.07083         3.28772
LJ          -2.12676        -6.14671         -5.3491
LJ           5.37922          1.7442        -0.28201
LJ          -2.47784        -4.00899         6.42288
LJ         -0.693579        -2.36601         2.75693
LJ          -4.54667       -0.987429        -4.34232
LJ           6.21765        -1.12111        -1.85001
LJ           3.23845        -2.40116         2.59392
LJ             5.565         5.57969        -3.63917
LJ           3.08933         4.41734        -1.17275
LJ          -3.94736       -0.762311        -2.73082
LJ          -3.57413        -4.69436        -6.31936
LJ           5.41863        -3.07819         5.83733
LJ          -2.64672        -2.50966         1.54838
LJ          -2.25781        -1.45143        -5.79267
LJ           5.20827         6.07515         1.73964
LJ          -4.50568        -4.48681        -5.65175
LJ          -3.46925         6.40725         5.71244
LJ           1.45169         5.00049        -2.04144
LJ          -2.71045        -5.13219        -5.99944
LJ           4.66771         5.94149         0.49337
LJ           6.02623        -3.07615         -5.0807
LJ           1.02988         5.23922        -6.18862
LJ           5.78268         5.12886         1.07094
LJ           2.96673        -6.33373        -6.18106
LJ          -2.07602        -3.76307        -3.08858
LJ           6.29167        0.377031        -5.81233
LJ           1.55756        -6.22363         5.26189
LJ          -6.11493        -1.92196         6.28011
LJ          -2.90451        -4.42855        -3.26915
LJ           2.11631         4.23702        -1.97181
LJ           3.30505         5.01406       -0.320358
LJ          -2.97565        -3.17536        -4.92555
LJ          -3.24838         -2.2323        -4.80505
LJ         -0.669975         5.36497         1.25151
LJ          -2.95613        -4.58863        -5.10141
LJ           6.12712         4.44727        -3.24697
LJ         -0.935688        0.541688        -5.52044
LJ          -1.73698        -1.43461        -3.38964
LJ           4.13147        -5.73748        -1.52396
LJ         -0.496413         -4.0033        -5.52129
LJ          -1.46084        -2.81051        -4.13654
LJ         -0.947642         5.10019         4.36852
LJ           5.74801         6.00907        0.103163
LJ        -0.0772731         -4.9488         5.85567
LJ          -3.92537        -1.81579        -3.80611
LJ          -2.95831       -0.850515        -2.09106
LJ           1.86396         6.41944       -0.926161
LJ           1.38118       -0.922328        -1.47606
LJ          -4.85596      -0.0855649        -3.47862
LJ          -5.30979        -3.90803         5.67295
LJ          -1.40351        -4.71755        -4.54669
LJ           1.67697         5.98537        -5.68848
LJ          -2.13836         -2.5898        -5.10802
LJ          -2.76474        -2.57488         -5.9424
LJ          -1.22784         -5.9186         6.24921
LJ          -1.13596        -5.74663         4.17598
LJ          -3.45009          -3.805        -4.20643
LJ          -1.32559        -4.11429        -6.44396
LJ           -2.6296        -5.88674         6.03513
LJ          -6.31983        -3.59641         5.48991
LJ           1.00926        0.457198       -0.898878
LJ          -2.12089          6.1704         5.47295
LJ           -4.3174        -4.17117         5.83118
LJ          0.295047         2.41829       -0.803197
