108
#Comment!
LJ          -1.48225        -5.53576        -6.11569
LJ         -0.315767         5.99233         -4.2243
LJ          -1.52757       -0.346809        -4.49027
LJ          -2.37779        0.576279        -4.60258
LJ           2.30613         4.88496        -2.75052
LJ          -2.96926        -1.49999         5.01841
LJ           4.22012         4.71414        -2.32994
LJ          -3.04565        0.894778        -6.43746
LJ          -1.11388        -3.80479        -4.65898
LJ          -1.87914        -2.14607         5.57868
LJ         -0.963117        -2.01786        -3.93294
LJ           3.43255         5.82908         2.11268
LJ          -6.27185        -5.97526         3.45971
LJ          -4.36443         4.22634        -3.69522
LJ          -2.76061         6.23711        0.242621
LJ          -5.85263        -1.42007       -0.890029
LJ           2.27858        -1.84217         6.02691
LJ           2.19356        -6.02263        -6.13461
LJ          -6.29283        -2.56506        -2.42314
LJ          -4.01983         1.67462        -5.20621
LJ          -2.81428          -2.665        -3.28537
LJ           1.40163         5.64946        -4.60585
LJ            2.3149        -6.21763         4.38952
LJ          -1.84283         5.07983        -5.14056
LJ          -5.93485         1.83991        -2.65619
LJ           2.30954        0.678573         5.70015
LJ          -2.36885        -3.57439        -4.78444
LJ             -1.16        -6.04323        -4.48031
LJ          -3.25417        -4.72349         -3.5195
LJ          -5.50613       -0.771563        -1.68057
LJ           -2.1021        -1.91571          -4.047
LJ           4.12894        -1.22609        -2.41457
LJ          -2.00429       -0.822781          6.1679
LJ           6.21781        -4.87284          3.7656
LJ           1.94166        -1.29191        -5.75751
LJ          -3.57417           1.454        -4.23136
LJ          -1.69971         -3.0713        -3.79784
LJ          0.895896          4.3034         3.64394
LJ          -6.45126        -3.06022        -1.05981
LJ           5.86911        -1.27106        -1.54482
LJ           5.14231        -5.21789         3.56943
LJ          -6.08623        -4.60307         5.98327
LJ           3.15948         5.66547        -2.34977
LJ          -5.78588        -3.02842         2.83694
LJ         -0.654636         6.22276        -5.27054
LJ           1.16439          3.1554         4.52256
LJ          0.515538          6.2405         -4.8561
LJ          0.678905         4.16401         4.74683
LJ          -3.68518        -4.28977         5.74407
LJ           1.00585         5.40906         3.37692
LJ          -6.20876        -1.55791         3.79881
LJ          -4.92792        -1.53829        0.333617
LJ          -6.26925         3.10988        0.485231
LJ          -4.98985         3.12332         -3.8862
LJ         -0.414369        -5.57761        -5.28269
LJ          -6.08531        -1.53507        -2.41326
LJ            1.5033        -6.30227        -5.01829
LJ           4.65184       -0.320986        -2.81855
LJ           1.56484       0.0611594        -5.31976
LJ          -4.96193        -4.43882         6.03791
LJ         -0.457995         1.82113        -2.07914
LJ          -5.60363        -5.67422          5.2848
LJ        -0.0685676         5.42881        -5.07086
LJ          -5.72738         3.48561         1.90277
LJ           4.78003       -0.804654        -1.52095
LJ           1.89134        0.995937        -4.70315
LJ          -1.66019        -1.79564         3.78187
LJ           -1.8862        -1.47228        -5.61741
LJ           3.56479        -4.14337        -2.25418
LJ           1.81733        -4.99644         1.19118
LJ           4.22466         6.42639          1.9179
LJ          -5.40935        -5.99344         6.26339
LJ           -3.4958          3.0516           -3.84
LJ          -5.28109         3.19079        0.893317
LJ            4.5439        -4.20416         3.64086
LJ         -0.271608        -3.08609        -4.98195
LJ          -3.93285     -0.00926547         6.37189
LJ          -3.40406         2.55465        -4.74306
LJ         -0.514992        -1.06743        -4.62401
LJ           3.84565         3.60776          -1.961
LJ          -1.01797       -0.542538        -3.54591
LJ          -4.89526         1.69985        -4.10511
LJ             4.133        -1.76041        -3.36666
LJ           2.01566         3.91209        -2.92262
LJ           2.90008       -0.561193       -0.516145
LJ             1.549        -4.17146         0.51341
LJ          -6.03615         5.24743      -0.0461721
LJ          -3.77558        0.824438        -5.80908
LJ          -2.83641       0.0466018        -5.72924
LJ          -3.03738         1.57526         -5.2766
LJ            -2.156        -2.48362        -5.00291
LJ          -3.61028         1.91149        -6.20278
LJ          -1.15464        -2.46138        -4.86733
LJ          -4.23064        -4.92169        -6.21632
LJ            0.5106         5.32749         5.44328
LJ          -4.38442         3.15753         5.74044
LJ            -4.749        -1.57998        -1.93083
LJ           3.31495         6.38415         3.04854
LJ          0.827237          6.2474        -3.80171
LJ         -0.158325         3.60831         5.15777
LJ          -1.56761         1.96682        -5.07566
LJ           1.73848        0.417687        -3.65223
LJ         -0.261248         4.62322         4.91033
LJ           5.82696      -0.0371314        -1.73916
LJ           1.39204       -0.475439         2.04292
LJ          0.882093         5.97504        -5.80457
LJ            5.5567       -0.590725       -0.756316
LJ           4.44226        -2.26417        -2.57332
