108
#Comment!
LJ        -0.0220019        -5.44973         5.97429
LJ          -2.49726         5.60368        -5.42296
LJ          -3.55151       -0.776538        -1.62094
LJ          -3.20154         4.15396        -4.13678
LJ           3.38478         3.80534        -2.43934
LJ           -3.4464        -0.19129        -6.42861
LJ           5.98181          3.7916         1.33703
LJ           -4.6672      -0.0474297         3.68448
LJ         -0.550274        -5.34637        -5.52139
LJ           1.07408        -1.64262         5.70298
LJ          -1.23774        -1.69466        -2.80276
LJ            3.7759        -5.92021         4.34429
LJ          -4.64458         5.48381         3.74203
LJ           6.36161         4.24776         5.97621
LJ          -5.27376         2.62456        -4.65317
LJ           2.21974       -0.186573        -1.07206
LJ           3.86876        -2.02154         3.99057
LJ           2.98121        -5.13916         -3.6851
LJ          -6.35302        -2.84836        0.309051
LJ          -2.10018         0.45773        -4.84008
LJ         -0.599048        -3.85991        -3.91615
LJ          0.758911         5.76876        -6.09072
LJ           1.26025        -6.34535         1.39293
LJ          -1.46298       -0.525317        -2.44933
LJ           1.79956         4.18555        -1.20281
LJ           1.98604        -2.42873         3.99797
LJ           0.32326        -1.89862         4.95686
LJ          -2.11327         4.47266         -3.3283
LJ         -0.323774          -2.451        -1.99353
LJ           6.23572        -2.82505       -0.757292
LJ          -2.61949       -0.119528       -0.844554
LJ           5.07657       -0.922293          1.6562
LJ          0.339305        -2.35213         3.54626
LJ          -4.28891        -3.75866         5.57133
LJ           4.57593        -2.60986        -4.03962
LJ           5.46049         4.00886         5.42839
LJ         -0.759655        -2.65645        -3.08794
LJ           3.32507         2.28547         4.86696
LJ           5.70595        0.540818         1.44287
LJ           5.80207        -3.10853        -2.19532
LJ           6.16601       -0.576504         5.36404
LJ           4.97692        -5.24946         3.45852
LJ           3.20999         4.40615        0.177171
LJ           5.18996        -1.38682         4.85753
LJ           0.98461        -6.20893        -4.48269
LJ           2.25959         3.17775         4.54839
LJ          -1.32601        -5.42109         5.89212
LJ           3.68164         2.37942         1.08397
LJ            5.5695         5.31205       -0.510748
LJ          -1.75745        -6.21021          1.4431
LJ          -5.30468        -3.02613         5.55135
LJ           1.96625         4.92414        -4.55007
LJ          -4.50525         1.86065         1.00225
LJ           -4.4077        -1.68904        -3.32449
LJ          0.352132        -5.44845        -5.97186
LJ           5.64562        -1.80114         1.80907
LJ         -0.669592         5.91772        -6.05773
LJ            3.7495       -0.337464        -3.14176
LJ           3.11733         2.85535        -2.14996
LJ           5.86477         6.09032         2.88028
LJ           1.20143        0.460082        -1.42234
LJ           2.93704        -2.07895        -3.89697
LJ          0.354131        -5.61565        -4.95237
LJ           -5.1114         2.79295        0.464337
LJ           1.80958        -2.38989         2.99515
LJ         -0.158891        -6.35607        -2.10659
LJ          -4.21176        -2.75487        -4.00549
LJ          -3.03144        -1.51266         4.25405
LJ          -4.23509         -1.6157        0.447721
LJ           4.10056        -5.98854         3.35992
LJ           2.39091        -5.97977         4.36469
LJ          -5.63673        -3.72847         4.77442
LJ          -4.98261         1.32597         6.21446
LJ          -3.95155         2.94944         0.86482
LJ           5.67859        -1.96302     -0.00172331
LJ          -4.83501        -2.00407         1.93154
LJ          -2.60313         3.94136         5.53729
LJ          -2.63934        0.749954         3.71695
LJ          -3.26269        0.598543         -4.5949
LJ           2.76639         3.33159        -3.54444
LJ          -2.08868        0.225992        -3.37928
LJ          -1.35492         2.60736          4.3197
LJ           2.32892         -3.1335         1.96227
LJ           4.43589         4.54908       -0.493208
LJ           4.50077        0.697654       -0.617017
LJ         -0.359838        -4.80037        -4.45414
LJ           5.45562       -0.224638        -2.42095
LJ           6.31747         3.49923        -6.11574
LJ          -1.05674         1.55835         4.17335
LJ          -6.20864        0.609267        -4.48222
LJ          0.138005       -0.726168         5.06553
LJ          -3.11669         3.19084        -4.42748
LJ          0.173248        -5.97663        -3.72589
LJ           5.69706         5.98992        0.846278
LJ         -0.328766         5.57917         3.27255
LJ           6.35765         3.95709         4.74226
LJ           3.10528       -0.906796        -2.47809
LJ           3.31832        -5.34381         5.23756
LJ           3.06401         4.10784        -6.06159
LJ         -0.355571         1.95758         2.12297
LJ          -3.70912        0.307772        -5.52545
LJ          -2.16963      -0.0529319          3.2772
LJ          0.484573         4.63351            3.67
LJ           2.59231        -1.10558        -1.48087
LJ         -0.194133        -2.69287       -0.468173
LJ            1.7391         4.51516         -6.0499
LJ           5.97241       -0.310015         1.98125
LJ           2.43183       -0.137557        0.301449
