108
#Comment!
LJ          -1.62938         6.40536        -5.46909
LJ         0.0663425        -5.91303         -4.0848
LJ          -1.82717       -0.861055        -5.45685
LJ          -2.17856         1.49832         -4.0316
LJ           1.04373         5.94765        -3.57236
LJ          -2.67482       -0.574767         5.37702
LJ           4.10887         4.28546        -2.01117
LJ          -3.04507        0.251782         6.11351
LJ          -1.92057        -3.04946        -5.56792
LJ           -2.2899        -1.39834         6.28063
LJ          -1.05626       -0.761602        -3.41149
LJ           2.71215        -6.04598         2.59633
LJ          -6.05215        -5.89493         3.67131
LJ          -4.29843         2.53928        -2.20778
LJ          -2.29873        -5.10119        -1.86046
LJ          -5.41751      -0.0557986        0.560029
LJ           1.53873        -1.15873        -5.48336
LJ           4.84319         6.32402        -6.12517
LJ            6.4144        -3.64702        -1.36734
LJ          -3.84163         1.97499        -4.90455
LJ          -1.69754        -2.75321        -2.06834
LJ         0.0853234         5.35212        -5.78315
LJ           1.41495         5.82744         4.55327
LJ           1.82929         5.58545          5.8389
LJ           4.16459         1.74974       -0.214925
LJ           4.91875        0.815082         2.96491
LJ           -2.3038        -2.93531         -3.9912
LJ           -2.4752        -5.11945        -4.12345
LJ          -3.17352        -6.06096        -3.84113
LJ          -5.58458        -1.27896        -1.97864
LJ          -2.72664         -1.0423        -4.85464
LJ           5.85387        -2.68424        -3.07392
LJ          -2.55466        -2.50496        -6.45817
LJ          -5.79022        -4.85795         5.34407
LJ           1.07861         1.41373         5.75846
LJ          -2.79546         2.42557        -4.73805
LJ          -1.39498        -2.74009         -3.4353
LJ          -0.03939         4.20315         4.22662
LJ           6.33527        -2.53795        -1.33429
LJ           6.03824        -1.52447        -1.87888
LJ           4.77422        -6.32958         3.58411
LJ          -5.76544        -4.05395        -6.23698
LJ           2.41975         5.91815        -3.35281
LJ          -5.39998        -4.22297         2.90893
LJ         -0.184484         5.95771        -4.03716
LJ          0.992625          3.9612         3.72362
LJ         -0.439412         6.16963        -5.21535
LJ          0.509565         3.45195         5.83429
LJ          -4.38377        -3.98054        -6.39973
LJ           2.61123          5.8504         2.38802
LJ           6.33382        -1.31701         2.89996
LJ          -6.32116       -0.060832        0.031464
LJ           6.27877         3.89446        0.428611
LJ          -4.20395         3.45629        -3.37211
LJ         -0.775727        -5.26202        -4.94215
LJ          -6.20091       -0.513114        -3.67101
LJ           1.29712         6.18035        -5.46733
LJ           5.48656       -0.679857        -2.79756
LJ           4.56874       -0.211911        -6.39636
LJ           -4.6949        -5.03106        -5.97148
LJ         -0.417182         1.89641        -2.89498
LJ          -6.13923         6.31748         6.28541
LJ         -0.292344         4.90531        -4.56086
LJ          -5.74818         3.61049         1.81603
LJ           6.36338       -0.486833        -2.25093
LJ           1.60579        -1.07341        -3.13339
LJ          -1.13994        -2.90265         6.07245
LJ          -2.19898       -0.276336        -6.36863
LJ           3.89191          -3.458        -3.83075
LJ           2.51564        -4.55251        -0.67749
LJ           3.57085        -6.32586         1.72095
LJ          -6.19079        -5.54762        -5.89966
LJ          -4.70248         2.41204         -3.1898
LJ          -5.67793          3.5332        0.707813
LJ           4.69281        -5.40828         2.96537
LJ          -1.26599        -2.37048        -6.00072
LJ          -4.19279       -0.663443        -3.44754
LJ         -0.936061         1.11299        -6.30896
LJ         -0.695006        -1.82225        -5.12586
LJ           4.46244         3.27441        -2.57893
LJ          -0.86984       -0.714943        -5.97608
LJ          -3.47841         2.92391        -4.06638
LJ           2.07934        -3.46581        -5.60913
LJ          0.500275         4.64998         -3.9945
LJ           3.38567      -0.0959754        -1.44943
LJ           1.65668        -4.44408        0.768583
LJ           5.67021         6.14654         1.37772
LJ          -4.14544       -0.325061        -4.55064
LJ          -3.07649       -0.776626        -6.09833
LJ          -3.27506         1.04557        -4.64851
LJ          -3.09502         -2.4585        -5.28219
LJ          -3.84218      -0.0858035        -5.62721
LJ          -2.04311        -1.95313        -5.19195
LJ          -4.16319        -2.99741        -6.11543
LJ           0.11727         5.54155         6.06006
LJ           -2.6273          2.7782         4.40249
LJ          -5.10351       -0.915329       -0.649692
LJ           4.12978         5.98626          2.7295
LJ          0.913467          5.5151         -4.8432
LJ         -0.235791         4.30584        -5.62245
LJ          -2.56262        0.638552        -5.80491
LJ           1.33489        0.130819        -3.02283
LJ          0.399231         4.51053         5.90207
LJ            5.3632       0.0876843        -1.49321
LJ           1.81992       -0.129534         2.62101
LJ          -1.09356         5.32566        -5.30635
LJ          -6.43908       0.0391092        -1.02077
LJ           5.64887        -3.32258        -2.11956
