108
#Comment!
LJ          -2.75443        -5.57468        -5.18883
LJ          -2.37609        -3.52645         6.06791
LJ          -2.01769        -2.87562        -3.62156
LJ          -3.32126        -2.53782         -2.8543
LJ          -2.82619         -2.0695        -1.86235
LJ          -3.91479        -2.77974        -4.49664
LJ          0.961943         2.83204         -3.9046
LJ          -6.03115         -3.4364           6.325
LJ          -3.09366        -3.95607         5.35433
LJ          -3.48078         -1.4341        -5.52004
LJ          -2.42636         6.43977         6.43493
LJ           1.84972        -5.77324        -1.19554
LJ            4.9034         6.34069         1.63794
LJ          -2.90026        -1.17048         -2.5676
LJ          -1.15563         -4.7483         4.77713
LJ           6.10785         3.93639        -3.68101
LJ          -3.60694        -1.00733        -4.33288
LJ          -2.48304          3.2291        -3.79342
LJ          -4.31186        -1.67412        -3.83885
LJ          -5.65315        -3.32002        -3.73566
LJ          -2.27521         -3.3963        -4.57819
LJ           -3.3708         5.23115        -4.01619
LJ          -2.24016         5.28755         6.36136
LJ           4.91277         5.16912         1.02866
LJ          -3.05793         3.22793        -2.74888
LJ           2.11606        0.537673       -0.799378
LJ         -0.830124        -3.70738        -5.60277
LJ          -1.29202        -5.03978          6.2921
LJ         -0.309719         5.23605         6.21475
LJ          -2.52232        -4.06992        -2.56618
LJ          -3.00448        -3.34383        -3.56868
LJ          -4.74275        -5.99877       -0.415963
LJ          -2.98348       -0.300286        -3.38937
LJ            -3.257        -3.50711        -6.16273
LJ          -3.28373        -5.62394        -4.11293
LJ           4.64663        -5.82781         4.12401
LJ         -0.181713       -0.919171        -5.02032
LJ           -3.7783        -5.62464        -5.74934
LJ          -2.31356        -1.39528        -5.57406
LJ          -2.22543         5.62185         2.01091
LJ           4.43122         6.17893        -1.24625
LJ          -3.55293        -5.50229         5.58508
LJ           2.38897        -3.55335        -0.77097
LJ            -4.218         2.02615         3.30004
LJ          -1.80928         3.97375        -5.96009
LJ           5.04885         1.61005          0.6157
LJ          -2.34431        -4.91466         6.34308
LJ         -0.842492        -3.09726         2.28005
LJ          -3.44329        0.241166        -4.28252
LJ            4.9012       -0.395661        -4.67383
LJ           3.28239       -0.589082        0.774251
LJ           5.18888         4.63429        -3.74439
LJ           5.54852         5.06292       -0.538176
LJ          -4.19678         -1.8663        -2.66314
LJ          -4.08531         -4.3928         -5.6961
LJ           6.41182        -2.83805        -5.75664
LJ          -1.05524        -4.47516         2.97467
LJ          -1.44709        -1.27417        -4.28985
LJ          -6.26849         5.38586         1.39567
LJ          -4.61416        -3.88163           6.237
LJ          -2.55689        -5.64894          5.5117
LJ           2.60328         5.96793        -1.22058
LJ           -2.8289         -4.3993        -5.73061
LJ           4.93048         4.45071        0.172123
LJ           5.68065        -1.36742        -6.15477
LJ           1.90943          6.2586        -3.22065
LJ          -5.68252         5.30417       0.0471708
LJ           1.75357         5.10785         5.43746
LJ          -2.20839        -2.08162        -3.02339
LJ            4.4818        -1.46053        -4.86684
LJ           1.33674         5.71903         3.78777
LJ          -5.74873        -4.60935         6.34792
LJ          -4.86078        -2.78301        -2.58884
LJ           3.47795         1.41521        -1.48583
LJ           2.38614           6.041        0.112546
LJ          -3.05481        -2.71938        -5.17818
LJ          -3.04524        -2.07402        -4.34172
LJ         -0.930926         6.40524       -0.800614
LJ           -3.3503        -3.69759        -4.74422
LJ           5.65934         4.15011        -2.74729
LJ          -1.24383       -0.652623        -5.45912
LJ          -2.57509         -1.1407        -3.67093
LJ           3.01307         6.30534        -2.49854
LJ          -1.44516        -4.00676         6.14791
LJ          -2.17002         -6.1906        -3.75094
LJ          0.806701        -6.32774         2.64415
LJ           4.23166         5.14921       -0.213173
LJ         -0.467215         6.45115        -5.21858
LJ           -4.0781       -0.533977        -3.53287
LJ          -1.53836        -1.22219        -2.18438
LJ           1.26358        -5.55024        -0.31701
LJ           1.01308       -0.969678        -2.03845
LJ          -4.63803       -0.976633        -2.73625
LJ          -5.81577        -4.02908         5.44343
LJ          -1.52405        -5.87096        -5.68754
LJ           1.71906         5.88274        -4.14744
LJ          -1.89409        -2.41499         -4.6392
LJ           -2.2209        -2.88425        -5.75763
LJ         -0.272173        -6.38019         5.86655
LJ          -2.08011        -4.43771          5.3972
LJ          -4.32739        -3.30889        -5.58355
LJ          -1.91062        -3.79272        -5.53545
LJ          -1.45891         6.13746         6.19429
LJ           4.95781        -1.57413         4.35112
LJ           2.24524        0.866549        -1.88511
LJ          -1.36609         5.22188        -6.02265
LJ           -5.3166        -3.92404        -5.75692
LJ         -0.609986         1.24138        0.860766
