108
#Comment!
LJ          -1.55159        -5.36655        -6.07415
LJ         -0.332564         5.92929        -4.28248
LJ          -1.47302       -0.415775         -4.6421
LJ          -2.56424        0.594271        -4.63951
LJ           2.48387         4.95938        -2.70992
LJ          -2.96007        -1.65779         4.89998
LJ           4.06102         4.76553        -2.35994
LJ          -2.94681          1.1499         6.46095
LJ          -1.29152        -4.03365        -4.67009
LJ           -1.8764        -2.03312         5.58147
LJ         -0.715962        -2.12246        -3.86581
LJ           3.40884         5.55717         2.15208
LJ          -6.37842        -6.03025         3.43506
LJ          -4.30688         4.25106        -4.01293
LJ          -2.82052         6.03394        0.508358
LJ          -6.19198        -1.60233        -1.11959
LJ           2.35477        -1.85411         5.88642
LJ           1.64326        -6.03421        -5.96097
LJ           6.44589        -2.70272        -2.31605
LJ          -4.40934         1.95682         -5.2309
LJ          -2.79941        -2.61998        -3.66131
LJ           1.51334         5.51187        -4.60116
LJ           2.45159        -6.13453         4.35833
LJ          -2.08462         5.25328        -4.94693
LJ          -5.56771         1.80235        -2.99552
LJ           1.96508         0.64972         6.07216
LJ          -2.16099        -3.43648        -4.86173
LJ          -1.24892        -6.15758        -4.35519
LJ          -3.25554        -4.50893        -3.50321
LJ          -5.46357       -0.765408         -1.7227
LJ          -1.93394        -2.01438        -3.82932
LJ           3.90302       -0.971397         -2.0977
LJ          -1.60963       -0.826528          6.1848
LJ           6.32798        -4.94068         3.71698
LJ           2.15102        -1.48858         -5.4714
LJ          -3.53528         1.31924        -4.23821
LJ          -1.75193        -3.13826        -3.94815
LJ           1.17723         4.29998         3.94743
LJ          -6.44811         -3.1978        -1.23878
LJ           5.80691        -1.37107        -1.74161
LJ           5.20998        -4.85541          3.5376
LJ            -6.067        -4.53409         6.09796
LJ            3.3186         5.47239        -2.21646
LJ          -5.86596        -2.86568         2.86999
LJ         -0.679158         6.34988        -5.44548
LJ           1.38549         3.18052         4.31571
LJ          0.405434        -6.38426        -4.87049
LJ           0.67965         3.99678          4.8762
LJ          -3.77364        -4.43867         5.77608
LJ          0.872642          5.5707         3.19168
LJ          -6.14665        -1.62961         3.89175
LJ          -4.66142        -1.73317        0.308653
LJ          -6.27017          3.0425        0.504349
LJ           -4.9774         2.97485        -3.91765
LJ         -0.146255        -5.63409        -5.48704
LJ          -6.10144        -1.47043        -2.15333
LJ           1.65365        -6.28033        -4.80179
LJ           4.55168       -0.238709        -2.74262
LJ           1.07935       0.0620555        -5.08059
LJ          -4.93377        -4.37548         5.89368
LJ         -0.461099         1.80435        -1.98687
LJ          -5.39386        -5.68116         4.92205
LJ         0.0782265         5.34958        -5.31938
LJ          -5.74334         3.45287         1.86082
LJ           4.81785       -0.891299        -1.44251
LJ           1.88432         1.04963        -4.88977
LJ          -1.81749        -1.68078         3.65716
LJ          -1.71576        -1.55099        -5.86347
LJ           3.59061        -4.15025         -2.0396
LJ           1.64203        -4.99001         1.51346
LJ           4.33097        -6.37149         2.12346
LJ          -5.20811        -5.81434         6.18443
LJ          -3.55032         3.14584        -4.00376
LJ          -5.16992         3.16439        0.942961
LJ           4.35499        -4.14998         3.65377
LJ       -0.00314146        -3.17476        -4.77967
LJ          -3.72757         0.15782         6.26476
LJ           -3.3734         2.54263        -4.99494
LJ         -0.624735        -1.01405        -4.17726
LJ            3.7777         3.77216        -1.92004
LJ          -1.05743       -0.511398        -3.37339
LJ          -5.10138         1.41344        -4.05403
LJ           4.29527        -1.33957         -3.5316
LJ           2.13852         3.74743        -2.82726
LJ           2.87086       -0.622548       -0.418621
LJ           1.63161        -4.21034        0.406579
LJ          -5.88418         5.09963       -0.214506
LJ          -4.21986         1.05211        -5.78939
LJ          -2.92781      -0.0355728        -5.77051
LJ           -2.7883         1.55058        -5.05771
LJ           -2.2293         -2.3323        -4.94777
LJ          -3.66226         2.20654        -6.16717
LJ          -1.19915        -2.79975        -4.83125
LJ          -4.46862        -5.24875        -6.41233
LJ          0.685433         5.08238          5.3181
LJ          -4.58703         3.16628         5.94955
LJ          -4.66381        -1.48166         -1.9642
LJ           3.24432         6.39464         2.94293
LJ           1.00158          6.3645        -3.85655
LJ         -0.484777         3.50486         5.10201
LJ          -1.57841         2.18604        -4.87403
LJ           1.82864        0.466677         -3.9933
LJ          -0.41048         4.82665         4.65157
LJ           5.91518       -0.126902        -1.95083
LJ           1.33866       -0.519617          1.9689
LJ           1.15314         5.80141        -5.66352
LJ           5.42568       -0.666554       -0.590266
LJ           4.47456        -2.14728        -2.28799
