108
#Comment!
LJ          -1.80931          5.8108        -4.81866
LJ          -2.80994        -4.08683        -5.54152
LJ           -2.7913        -3.01159        -5.01576
LJ           -2.5038        -1.89932        -3.04956
LJ         -0.751519       -0.948634        -3.27707
LJ          -3.23449        -1.36709        -4.10595
LJ           5.57867         2.36262       -0.904562
LJ           -5.1474        -1.32998         -5.4924
LJ          -3.27294        -2.94418         5.54481
LJ          -4.07674        0.544805        -3.32431
LJ         -0.505577         4.87998         6.05656
LJ          0.534741        -4.69329         0.34426
LJ           4.42128         5.38108         3.05004
LJ          -2.28955        -1.19225        -2.14979
LJ          -1.86302        -3.74739        -3.97671
LJ           4.88092         2.54243        -1.93199
LJ          -1.53563        -1.58788        -1.37175
LJ          -5.03449          1.7792        -5.92465
LJ          -4.37134        -1.27647        -3.54319
LJ          -3.15133         1.39839        -3.97492
LJ          -4.55338        -4.53424         -5.2225
LJ          -1.24764         5.24636        -3.18477
LJ         -0.362881         4.48216         3.60025
LJ           3.65871        -5.78251        0.747991
LJ          -2.04276         0.61231        -5.89709
LJ           5.15821         3.65632        -1.06222
LJ          -1.13956        -2.31064        -4.67123
LJ         -0.331119          6.0005           -2.85
LJ          -1.00348        -6.00859        -3.31052
LJ           6.15321       -0.835455        -3.25935
LJ          -4.50671        -1.11914         6.39794
LJ           -3.1535        -2.89304        -2.89368
LJ          -1.85094        -1.81042        -4.08154
LJ          -2.95151        -2.23271         6.20122
LJ           -2.2822         4.78303         6.01421
LJ           6.43146         2.56599        -1.31814
LJ          -2.01433        -1.10742        -5.23436
LJ          -1.54645         4.15204         4.13675
LJ          -3.36215        -1.14551        -2.81134
LJ          -3.94668        0.135033        -1.85816
LJ           4.36602        -4.61507         2.24838
LJ          -5.47724        -1.63472         6.12848
LJ          0.708724         2.52488       0.0611703
LJ          -4.62026          4.7566         3.24384
LJ          0.724477          5.7268        -4.44031
LJ            3.2804         1.55645         2.68828
LJ         -0.552198        -6.38367        -5.57501
LJ         -0.518562         3.73628         4.67854
LJ          -3.68049        -1.10283        -5.16739
LJ           2.33276         3.04126         2.64742
LJ           5.33593        0.843966        -1.45363
LJ            5.7745         3.62797        -1.89793
LJ           5.66154         4.09447         1.36783
LJ          -4.61667       -0.462314        -2.86386
LJ          -2.26389        -4.67388        -4.21185
LJ          -4.37524        -1.71707        -4.47376
LJ           1.29073        -5.61243         4.78776
LJ          -3.39694       -0.164707         -3.0242
LJ         -0.433537        0.481108         -3.4114
LJ          -4.57214        -2.79705         6.35124
LJ         -0.722272         6.13473         6.17146
LJ           4.88059        -5.20871        -1.49752
LJ         -0.930529         5.36833        -4.41254
LJ           5.43029         5.00564        0.682293
LJ           5.13579       -0.861091        -5.77558
LJ           1.29281        -5.46986       -0.454743
LJ         -0.132657        0.232826        -1.72323
LJ           -5.4656          2.5311        0.221905
LJ          -4.67795        0.163687         5.94803
LJ            3.9623         -4.1351        -2.94702
LJ           4.39414         6.20565         3.77051
LJ          -5.31054        -4.77819       -0.894396
LJ          -1.26015        0.321961        -4.97989
LJ           5.32632         5.85254       -0.923042
LJ           4.43419         -6.3446          1.9826
LJ          -3.24939        -3.92221        -4.56667
LJ          -5.66909        0.112015        -3.63658
LJ          -1.12541        -3.20608         1.12712
LJ           -3.7809         -3.4342        -5.75869
LJ           4.75067         2.69502        -2.96716
LJ          -1.49584         1.02678        -3.68992
LJ          -1.76805       -0.204204        -2.84155
LJ          -4.11523         -6.1826         1.05294
LJ           -2.0292        -6.45971         -5.7813
LJ          -5.26993       -0.328069        -4.74436
LJ           2.84159        -4.93091       -0.950692
LJ           4.29205        -4.54461        0.977794
LJ          -3.69945        -2.26595        -5.14995
LJ          -2.73072        -0.30917        -1.93405
LJ          -2.53001       -0.779815        -3.47889
LJ          -1.79843        -2.71454        -3.42777
LJ          -1.82418      -0.0512312        -3.96341
LJ           -2.6619        -2.49805        -3.99013
LJ          -6.45427        -1.36088        -6.11541
LJ          -1.64551         4.67482        -4.10541
LJ           1.28414         2.51104        -1.43395
LJ          -3.71416        -2.21015        -3.46716
LJ          -5.56873        -3.80318         4.21271
LJ         -0.635575         5.65462         4.88294
LJ         -0.994282         6.42767        -4.41563
LJ          -1.57178        -2.42668        -5.59881
LJ          -2.80345        -3.77081        -3.38861
LJ          -1.51338         4.19752        -6.40203
LJ         -0.696029        0.242141         1.80874
LJ           2.06026         1.12366         6.05186
LJ          -1.26585         5.63712        -5.79219
LJ          -5.40725       -0.860241        -3.47631
LJ          -2.85848        -2.14246         3.41776
