108
#Comment!
LJ          -2.93621         6.06153        -5.65168
LJ          -3.03664         -4.1446        -5.69706
LJ           3.16714        -1.80275        -1.22963
LJ          -1.75003        -2.11565        -3.95293
LJ          -1.17537        -4.16387        -3.45485
LJ           -3.2772        -3.83497        -3.64165
LJ          -3.50205         1.93197         6.22817
LJ          -5.82907        -2.70165         6.09218
LJ          -4.70476        -4.54415        -5.48379
LJ          -1.44378       -0.977105        -4.41403
LJ          -4.20305        -5.39011        -6.37957
LJ           2.67023         4.87893        -1.22065
LJ           4.76413         5.30523        0.236324
LJ          -2.32282         -3.3586        -3.74346
LJ         -0.465595        -4.42893         5.95602
LJ          -5.83989        -6.41491        -4.00316
LJ          -3.82432        -3.76873         -4.6416
LJ          -1.47683         5.66223       -0.605792
LJ          -3.40519         -2.5352        -5.40092
LJ          -2.07992        -5.70817        -5.36756
LJ          -2.74876        -4.98409        -5.04212
LJ          -3.04804        -5.53715         4.15418
LJ          -4.26209         6.26588        -5.69815
LJ           5.19159         5.43016       -0.915923
LJ          -1.84604         4.62808       -0.277883
LJ         0.0873893         1.75032       -0.762637
LJ         -0.572617        -1.97374         5.47328
LJ         -0.811821        -3.56865        -5.65292
LJ          -2.26456         4.90445         3.54726
LJ          -1.49542        -2.48678       -0.397279
LJ          -1.94317        -4.42143        -4.14518
LJ          -1.78496        -6.42682          2.3774
LJ          -4.21271        -1.26921         -4.9507
LJ          -4.51877          -3.167         -5.9911
LJ         -0.539799        -1.83532       -0.124602
LJ           1.44151        -1.06546        -6.13539
LJ           5.07172        -3.09327        -5.35572
LJ          -4.22134         5.91418        -4.72169
LJ          -3.75416        -3.25515         6.12691
LJ          -2.37598        -3.91982         6.22822
LJ           2.08951         3.88986        -1.23177
LJ          -4.28062         -5.6835        -5.06756
LJ           6.09832         6.03964        -2.16221
LJ           -3.8035       0.0668873         3.27848
LJ          -4.15061        -6.17642        -3.94446
LJ           5.69671         1.95856        -1.23592
LJ          -3.19229        -3.98405         5.28208
LJ          -1.06396        -2.01696         3.26556
LJ          -4.19052        -2.21819        -3.61741
LJ          -5.16863        -1.90193        0.773756
LJ           3.18545        -4.30467         4.54503
LJ           6.02813         6.36226        -3.39225
LJ           0.81629         3.96223        -2.52545
LJ          -3.21539        -2.81081        -4.34565
LJ          -3.54332        -4.42279         6.37772
LJ            6.1347        -4.53742         6.02097
LJ          -3.80976       -0.192387        0.167664
LJ          -4.51434        -2.84047        -5.00929
LJ           4.63643        -5.85098        -1.45736
LJ          -3.72114        -4.93415        -5.57439
LJ          -2.43807         5.92706         3.66648
LJ           1.70986         5.35537        -1.19363
LJ          -3.20901        -5.86233        -4.59273
LJ           4.47088         5.79114         1.33986
LJ           4.70949        -2.34857        -2.75875
LJ          0.981753        -6.38955         3.20462
LJ           4.97745         4.90214         1.76841
LJ           4.73735        -5.56265        -3.59202
LJ         -0.323327        -3.45957         -4.3406
LJ          -4.83347         1.71024        -6.08168
LJ           1.27098          6.0883        -6.08587
LJ           6.14551        -2.27344         5.22227
LJ          -2.32095        -5.68443        -3.31952
LJ          0.349459          2.4395        -2.38725
LJ           3.61083         4.52526         -1.2703
LJ          -2.80003        -3.86166         -4.6921
LJ          -2.74998        -2.64533         6.26358
LJ         -0.654304         4.01217          3.5345
LJ          -3.18825         -5.1621          -3.769
LJ          -6.22436         5.30202        -4.11087
LJ         -0.932335         1.72707         -5.3762
LJ           -4.1093         -1.4762        -1.78998
LJ           4.34653        -4.81621       -0.623529
LJ          -1.89293        -3.95549        -5.40616
LJ           -0.3838         1.45157        -4.09778
LJ            -4.822         2.15494          4.1983
LJ           3.60821         5.07247         1.94427
LJ          -1.41925        -3.61617         5.68206
LJ          -2.28705         -1.6303        -4.98931
LJ          -3.09886        -2.73669        -3.40819
LJ          -1.12194         5.61466          1.3306
LJ            1.2018        -1.26166        -1.46769
LJ             -5.28        0.433967        -6.39312
LJ          -4.46334        -4.73463         5.85902
LJ          -1.10244        -4.45907        -5.02663
LJ           1.40051         6.32748         4.27009
LJ          -1.75094        -2.93522        -4.91523
LJ          -2.63738        -3.19489        -5.53207
LJ          -1.40794        -4.47432        -6.41773
LJ         -0.466741         5.61346         3.66877
LJ           -4.4923        -4.73743        -4.52264
LJ          -1.64933        -3.02041        -6.12472
LJ            -2.956        -5.68488        -5.91679
LJ           -4.5036        -2.00708        -6.39215
LJ         -0.833168         2.51793        0.303409
LJ           -3.6765         6.07176         3.09856
LJ          -3.93634        -4.24423         2.71972
LJ          0.889652         2.00207        -1.64417
