108
#Comment!
LJ          -2.84243        -6.36276        -6.28489
LJ          -2.29373        -3.24001         6.32476
LJ          -2.40516        -2.48941        -3.24106
LJ           -3.0335         -2.5286        -2.32498
LJ          -1.68371        -2.74098        -2.44373
LJ          -4.25941        -2.02887        -5.63314
LJ             3.229         3.16424        -2.71449
LJ           6.22759         -4.3915        -6.10814
LJ          -3.22225        -2.49516         5.86687
LJ          -4.26101        -1.64577        -3.84796
LJ          -1.05259         6.08525         5.96155
LJ           1.78892        -5.82038       -0.970069
LJ           5.01972         -6.2979          1.7646
LJ          -2.28244         -1.5385        -2.09712
LJ          -3.30106        -5.44332         5.72856
LJ           5.36356         2.94621        -2.89333
LJ          -2.34398        -1.32535        -3.38706
LJ          -3.42972         2.73742         -4.2265
LJ          -3.25234        -1.04027        -2.79171
LJ           4.66383        -1.49297        -3.84335
LJ           -2.6935        -3.06255        -4.26857
LJ          -1.83496         5.51881        -3.62378
LJ          -2.67981         4.93449         4.53327
LJ           4.25381        -6.10493        0.766464
LJ          -3.03105          1.9994        -4.97243
LJ           3.36475         1.43921        -1.15854
LJ          -2.38173        -2.83609        -5.45052
LJ         -0.727241        -6.06792        -5.51111
LJ         0.0869258          5.2936        -5.16251
LJ           -4.7434        -2.44397        -3.06142
LJ          -3.86432        -3.01065         -4.9035
LJ          -4.71542        -4.40352         -2.0456
LJ          -2.22114       -0.149686        -2.91208
LJ          -1.20635         -3.3893        -6.15752
LJ          -2.83756         -6.3154        -5.13192
LJ             6.047         5.13352         2.63971
LJ          -1.54649       -0.934347        -4.27278
LJ          -1.94067         6.20427         5.24978
LJ          -3.81527         -1.4175        -4.86919
LJ          -2.18523         3.03871        0.193256
LJ           5.22307        -6.01045        0.297485
LJ          -4.56383        -4.32901         6.43353
LJ           1.78429        -1.49244       -0.377563
LJ          -4.39617         2.89454         3.30425
LJ           -1.4655         4.99473         5.97837
LJ           4.64989         1.51779          1.3331
LJ          -1.56863        -5.88198          6.2361
LJ          -1.11573        -5.49196         2.94825
LJ          -3.12214        0.963986        -4.62579
LJ           3.03423       -0.430195         5.35492
LJ           3.81755        0.502703       -0.582852
LJ           4.80471         3.86223         -3.5815
LJ           4.69342         5.34413        0.269335
LJ          -4.23431        -1.37595        -2.68599
LJ          -4.33762        -4.03184        -5.39175
LJ          -4.54663        -3.02569        -3.94523
LJ          0.357061        -4.77068         3.86057
LJ          -2.55505         -1.0755        -5.38578
LJ           -4.3505         3.74106        0.370753
LJ          -4.16899        -3.08086         5.92418
LJ          -0.31243        -6.06848         6.26867
LJ           3.91891         5.91434       -0.174195
LJ          -1.95375        -5.80974        -5.55532
LJ           4.88783         4.32112        0.716832
LJ           5.41637       -0.871396         6.25328
LJ           1.04777        -5.43748        -1.88582
LJ          -4.37311         4.37954       -0.565193
LJ           3.71559         4.08875         4.00196
LJ          -2.09589         -2.1018        -4.50094
LJ           4.21556         -2.6392        -4.26712
LJ           1.06562        -6.44024         1.61364
LJ          -4.91811        -5.07877         4.21939
LJ           3.91939         -1.0017        -2.90485
LJ           3.96956          -2.438        -1.10497
LJ           3.10038        -6.45959         1.43499
LJ          -3.02726        -2.17196        -6.03846
LJ          -3.58568        -2.67834        -3.35717
LJ          -1.08995        -5.49382          -1.841
LJ          -3.19077        -4.55662        -6.41026
LJ            5.2617         3.94463        -2.57883
LJ           -3.4169        -0.32838        -4.87087
LJ          -1.40445        -1.06143        -2.85318
LJ           5.17641         6.44249        -2.31142
LJ          -1.63993        -5.25895         5.13581
LJ          -2.90401         4.02244        -4.43999
LJ           1.93244         5.97954         2.59814
LJ           4.95893         6.27651       -0.721921
LJ          -1.00982        -5.81636        -3.85013
LJ          -3.03151         0.28023        -3.60406
LJ          -1.68712       0.0318861        -1.81414
LJ          0.452225        -3.67144       -0.870375
LJ          0.865732        -1.34182         -3.2217
LJ          -4.91582        -1.96981        -1.90416
LJ          -6.41994        -2.16861        -6.17531
LJ          -1.57273         6.15498        -4.41155
LJ           1.11582         4.78006        -3.29515
LJ          -3.12364        -1.81157        -4.06804
LJ          -3.53687        -3.24823        -5.98195
LJ         -0.947336         5.15141        -4.53852
LJ          -2.10917        -4.92748         6.34557
LJ           -3.8372        -0.94078        -6.37481
LJ          -2.46166        -4.01463        -5.39646
LJ         -0.981187         5.15703        -5.72635
LJ           3.98326         0.26449         4.35959
LJ           2.39238          1.1532        -3.21992
LJ          -1.46963          6.1866        -5.78985
LJ          -6.05438         -3.0738        -5.75895
LJ          -1.31867       0.0261477         2.32487
