108
#Comment!
LJ          -2.06145        -5.46734        -4.79227
LJ          0.330172         5.45144        -4.80988
LJ          -1.60778       -0.840319        -4.06929
LJ          -3.53368         1.20022        -4.73546
LJ           2.62906          4.6481        -2.38678
LJ           -1.0392        -1.21973         4.64099
LJ           4.48262         4.73523        -2.07139
LJ          -3.24391          2.6112          5.5172
LJ          -1.04217        -4.17748         -4.3599
LJ          -1.30747       -0.764912          5.6032
LJ         -0.649928        -3.61657        -3.39614
LJ           3.50691         5.02284         2.91588
LJ           5.99107         5.92405         3.30224
LJ          -4.55554         3.39966        -6.19538
LJ          -3.34208         4.34386         2.68356
LJ           4.55122        -2.22542        -2.84733
LJ           2.87957        -1.79078         5.32572
LJ           1.92241         5.96293        -5.87528
LJ           6.17246        -2.03012        -2.14022
LJ          -5.37651         1.35038        -4.05709
LJ          -2.44263        -3.82132        -4.87061
LJ           1.46253         5.50691        -4.74241
LJ           2.90616        -5.52193          3.2071
LJ          -2.80831        -5.22469        -3.47292
LJ          -3.39915         1.63484        -2.98464
LJ         -0.918776        -1.80825        -5.22587
LJ          -1.28936        -2.91863         -6.0237
LJ          -1.69272          6.3254        -5.14044
LJ          -2.73269        -2.44835        -3.81083
LJ          -6.08023       -0.332059        -2.25835
LJ          -1.24167        -1.86118        -3.62571
LJ           3.06872      -0.0648682        -1.23772
LJ          -0.25883        -1.14435         6.05451
LJ           6.07859        -3.78447         4.08181
LJ           3.83824        -2.91899        -3.52218
LJ          -4.77043         2.29735        -6.04052
LJ          -1.52193        -2.83529         -3.9868
LJ           2.88487         3.93142         4.77765
LJ           5.64873        -2.94445        -1.22933
LJ           5.03066         -1.8235        -1.56399
LJ           5.55468        -2.86532         3.72548
LJ          -5.43277        -5.30124         4.21732
LJ           3.42298         5.24263         -1.9625
LJ           6.12381        -1.96202         3.12559
LJ         -0.148617        -5.63353        -5.51393
LJ           1.66045         4.44003         4.59683
LJ         -0.610941           6.319        -5.19114
LJ          0.752296         3.18673         3.91531
LJ          -4.73946         -4.9902         5.08811
LJ          -0.19866         6.04975         2.49436
LJ          -5.60636        -2.33195         4.84527
LJ          -2.65283         -3.2857        -0.14445
LJ          -5.77318         2.66159        0.720979
LJ          -4.36876         1.63831         -4.3109
LJ          -0.95474        -5.67748        -6.25877
LJ           6.05184        -1.72997       -0.922086
LJ           1.64455         -6.3236        -4.63181
LJ            4.1184        0.372434        -1.96594
LJ          0.748129         1.14027        -3.21941
LJ           -5.3306        -5.98714         5.44106
LJ         -0.496309         1.60249        -1.33035
LJ          -4.71304        -5.07916         3.59309
LJ          0.575017        -6.30004        -5.14701
LJ          -5.87483         3.31056         1.62691
LJ           5.87948       -0.831358        -1.96535
LJ           1.61138          2.1673        -4.96644
LJ          -2.94034        -1.67603         5.16647
LJ          -1.62017        -1.92626         5.54861
LJ           3.91062        -4.00801       -0.299764
LJ          0.753313        -4.25191         2.15307
LJ           4.70479         6.27786         3.33829
LJ          -5.24808        -3.96395         4.99377
LJ          -2.74132         3.10652        -4.65061
LJ          -4.73609         2.94401         0.94962
LJ           4.80237        -4.08784          3.3822
LJ         -0.131803        -4.73311        -3.70996
LJ          -3.93528         1.64465         6.04921
LJ          -3.40604          2.2717        -4.72239
LJ          -1.06988        -0.38078        -3.24032
LJ           3.73699          4.0231        -1.42743
LJ           -1.9591        -1.18564         -3.0091
LJ          -3.60258        0.966425        -5.82088
LJ           5.86376        0.414369         -1.0674
LJ           3.13982         3.72173        -2.25154
LJ            3.1712        -1.31867       -0.198741
LJ           1.86986        -5.32208         1.60028
LJ           -4.6503         3.61795        -1.37174
LJ          -4.41041         2.76295         5.88507
LJ           -3.1261         1.94917        -6.09787
LJ          -2.57577         1.52834        -3.83415
LJ          -1.14482        -1.80465        -6.42693
LJ          -3.94247         2.72876        -5.68796
LJ          -1.10956        -2.80798        -4.89058
LJ          -4.27082        -5.75335         5.71759
LJ         -0.100428         4.38125         4.38146
LJ          -5.51966         2.82166         6.38789
LJ          -6.38949        -1.19423        -2.68731
LJ           3.66965         6.43341         3.18285
LJ          0.784204         6.13252          -4.137
LJ          -1.18308         2.86907         4.16833
LJ          -3.69519          2.4374        -3.63418
LJ         -0.294755      -0.0912084        -6.35867
LJ           0.91341         4.91996         4.09967
LJ            5.6228        -1.53639        -3.28507
LJ          0.936337       -0.891307         1.32048
LJ           2.37884         5.95928        -4.87804
LJ          -6.37673        -2.15647        0.149753
LJ           3.89634       -0.952176        -1.30755
