108
#Comment!
LJ          -1.24224        -5.80138        -5.98762
LJ         -0.344562          5.9238        -3.93329
LJ          -1.75194       -0.292389        -4.49036
LJ          -2.27717        0.636426        -4.78855
LJ           2.20571         5.11071        -2.75543
LJ          -2.80251        -1.35329         5.27101
LJ           4.25528         4.58327         -2.2511
LJ          -2.72129        0.708585         6.19626
LJ          -1.17748        -3.39518        -4.47687
LJ          -2.01213        -2.08837         5.57228
LJ          -1.20815        -1.67698        -3.79894
LJ           3.15881          5.8944         2.11018
LJ          -6.14844        -6.00415         3.48016
LJ          -4.38705         4.02251         -3.3205
LJ           -2.6892        -6.44591      -0.0763406
LJ          -5.66627        -1.38121       -0.648477
LJ           2.17635        -1.80777         6.26934
LJ           2.70887        -6.09263        -6.18483
LJ          -6.16215         -2.7053        -2.40533
LJ           -4.4134         1.45238        -5.15768
LJ          -2.59515        -2.73579        -3.05194
LJ           1.21751         5.65374        -4.64582
LJ           2.16744        -6.33669         4.39087
LJ          -1.46459         4.93543        -5.36368
LJ          -6.34595         1.88263        -2.29322
LJ            2.7179        0.706562         5.26708
LJ          -2.49305        -3.63047        -4.62354
LJ            -1.451         -5.7593        -4.35942
LJ          -3.23144        -4.95345        -3.55741
LJ          -5.51607       -0.630024        -1.75753
LJ           -2.1837        -1.89251        -4.34132
LJ           4.26413        -1.43024        -2.62326
LJ           -2.5403       -0.973797         6.24268
LJ           6.07062        -4.68678         3.86581
LJ           1.68287       -0.965859         -6.1325
LJ          -3.54588         1.54088        -4.25041
LJ          -1.65795        -2.68994        -3.94042
LJ           0.54012         4.20127         3.39239
LJ          -6.43466         -2.7707       -0.972646
LJ           6.19316         -1.5768        -1.36082
LJ           4.97995        -5.52793         3.60582
LJ          -6.04928        -4.60002         5.91797
LJ           3.03801         5.78427        -2.50707
LJ          -5.70054        -3.20666         2.81685
LJ         -0.653032         6.26697        -5.30296
LJ          0.895824         3.17054         4.67864
LJ          0.311975         6.42215        -4.97793
LJ           1.00594         4.45736         4.55076
LJ          -3.82309        -4.20409         5.83405
LJ           1.19023         5.22703         3.66895
LJ          -6.27605        -1.49719          3.6715
LJ           -5.2923        -1.29781        0.302766
LJ          -6.37966         3.20481        0.470617
LJ          -4.82761         3.20364        -3.88111
LJ         -0.548469        -5.52375        -5.25072
LJ          -6.02685        -1.27632        -2.47403
LJ           1.39281        -6.22382        -5.45985
LJ           4.86408       -0.471932        -2.80351
LJ           2.20812       0.0871879        -5.52777
LJ          -4.91691        -4.60267          6.1414
LJ         -0.454322         1.83964        -2.19307
LJ          -5.84888         -5.6629         5.44236
LJ      -0.000902639         5.05692        -4.89642
LJ          -5.75092         3.51583         1.90299
LJ           4.93332        -0.63191        -1.77198
LJ           1.84918        0.794933        -4.51727
LJ          -1.49596        -1.93298         3.98073
LJ          -2.04678        -1.48873          -5.203
LJ           3.54096        -4.12079        -2.51354
LJ            2.0714        -5.09088        0.849367
LJ           4.34709        -6.41541         1.67842
LJ          -5.57694        -6.13891        -6.35147
LJ          -3.65311         3.08438        -3.45942
LJ          -5.26153         3.22969        0.869546
LJ           4.88253        -4.41063          3.6206
LJ         -0.278133        -2.95959        -5.29975
LJ          -3.92277       -0.046805        -6.31363
LJ          -3.24206         2.54385        -4.72762
LJ         -0.569455        -1.32954        -5.00529
LJ           3.95739         3.57077        -2.06926
LJ         -0.912444       -0.719888        -3.75474
LJ           -4.4211         2.17419        -4.24652
LJ           3.75839        -2.04522        -3.78127
LJ           1.79646         3.82925        -3.08596
LJ           2.94947       -0.490526       -0.643641
LJ           1.40947        -4.04105        0.598942
LJ          -6.21803         5.41267        0.160879
LJ          -3.74651        0.564517        -5.35222
LJ           -2.6535        0.244837        -5.66559
LJ          -2.74755         1.27642        -5.37107
LJ           -2.4629        -2.63116        -5.15985
LJ          -3.60403         1.29411        -6.23382
LJ          -1.17147        -2.12976        -4.94608
LJ          -3.93001        -4.49953        -6.08474
LJ          0.375987         5.54798         5.56259
LJ          -4.12159          3.1162         5.51711
LJ          -5.07529        -1.66985        -1.87885
LJ           3.42934         6.41395          3.1689
LJ          0.772962         6.07858        -3.67202
LJ          0.137191         3.41009         5.38204
LJ          -1.73353         1.61114          -5.314
LJ           1.63087         0.36017        -3.33336
LJ         -0.369889          4.7641         5.09512
LJ           5.60398        0.313753        -1.60335
LJ           1.45651         -0.4226         2.13116
LJ          0.653716         6.09518        -5.96095
LJ           5.85014       -0.532451       -0.819474
LJ           4.62551        -2.68939        -2.44404
