108
#Comment!
LJ          -2.01951         -4.6529        -4.85797
LJ          -1.11561         -3.6391        -5.31444
LJ          -3.92166         4.61604        -5.17799
LJ           -5.8359        -3.43483        -4.78888
LJ          -1.76147        -5.71378        -3.08788
LJ            -1.717        -2.46173        -4.07867
LJ         -0.407599        -5.60031          3.6872
LJ            4.7508        -1.94064         4.81695
LJ           5.63644        -1.67257        -5.13703
LJ           2.72564        -1.15316         2.38486
LJ          -4.01798         3.68518        -4.42387
LJ          -2.88589        0.755817         -4.4675
LJ          -5.72256         5.44308         3.41211
LJ          -0.70878        -2.95892        -4.07711
LJ          -0.65602        -4.81933         -5.6072
LJ         -0.759637        -5.46328        -3.43274
LJ           1.89605         3.57592         3.18524
LJ           3.06828         5.32275          5.2931
LJ          -1.73093        -5.51019        -4.06573
LJ          -3.35206        -3.51371        -5.58166
LJ          -1.10004         -4.4877        -4.43343
LJ          -5.74218        -3.07583        -5.85785
LJ         -0.200945        -5.03339        -4.47254
LJ          0.784028         3.60054       -0.759451
LJ          -1.73878         4.73394        0.691756
LJ          -0.32943        -0.95117        -2.83961
LJ          -3.32046            6.25        -4.28138
LJ          -1.22374        -4.04587         5.18995
LJ           2.87885         5.76113         6.37922
LJ          -4.17366         5.85381        -3.82433
LJ         -0.193798        -2.65567         2.53993
LJ          -1.48796        -2.47022        -2.59283
LJ          -3.62274         5.67862         5.06268
LJ         -0.341665          -2.773        -6.20657
LJ           3.95801       -0.873792        -6.36684
LJ          -3.14058        -2.00504         3.76207
LJ          -3.63541        -6.07767        -5.36547
LJ           3.76507         -5.2255       -0.612016
LJ          -3.12329        -4.46069        -4.90583
LJ          -2.14797        -2.34152         6.34513
LJ          -1.39368        -1.00172        -2.63438
LJ          -3.38416        -5.05486        -5.63225
LJ           -3.2211        -4.98796         4.22404
LJ           6.23215        -6.01117         6.01463
LJ          -2.59315        -4.73253        -3.30499
LJ           5.77045         2.71367        -6.32062
LJ          -2.84893        -3.24042         -4.6158
LJ          -1.83127         -3.4605         6.40879
LJ           1.85287         1.15867         4.19062
LJ           1.73986        -1.57175         3.64214
LJ           1.75761       -0.664148         1.04166
LJ          -4.27343        -4.63338        -4.85325
LJ         -0.575987      -0.0178121        -2.16919
LJ          -2.50251           3.934       -0.679554
LJ          -2.29037        -5.41854        -5.51003
LJ           3.53657         5.05567       -0.186605
LJ           2.82743        0.746192       -0.671456
LJ          -1.70492        -5.02738         -2.0665
LJ         -0.829352         3.89603       -0.400117
LJ          -3.79887        -2.06184        0.939848
LJ          0.340688         1.27058         4.71201
LJ          -4.25727        -0.55959        -4.58137
LJ          -1.61796        -4.78396        -6.35724
LJ         0.0566046         2.50881        -4.85842
LJ           1.81353         2.11448        -5.26843
LJ          0.621184        -3.76776         5.70732
LJ           1.04879         4.76121        -4.12741
LJ           5.97047        -2.94915         3.08004
LJ           -2.2313        -3.17605        -5.62187
LJ          -2.94952        -5.52439          -4.421
LJ          -3.63175        0.211668        -3.59007
LJ           5.05408        -2.40365        -6.06391
LJ           0.53903        -1.95257        -4.74256
LJ          -2.04952       -0.184899        -1.87329
LJ          -2.05838        -1.48674        -1.71071
LJ           1.77438        -1.43529         5.75313
LJ          -2.98126         -2.4607        -5.67114
LJ           3.82905        -2.63955         5.64906
LJ          0.584999        -0.48482        -3.03467
LJ           -2.4943         -4.2592        -5.82324
LJ            5.1844        -1.06044         6.24805
LJ         -0.133318         4.04826        -1.19625
LJ          -1.59101        -4.65004        -3.23491
LJ          -5.25064         5.95659         6.45893
LJ           2.62111         -5.7739         4.74269
LJ            1.8248         6.20984         6.38686
LJ          0.111163        -1.75444        -3.81277
LJ          -3.23564        -4.78518         5.94718
LJ          0.827177         -4.7226        -4.73389
LJ         -0.161817        -3.81112        -5.82699
LJ            2.1478         6.43915         5.43175
LJ           4.22195       -0.451286        -4.89764
LJ           4.14975        0.289751         2.11029
LJ          -1.25704        -2.58739        -5.05572
LJ          -3.06096        -5.72357         6.40582
LJ          -0.92976        -1.83892        -1.40435
LJ           -0.8038         -5.4099         6.11731
LJ        -0.0178961        -2.99461        -4.98782
LJ          -1.94201        -5.82441         6.13888
LJ          -1.54103        -3.43693        -3.36406
LJ         -0.302007         -4.3129        -3.68545
LJ           4.73907       -0.960779         5.13741
LJ          -1.82364        -3.58981        -4.46478
LJ         -0.547904        -3.45575         5.82158
LJ         -0.186785        -3.99838        -4.70414
LJ          -4.53907        -6.02803        -3.42859
LJ          -2.81673         -5.0376        -2.11412
LJ          -1.01455        -1.00217       -0.618037
