108
#Comment!
LJ          -1.60349         -5.1242        -4.87444
LJ          0.211012         4.90709        -4.65956
LJ          -1.57422        -1.08545        -4.28965
LJ          -3.36877         1.14469        -4.84083
LJ           2.60908         4.66926        -2.67498
LJ          -1.46885        -1.85259         4.75226
LJ           4.29111         4.42084        -2.68727
LJ          -3.02348         2.02612          6.3098
LJ          -1.00782        -4.12925         -4.3314
LJ          -1.66013       -0.831212          6.2932
LJ         -0.595983        -3.34498        -3.70855
LJ           3.71859         5.32477         2.78128
LJ           6.27656         6.15877          3.3062
LJ           -4.4865         3.81219        -5.67918
LJ          -3.14265         4.96994         1.88962
LJ           4.96118         -2.7123        -2.22059
LJ           2.69376        -1.81638         5.51291
LJ           1.65755         6.20712        -6.06906
LJ           6.46041        -2.49361        -2.16131
LJ          -5.71823         1.80346        -4.72483
LJ          -2.56923        -3.03078        -4.94745
LJ            1.3839         5.50745        -4.43768
LJ           3.20616        -5.79906         3.72309
LJ          -2.79969        -6.22353        -3.84343
LJ          -4.11843         1.57444        -3.28581
LJ         -0.493767       -0.459662        -5.86081
LJ          -1.86312        -2.94315        -5.94332
LJ           -1.5523        -6.17886        -4.73711
LJ          -2.71887        -3.05388        -3.52264
LJ          -5.93595       -0.341926        -1.95547
LJ          -1.90018        -2.08528        -4.06076
LJ           3.13521       -0.608533        -1.33453
LJ         -0.331566         -1.4482         5.79593
LJ           6.05502        -4.29309         3.76247
LJ           3.18875        -2.42359        -4.26828
LJ          -4.05216         1.83451        -5.15322
LJ           -1.6931        -3.23385        -3.89462
LJ           2.65524         4.30102         4.67741
LJ           6.34552        -3.13043        -1.16499
LJ           5.30444        -1.52777        -1.40547
LJ           5.36639        -3.45228         3.64146
LJ          -5.92523         -5.3003         5.52653
LJ           3.42216         5.52914         -1.5949
LJ          -6.41558        -2.09234         2.89626
LJ         -0.230193        -5.75949        -5.65126
LJ           1.37261          4.0669         4.42428
LJ         -0.154553           6.418        -4.67344
LJ          0.652412         2.88848          4.4053
LJ          -4.27047        -4.80135         5.06127
LJ          0.169909         5.86005         2.83714
LJ          -5.74057         -2.0662         4.55839
LJ          -3.37664        -2.72187       0.0347504
LJ          -5.93286         2.80309        0.730283
LJ          -4.47951         2.10105        -4.24205
LJ         -0.897429        -5.31809         6.25412
LJ           6.32959        -1.44573        -1.66582
LJ           1.68988         -6.2173        -4.81099
LJ           4.79497       -0.263155        -1.90509
LJ          0.634749        0.814675        -3.67406
LJ          -4.85035        -5.68784         5.46285
LJ         -0.484117          1.6904        -1.54612
LJ          -4.73424        -5.04816         4.12495
LJ          0.730207         6.28722        -5.19688
LJ          -5.82382         3.33716         1.66152
LJ           5.75963       -0.449358        -1.86113
LJ           1.76827         1.78815        -5.17195
LJ          -2.83304        -1.46405         4.16207
LJ          -1.76608        -1.98022         6.28441
LJ            3.7677        -4.10159       -0.926028
LJ           0.91215        -4.47065         2.16278
LJ           4.05735          6.3491         3.20488
LJ          -5.38753        -4.50662         4.73872
LJ          -3.23364         3.60093        -4.65302
LJ          -4.93288         2.99957        0.957514
LJ            4.5019        -4.06868         3.58106
LJ          0.138073        -4.32987        -4.10298
LJ          -3.51605          1.1576         5.53299
LJ          -2.96582         2.29695        -4.91091
LJ         -0.666531       -0.650039        -3.49544
LJ           3.56594         4.24318        -1.21882
LJ          -1.85772       -0.626201        -2.93967
LJ          -4.62714        0.379919        -5.24951
LJ           5.34368        0.517028        -2.49354
LJ           2.96987         3.60442        -2.57227
LJ           2.97423        -1.00214       -0.303525
LJ           1.92499        -4.94282        0.903354
LJ          -5.09552         4.20128       -0.995779
LJ          -4.49461          1.7236        -6.26151
LJ          -3.47049         1.34031        -5.90476
LJ          -2.11578         1.18753        -4.26928
LJ          -1.10329        -2.06058         -5.4649
LJ          -3.79862         2.88844        -5.48579
LJ          -1.26162        -2.78347        -4.74117
LJ          -4.36862        -5.49521        -6.24963
LJ          0.257874         4.12921         4.70668
LJ          -5.27341         3.10827        -6.31477
LJ          -5.55059        -1.31398        -2.26436
LJ           3.22416         6.34377         2.51442
LJ          0.666773          6.1154        -3.96334
LJ         -0.989014         3.29354         4.56221
LJ          -2.78122         2.78725        -3.94668
LJ          0.785879       0.0913434        -5.65837
LJ          0.272678         5.43024         3.89422
LJ           5.59268       -0.995403         -2.7568
LJ           1.07409       -0.752813         1.56725
LJ           2.26864         5.76146        -5.17252
LJ           5.80148        -1.68562       -0.362018
LJ           3.82236        -1.30811         -1.6637
