108
#Comment!
LJ          -1.46383          6.0988        -4.93799
LJ         -0.771631         5.38318        -5.34625
LJ           -1.9136       -0.165376        -2.30346
LJ          -2.72982         3.27826        -5.10923
LJ           3.11576         4.57244        -2.16145
LJ          -2.51082       -0.339029         5.41268
LJ           5.78141         5.31662        0.289898
LJ          -1.59894         3.90989         6.16817
LJ          0.276963        -4.77206        -5.09958
LJ         -0.205558        -1.14238         5.32621
LJ          -1.14116        -4.24247        -4.33722
LJ           3.23693        -6.30245         3.25369
LJ           -5.5722         5.19148         3.66425
LJ           -5.8911         3.62201         5.57413
LJ          -3.99655         1.72779         5.84302
LJ           4.76098       -0.259905        -2.86123
LJ           3.62274          -1.753          4.5542
LJ           1.97235        -5.97791        -5.16327
LJ           5.81457        -1.68326        -1.93398
LJ          -4.90043        0.106731         -2.0405
LJ          -1.67424        -2.74395        -2.87834
LJ           0.82538        -5.40221        -4.44699
LJ           1.11834         6.02247         2.44516
LJ          -2.70454        -1.90346         -2.8707
LJ         -0.642951         2.28014        -2.32513
LJ         -0.166123        -2.03941        -5.91002
LJ         -0.361663        -2.34084         5.03902
LJ          -2.03245         4.60353        -4.37077
LJ          -1.26158        -1.40057        -3.07181
LJ           5.54608       -0.370445       -0.392422
LJ          -2.22409       -0.999572         -3.5105
LJ           3.48602        0.495275        0.134628
LJ          0.242075        -2.32895         6.03264
LJ          -4.83886        -3.26353         5.36847
LJ           4.49156        -3.44128         -2.9104
LJ           6.42175         2.79047         5.76527
LJ         -0.936872        -3.77358        -3.21854
LJ           3.23007         3.02478         4.90646
LJ           4.25868        -1.61581       0.0246814
LJ           5.10037        -1.67947       -0.980073
LJ           5.70102        -1.73025         4.57247
LJ           5.72637        -5.54002         3.76525
LJ           2.81634         3.39179        -2.13089
LJ           4.83849        -1.55511         4.01826
LJ          0.532955         6.02995        -4.61627
LJ           1.86361         3.98333         4.41546
LJ         0.0757264        -6.31852        -6.08801
LJ            2.1329         3.99657         3.09033
LJ          -5.57842         -6.3703         3.58858
LJ          -1.21467         6.45415         1.83995
LJ           -5.3586        -2.34049         5.48973
LJ         0.0509141        -5.43505        -1.39833
LJ          -5.12453         2.12954         0.85957
LJ          -4.75629        0.321282        -3.30728
LJ          -0.67677        -5.38685        -5.65736
LJ           5.07713        -1.25122         1.04464
LJ           1.36684        -5.90627         6.23392
LJ           4.27345       -0.773211        -1.19531
LJ          0.606774          2.4807        -1.06963
LJ           6.24582        -6.26409         3.11592
LJ         -0.170767         1.25011         -1.3779
LJ          -1.24938        -3.75855        0.801421
LJ         -0.187776        -5.91737        -4.95807
LJ          -5.61595         3.10561         1.15541
LJ           6.39085        -1.10311       -0.916151
LJ          0.830465         3.63942        -3.77288
LJ          -3.17825        -1.50297        -4.62482
LJ          -3.12647       0.0553905          4.5406
LJ             5.352        -2.30857        0.670049
LJ           2.41232        -5.78005         2.45309
LJ            4.5553        -5.87266         4.05164
LJ          -5.65798        -3.91678         4.63016
LJ          -3.64268         1.48108        -5.38456
LJ          -4.32525         2.95103        0.892911
LJ           5.26215        -3.28296         2.32998
LJ          -2.18147        -4.28019        -1.33304
LJ          -1.92966         2.58861         6.26615
LJ          -2.85631         1.90385         5.59236
LJ          -3.01036       -0.756762        -2.68858
LJ           4.07965         4.95883        -2.40981
LJ          -1.71458        -2.16749        -3.81949
LJ          -2.30803         1.72757         3.90429
LJ            5.5141        -3.39751        0.333568
LJ           3.54775         3.74336        -1.46872
LJ           3.71895        -1.84965        -1.55609
LJ            2.2068         -5.4044         4.83252
LJ          -4.92799          1.9005        -2.43038
LJ          -5.90426         3.29277        -6.30538
LJ           -1.8797         1.96383         5.01462
LJ          -4.32573        0.570597        -4.69645
LJ          0.890748        -1.20165         5.70486
LJ          -3.81098         3.10226        -5.06883
LJ          0.794264        -5.51376        -5.68355
LJ           -5.7002         6.05744         2.59762
LJ          0.561486         5.47091         3.05705
LJ           6.04504         4.30605         6.04526
LJ           4.66386        -1.50981        -3.58893
LJ           3.24554        -5.96568         4.62326
LJ         -0.732785         5.69506        -4.29354
LJ          -1.07403         2.27882         3.09089
LJ          -4.81458         1.11127        -5.53364
LJ          -2.79311       -0.813723         3.86137
LJ           0.84124         4.78894         3.92862
LJ           3.88517        -1.40777        -2.79086
LJ          0.453831        -1.45743        0.276291
LJ            1.8979         6.00576        -5.60053
LJ          -6.45369        -1.70627      -0.0249676
LJ           3.45043         -0.8627        -2.05728
