108
#Comment!
LJ          -2.10544        -4.54444        -5.15239
LJ          -1.88175        -3.59117        -5.61704
LJ          -4.77863         1.50472        -2.99935
LJ          -2.83738        -3.53055        -3.43995
LJ          -1.75967        -6.17429        -3.67866
LJ          -1.08225        -1.95857        -3.35616
LJ           1.46863       -0.973497         4.21864
LJ          -5.36684        -2.86438         5.94468
LJ          -5.37318         -2.9338        -5.88513
LJ           5.79653        -2.01972        0.968237
LJ          -4.73007          4.4544        -5.10219
LJ          -1.21499         2.84103        -1.29215
LJ           5.39325         6.07349         2.58842
LJ          0.287454        -2.55894        -3.86474
LJ          -2.04214        -5.53149        -5.01094
LJ          -3.59484        -5.70383        -2.25169
LJ          -2.02041        -1.47347        -4.56617
LJ           1.36387          6.1105         3.34901
LJ          -2.65378        -5.68401        -3.64667
LJ          -2.80754        -3.04759         5.34222
LJ          -1.16296        -4.57426        -4.45342
LJ           4.60378        -1.73487        0.462441
LJ          -1.17472        -4.91528        -5.71129
LJ           3.25623         6.06644       -0.583811
LJ          -1.74049        -5.93985        0.185816
LJ           0.30516        0.689909         -1.2111
LJ          -3.55009        -3.84634        -5.14318
LJ          -2.69976        -4.05287         5.85969
LJ          0.509695         5.64612         3.92869
LJ           5.12581          3.9895         5.31198
LJ         -0.419596        -3.87996         3.69417
LJ          0.214154        -3.51992        -2.71714
LJ          -3.01889        0.570956          1.6043
LJ          -3.66738        -2.06944         -5.2017
LJ           4.19018         2.94661         4.98521
LJ          -3.41799         -6.1921        0.664658
LJ          -3.84203         5.84506        -6.42191
LJ           5.14414        -5.77126        -1.24224
LJ          -3.67492        -3.26164        -6.19325
LJ          -2.94195        -4.49993        -5.89812
LJ          -0.10464         1.83269        -2.40995
LJ          -3.77086        -5.69149        -4.21933
LJ          -2.43477        -6.36036        -5.92133
LJ          -4.54921        -3.89223         5.52697
LJ          -3.07664        -4.31389        -4.30003
LJ           5.99593         2.43226        -4.45854
LJ          -2.76999        -3.09645         -5.7204
LJ           -1.8271        -4.32659        -6.34558
LJ           2.44975        -1.33852         5.73982
LJ           1.26693        -1.54086          1.4971
LJ           2.46367         2.28693        -1.73074
LJ          -5.47761          -3.543        -4.39595
LJ         -0.825154         3.05519        -2.40417
LJ          -2.68433         2.16415         3.74145
LJ          -3.81044        -5.85113        -6.24126
LJ           6.36028         5.47656         2.37831
LJ           5.11104        -4.35399        -2.66933
LJ          -2.35542        -5.35496        -1.85498
LJ           1.68722          5.7784        -2.05212
LJ         -0.160614        -5.82575        -6.07115
LJ          0.104805         4.54222         3.71106
LJ          -1.06399        0.646458        -3.12536
LJ          -3.08492        -6.23144        -5.10735
LJ         0.0669165         1.89282        -3.61185
LJ          0.487296        0.237479         5.22674
LJ         -0.739375         -3.5833        -4.21846
LJ           3.23235         5.98743        0.529551
LJ           4.38014        -3.46278         2.23093
LJ          -2.56417         -5.4641         6.42293
LJ          -2.99642        -5.09878        -5.03054
LJ          -1.51307         1.75363        -3.80097
LJ           5.83263         1.98975         4.72906
LJ          -1.81196        -2.86174         -4.4186
LJ         -0.841495        -1.02252       -0.907644
LJ           0.19669        0.633953        -3.61586
LJ         -0.968642        -3.60039        -5.27395
LJ          -1.92348        -3.18002          6.3615
LJ           5.91004       -0.762794         5.73637
LJ           4.43604         2.55496        -2.02251
LJ          -3.91737        -4.55304        -6.44633
LJ           2.43402        -2.00883        -2.35043
LJ           1.29015         5.37609        -1.03745
LJ          -2.25768         -4.6455        -3.44085
LJ          -4.61183        -5.12156          5.3531
LJ           1.89207        -5.94206         5.98689
LJ         0.0848778         5.55075         5.24245
LJ          -0.71278        0.761227        -2.15281
LJ          -2.37356        -3.82756         4.26144
LJ         0.0814086        -4.17329         -4.8174
LJ          0.448722        -2.99998        -4.94786
LJ           2.51121         5.99489         3.19941
LJ           3.11383        -1.71573        -3.21204
LJ           5.23519        -3.28891        0.397107
LJ          -2.83759        -3.32112        -4.66794
LJ          -3.38446        -5.10512         5.75549
LJ         -0.448663        -3.55846        -1.43586
LJ          -1.69685        -3.70376         5.53222
LJ         -0.841528        -2.22946        -4.46639
LJ          -3.39924        -6.27121          5.7944
LJ          -1.01331        -3.62816        -2.38236
LJ          -1.21417        -4.99376        -3.45282
LJ          -4.99783        -1.48427         4.24801
LJ          -1.88712        -3.86399        -4.33178
LJ          -1.81524        -2.07622         -5.8466
LJ          0.198207        -3.81683        -3.82274
LJ           6.35651          5.9619         5.84497
LJ          -4.51228         4.75734        -1.62792
LJ         -0.621052      -0.0550392        -1.42366
