108
#Comment!
LJ          -1.54571        -5.39716        -6.08943
LJ         -0.377571         5.97448        -4.26997
LJ          -1.46041       -0.414488        -4.61173
LJ          -2.52016        0.588546        -4.62165
LJ           2.47455         4.97088        -2.70259
LJ          -2.97168         -1.6236         4.91951
LJ           4.10212         4.76031        -2.35677
LJ          -2.95794         1.10288         6.45418
LJ          -1.29506        -3.99007        -4.67811
LJ          -1.87034        -2.06734         5.57967
LJ         -0.751636        -2.11391        -3.88514
LJ           3.41179         5.60926          2.1448
LJ           -6.3711         -5.9693         3.45202
LJ          -4.31921         4.26076        -3.94858
LJ           -2.8085          6.0746        0.455213
LJ          -6.10784        -1.55601        -1.07066
LJ           2.34068        -1.85375         5.90894
LJ           1.76307        -6.02131        -6.01033
LJ          -6.44002        -2.66567        -2.34973
LJ           -4.3076         1.91902        -5.22908
LJ          -2.80407        -2.61322        -3.57958
LJ             1.511         5.52497        -4.59709
LJ           2.42315        -6.15006         4.36707
LJ          -2.04034         5.21539        -4.98605
LJ          -5.64577         1.81029        -2.91966
LJ           2.03431        0.655895         5.99665
LJ          -2.15669        -3.46665        -4.81307
LJ          -1.19371        -6.18107          -4.386
LJ          -3.25675        -4.55372        -3.50544
LJ          -5.47846        -0.79891        -1.71615
LJ          -1.99967        -1.98719        -3.85212
LJ           3.98614       -0.989058        -2.12716
LJ          -1.68457       -0.813506         6.17411
LJ           6.30251        -4.98016         3.70916
LJ           2.10945        -1.45016        -5.52396
LJ          -3.54466         1.33542        -4.21209
LJ          -1.75696        -3.15946        -3.93255
LJ           1.11703         4.29748         3.89502
LJ          -6.44964        -3.17883         -1.1931
LJ           5.79566        -1.27513        -1.71373
LJ           5.21791        -4.93014         3.54668
LJ          -6.08271         -4.5421         6.07747
LJ            3.2566         5.49705        -2.25766
LJ          -5.84926        -2.89995         2.86165
LJ         -0.692069         6.34573        -5.39151
LJ           1.35125          3.1564         4.35684
LJ          0.439648        -6.43957        -4.87701
LJ          0.672197         4.03318         4.83983
LJ          -3.73862        -4.40218          5.7607
LJ          0.898442         5.54717         3.22336
LJ          -6.15963         -1.6131         3.87473
LJ          -4.71329        -1.69443        0.315706
LJ          -6.27651         3.05368         0.49405
LJ          -4.99096         3.00504        -3.91041
LJ         -0.201522        -5.61944        -5.45328
LJ           -6.0832        -1.48266        -2.20883
LJ           1.63541        -6.27925        -4.83404
LJ           4.55957       -0.257907        -2.75546
LJ           1.16708       0.0533633        -5.13666
LJ          -4.94444        -4.37704         5.92172
LJ         -0.460464         1.80781        -2.00513
LJ          -5.43579        -5.68443         4.98438
LJ           0.03987         5.34701        -5.27566
LJ          -5.72763         3.45472         1.85451
LJ           4.80591       -0.881984        -1.45254
LJ           1.88921         1.03126        -4.82118
LJ          -1.78436        -1.70373         3.67911
LJ          -1.74791         -1.5325        -5.81723
LJ           3.58516        -4.14948        -2.08245
LJ           1.67789        -4.99803         1.45699
LJ           4.31734        -6.39438          2.0767
LJ          -5.24648        -5.86011         6.20935
LJ          -3.52854         3.12607        -3.96762
LJ           -5.1981         3.17591        0.954616
LJ           4.38732        -4.15504         3.65177
LJ        -0.0636065        -3.14544        -4.82318
LJ          -3.78263        0.108418         6.26919
LJ          -3.40594         2.52587        -4.95748
LJ         -0.631521       -0.981099        -4.24547
LJ           3.79039         3.72917        -1.92385
LJ          -1.03014       -0.530692        -3.42663
LJ           -5.0683         1.46227        -4.06431
LJ           4.26103        -1.42906        -3.51482
LJ            2.1103         3.77231        -2.84774
LJ           2.87567       -0.610049       -0.437279
LJ           1.61408        -4.19564        0.419814
LJ           -5.9146         5.12993       -0.181197
LJ          -4.14653         1.01784        -5.78446
LJ          -2.90319      -0.0368998        -5.75763
LJ          -2.82945         1.56554        -5.09513
LJ          -2.22373        -2.38549        -4.96999
LJ          -3.65468         2.16734        -6.19469
LJ          -1.15209        -2.72367        -4.83791
LJ          -4.42205        -5.19274        -6.36211
LJ          0.658918         5.14747         5.35476
LJ          -4.54888          3.1676         5.90492
LJ          -4.67753        -1.49402        -1.95566
LJ           3.25412         6.39067         2.96609
LJ          0.967535         6.34723        -3.81501
LJ         -0.422789          3.5318         5.11164
LJ          -1.56608          2.1468        -4.91365
LJ           1.81559        0.475949        -3.94654
LJ         -0.384711         4.77279         4.69895
LJ           5.90218       -0.162662        -1.90521
LJ            1.3493       -0.510769         1.98376
LJ           1.09627         5.82972         -5.7079
LJ           5.41929        -0.65958       -0.641042
LJ           4.46947        -2.18819        -2.34471
