108
#Comment!
LJ          -1.96612         -4.5019        -4.64068
LJ          -1.22222        -4.04944        -5.48631
LJ          -3.87879         3.63516        -5.23813
LJ          -4.86695        -3.82263        -4.30044
LJ           -1.8426        -6.25559        -3.07781
LJ         -0.995201        -2.28874        -4.11411
LJ          0.036115        -4.70205         3.80426
LJ           5.14335         -2.6464         5.03917
LJ            5.9598         -1.7912        -5.38141
LJ           3.74685        -1.36123         2.66327
LJ          -4.33783         4.04049        -3.99826
LJ          -2.41436         1.42211        -3.76547
LJ          -6.09532         5.61269         3.29687
LJ         -0.329212        -3.51092        -3.82574
LJ          -1.14976        -4.96611        -5.11984
LJ          -1.00786        -5.22921        -3.02171
LJ           1.38402         2.67961         4.35244
LJ           2.65754         5.25837         5.07302
LJ          -1.89577        -5.42187        -3.83578
LJ          -3.40034        -3.64974        -5.64693
LJ         -0.995572        -4.25161        -4.26368
LJ          -5.94037        -3.00228         5.85518
LJ         -0.190408        -5.22854        -4.81198
LJ           1.19181         3.98481        -0.76517
LJ          -1.76177         5.33038        0.704289
LJ        -0.0785741        -0.32994        -2.90095
LJ             -3.76         -5.7906        -4.01842
LJ          -1.97271        -4.34126         5.59914
LJ           2.35296         5.59837          6.1416
LJ          -5.44039         5.42248        -4.91418
LJ         -0.192268        -2.84638         2.74391
LJ         -0.914056        -1.83468         -3.2616
LJ          -3.53485         4.58837         4.37692
LJ         -0.972763         -2.1772        -5.82917
LJ           4.44998        0.413787         6.36845
LJ          -3.46817        -2.71811         3.27302
LJ          -4.01973        -6.41584        -5.42789
LJ            4.0648        -5.32053       -0.747561
LJ          -2.95426        -3.86773        -4.64635
LJ          -2.22392        -3.07303        -6.11104
LJ          -1.04719        -0.84593        -3.14465
LJ          -3.95548        -5.42084        -6.11407
LJ          -2.44959        -4.77543         4.72683
LJ          -6.05344        -5.89297         5.92722
LJ          -2.68676         -4.5797         -3.8447
LJ           5.84614         2.66732        -5.86545
LJ          -2.74641        -2.88412        -4.81356
LJ          -1.57608        -3.92778        -6.41172
LJ           1.58432        0.515937         4.31687
LJ           1.61434        -1.43178         4.15472
LJ             1.875      -0.0474511        0.525394
LJ          -3.91648        -4.33911        -5.05029
LJ         -0.625966       -0.225125        -1.93695
LJ           -2.1468         3.56526        0.123721
LJ          -3.00296        -5.98665        -6.11074
LJ           4.12313         5.08869        0.276645
LJ           3.33221       -0.319794        -1.08863
LJ          -2.22764        -5.33793        -2.80133
LJ         -0.754802         4.45548        -0.77069
LJ          -2.86373        -3.17393         1.80775
LJ          0.254946         1.84916           4.357
LJ           -3.9176       -0.355109        -4.39631
LJ          -1.65156        -5.16705         -6.0543
LJ         -0.105877         2.33647        -4.25156
LJ           1.58124         1.73177        -5.72716
LJ          0.245973        -3.26644         6.07709
LJ           1.68512         5.19684        -3.13604
LJ           5.59337        -2.96214         2.80124
LJ          -2.29256         -4.0476        -5.59826
LJ          -2.84434        -5.35646        -4.56818
LJ          -3.14103        0.391243        -3.78591
LJ           5.05984        -1.60936          6.2372
LJ         -0.096383        -1.73389         -4.5286
LJ          -1.85913       -0.248445        -1.35294
LJ           -2.1622       -0.962143        -2.45562
LJ           1.47575        -1.66576         5.27143
LJ          -3.28963        -2.63259        -5.85644
LJ           4.18691        -2.10446         5.90089
LJ           1.64134        0.266285          -2.854
LJ          -2.90887        -4.92485         -5.5277
LJ           4.70295        -0.66091        -5.50499
LJ           0.19068         3.96586        -1.15351
LJ           -1.7511        -4.36038        -3.52568
LJ          -5.63615         6.15497         6.24128
LJ           2.38215        -5.41322         4.99825
LJ           1.16242         5.93724         6.19444
LJ        -0.0858506        -1.42236        -2.68155
LJ          -2.78102        -3.75383          6.3225
LJ          0.571042        -4.90661        -5.47015
LJ         -0.222131        -4.15465        -5.97022
LJ           2.81063         6.33315         4.34593
LJ           3.84073        -1.15384        -4.33354
LJ           4.44811       -0.318973         1.50312
LJ          -1.79009        -2.84079        -4.97799
LJ           -3.1558        -6.01911         5.64202
LJ         -0.763321        -1.23835        -1.41332
LJ         -0.823851        -5.54699         5.80757
LJ         -0.710587        -2.94156         -5.0335
LJ          -2.10303        -5.50699           5.701
LJ          -1.18368        -3.18588        -3.14166
LJ         -0.458514        -3.94963        -2.85436
LJ           5.06945       -0.951002         4.28577
LJ          -2.15754        -3.34407        -4.07488
LJ         -0.906517         -3.1906        -6.05988
LJ          0.246471        -4.36265        -4.43843
LJ          -4.79475         6.35167        -4.57619
LJ          -3.28584        -4.68249        -2.99166
LJ         -0.853385       -0.852026       -0.242248
