108
#Comment!
LJ          -2.10392         -4.4086        -5.04821
LJ          -1.54847        -3.54176        -5.30831
LJ          -4.52082         1.95902        -3.61734
LJ          -2.31268        -3.40269        -3.40908
LJ          -1.15244        -5.87775        -4.00492
LJ          -1.07405        -2.15743        -3.45116
LJ           1.30746         -1.8601          4.3539
LJ          -6.08577        -2.87456         5.96072
LJ          -5.94101        -2.58219        -5.77518
LJ           5.84506        -1.62438         1.31409
LJ             -4.66          4.4057         -4.7418
LJ          -1.37139          2.6112        -1.84692
LJ           5.76756         6.08692         2.97374
LJ         0.0659165        -2.90438        -3.83609
LJ          -2.17412         -5.8429        -5.13213
LJ          -2.97698        -5.67068        -2.41585
LJ          -1.14118        -0.27117        -5.59557
LJ           1.52858         6.35979          3.6939
LJ          -2.10277        -5.21343        -4.33378
LJ          -3.01396        -3.74204         6.10598
LJ          -1.22417        -4.57088        -4.39269
LJ            5.0334        -2.22443         2.20204
LJ          -1.04814        -5.17962        -5.22694
LJ           2.35403         5.31535       -0.934782
LJ          -1.72695        -6.37272        0.322919
LJ          0.180872        0.391372        -1.81993
LJ          -3.87349        -4.22236         -5.0537
LJ          -2.67894        -4.68381          6.0733
LJ           1.08895          5.3771         4.64742
LJ           5.13533         4.65687         5.59622
LJ         -0.342933        -3.64112         3.41124
LJ          0.240433        -2.78299        -2.77151
LJ          -3.21011         1.55371         2.32118
LJ           -2.7861         -2.0864        -4.63811
LJ           5.32143          3.4676         5.83202
LJ          -3.51862        -5.24997         1.35535
LJ          -3.42318         6.09766        -6.16851
LJ           4.89267        -5.64326        -1.11873
LJ          -3.97088        -3.47703        -5.83942
LJ          -2.75651        -3.88642        -5.74253
LJ        -0.0573498        0.912537        -2.69505
LJ          -3.72161        -5.73685        -4.34848
LJ          -2.27723        -5.84825         5.98103
LJ          -4.31855        -4.74495         5.54824
LJ          -2.95003        -4.52346          -4.334
LJ           5.97188         2.48383        -4.75817
LJ          -3.02194         -2.9129        -5.52237
LJ          -1.81987        -4.28029        -6.29818
LJ           2.05731        -1.03544         5.07431
LJ           1.37458        -1.37934         2.16696
LJ           2.28115         1.67716        -1.07623
LJ          -5.25402        -3.47579        -4.91638
LJ         -0.489074         2.20364        -2.43092
LJ          -2.49332         2.58254         2.80503
LJ          -3.73875        -5.74527        -6.37115
LJ           5.79115          5.2369         1.62297
LJ            4.6628        -3.31523        -2.24534
LJ           -2.8543        -5.38206        -3.63773
LJ           1.13993         5.57784         -1.7413
LJ         -0.770669        -5.60768          5.3418
LJ        0.00966899         4.11064         4.23956
LJ          -2.12082        0.284548        -3.65041
LJ          -3.36775         -6.1665        -5.32857
LJ         -0.392506         2.05942        -3.52035
LJ          0.803328        0.681833         5.72903
LJ          -0.40235         -3.6214        -4.50736
LJ           3.18215         6.12373       -0.160394
LJ           4.55835        -3.32402         2.40107
LJ           -2.2967        -5.25501        -5.94319
LJ          -3.17239        -4.98624        -5.17353
LJ          -1.51224         1.13663        -3.72196
LJ           5.70282         1.13812         5.11348
LJ          -1.46673        -2.35113        -4.56974
LJ         -0.505531       -0.878435        -1.17072
LJ         -0.896181        0.508529        -3.24998
LJ         -0.083134        -3.05709        -5.63432
LJ           -2.1482        -3.25051        -6.36208
LJ           5.29528         -1.1323         5.81512
LJ           3.78423         1.98786        -2.28572
LJ          -3.69814        -4.50933        -6.12398
LJ           2.76638         -1.2428        -2.82768
LJ          0.917888         4.71673       -0.999612
LJ          -1.90511        -4.43397        -3.49787
LJ          -5.04812        -5.98434         5.64762
LJ           2.05712        -5.84453         5.71713
LJ         0.0882154         5.20574             5.3
LJ           -0.8632        0.447486        -2.05644
LJ          -2.93204        -3.46636           4.603
LJ          -0.16894        -4.55959        -4.82635
LJ           0.63497        -3.59728        -4.77182
LJ           3.03118         6.06532         3.23397
LJ           3.56092        -1.97051        -3.86226
LJ           5.00442        -2.63911        0.456479
LJ          -2.55461        -3.28789        -4.54746
LJ          -3.44395        -5.19143         5.67065
LJ         -0.598828        -2.92725        -1.84933
LJ          -1.81378         -4.2626         5.15766
LJ         -0.356003        -1.94598        -4.27797
LJ          -3.26749          6.4125         5.69023
LJ          -1.22783        -3.44847        -3.02345
LJ         -0.520303        -4.59341          -2.835
LJ          -5.84093        -1.27926         4.05186
LJ          -1.42452         -3.3036        -4.27425
LJ           -1.9204        -2.44146        -5.57787
LJ        -0.0207455        -4.07731        -3.56936
LJ           6.22924         4.62741         6.22937
LJ          -4.41539         5.74898        -1.95498
LJ         -0.945217        0.143467       -0.884268
