108
#Comment!
LJ          -2.18927        -5.69592         -4.7526
LJ           0.17712         5.45662        -5.00149
LJ          -1.74822        -0.87906         -4.0523
LJ          -3.11662          1.0545        -4.89229
LJ           2.49976         4.66284        -2.31224
LJ          -1.00753        -1.05491         4.29007
LJ           4.66184         5.01061        -1.86889
LJ          -3.24121         2.61069         5.52634
LJ          -1.00507        -4.19664        -4.39631
LJ          -1.08421        -1.00457         5.57834
LJ         -0.872583        -3.62405        -3.48768
LJ           3.44287         5.11066          2.9828
LJ           5.88932         5.83665         3.30207
LJ          -4.89158         3.43298        -6.16625
LJ           -3.4113         4.13205         2.94722
LJ           4.49432        -2.00972        -2.92505
LJ           2.94076        -1.78259         5.26307
LJ           2.15052         6.10202        -5.92804
LJ           5.94637        -1.98028         -2.1089
LJ          -5.56767         1.12277        -3.79162
LJ          -2.10732         -4.0086        -4.71302
LJ           1.41369          5.5771        -4.51874
LJ           2.88799        -5.54473         2.98596
LJ          -2.73222        -4.87641        -3.45596
LJ           -3.2212         1.74118        -2.71277
LJ         -0.736356        -1.86643         -5.3518
LJ          -1.11373        -2.70649        -6.08031
LJ          -1.78011         6.40828        -5.30613
LJ          -2.54091         -2.2974        -3.97606
LJ          -6.17719       -0.105467        -2.11509
LJ          -1.01685        -1.54937        -3.54741
LJ           3.18189        0.104294        -1.20147
LJ         -0.256526        -1.13831         6.29649
LJ           6.26212        -3.55092         4.23842
LJ           4.12011        -3.05909        -3.21161
LJ          -4.88894         2.33178        -6.19908
LJ          -1.62458        -2.80586        -3.66366
LJ           2.84765         3.86435         4.78497
LJ           5.25742        -2.99035        -1.15867
LJ           5.06987        -2.06789        -1.59437
LJ           5.57986        -2.88327         3.70711
LJ          -5.49273        -5.44551         4.21965
LJ           3.59167         5.13162        -2.12963
LJ           5.96966        -1.95413         3.24814
LJ         -0.150995        -5.39567        -5.36016
LJ           1.94093         4.35367         4.78222
LJ         -0.637816         6.38889        -5.47268
LJ          0.743373         3.47843         3.82024
LJ          -4.93299        -4.98396         5.11021
LJ         -0.302539         6.09162         2.42281
LJ          -5.57469        -2.48944         4.91823
LJ           -2.4117        -3.47327        -0.20559
LJ           -5.7137         2.62041        0.728861
LJ          -4.38861         1.64075         -4.2987
LJ          -1.09562        -5.84567        -6.08193
LJ           5.94797         -1.8403       -0.804918
LJ           1.62362        -6.21172        -4.90267
LJ           3.88523        0.484695        -1.85181
LJ          0.776579          1.2461        -3.07263
LJ          -5.51244        -5.91529         5.30574
LJ          -0.49795          1.5693        -1.26769
LJ          -4.36904        -4.94559          3.2826
LJ             0.539        -6.44921        -4.92012
LJ          -5.96193         3.32113         1.64911
LJ             5.824       -0.884377         -1.9256
LJ           1.55191          2.2879        -4.88876
LJ          -2.80193        -1.75824          5.5527
LJ          -1.71755         -1.8387         5.19481
LJ           3.96566        -3.96693       -0.095713
LJ          0.755261        -4.22813         2.11739
LJ           4.90821         6.29176          3.3713
LJ          -5.23528        -3.92297         5.00926
LJ           -2.6733         2.80002        -4.62798
LJ          -4.60165         2.90706        0.894005
LJ           4.86215        -3.93948         3.31722
LJ         -0.394634        -4.70971        -3.68492
LJ          -3.88872         1.79768         6.15319
LJ          -3.53539         2.19905        -4.73791
LJ           -1.2447       -0.394341        -3.06805
LJ           3.82655         3.96278        -1.37072
LJ          -1.97058        -1.40844        -2.83517
LJ          -3.48398        0.955977        -6.18573
LJ           6.01132        0.159656       -0.713159
LJ           3.00981         3.57518        -2.21356
LJ           3.32279        -1.30917       -0.383009
LJ           1.81286        -5.40798         1.88664
LJ          -4.50309         3.41667        -1.49014
LJ          -4.53296         2.73856         5.60936
LJ          -2.72573         2.35584        -6.24986
LJ          -3.01584         1.77341        -3.92557
LJ          -1.17506        -1.82951         6.27752
LJ          -3.80625          2.9368        -5.48177
LJ          -1.06526        -3.36125        -4.94123
LJ          -4.32772        -5.86292         5.24194
LJ         -0.120977         4.33913         4.22782
LJ          -5.65572         2.99395         6.14481
LJ           6.46142        -1.21962        -3.10888
LJ           3.73741         6.38085         3.44257
LJ          0.644825         6.02756        -3.86195
LJ          -1.19053         2.76582         4.04323
LJ          -3.77135         2.36201        -3.65825
LJ         -0.788462     -0.00726862         6.33626
LJ          0.929332         4.83683         3.99185
LJ           5.45994        -1.51192        -3.59608
LJ           0.89309       -0.938288         1.23618
LJ           2.65551         5.91374        -4.93949
LJ          -6.17994         -2.1562        0.379721
LJ           3.91706       -0.917399        -1.14634
