108
#Comment!
LJ           -1.4145        -6.45751        -5.61765
LJ         -0.053568        -6.04346        -3.97683
LJ          -1.88173       -0.701555        -5.31241
LJ          -2.24513          1.3155        -4.28182
LJ           1.33169         5.76135        -3.32882
LJ          -2.57648       -0.913409          5.5582
LJ           4.16721         4.32024        -2.06912
LJ          -2.64526        0.119134         6.00753
LJ          -1.99382        -3.03919        -5.61764
LJ           -2.3019        -1.55181         6.29455
LJ          -1.04587       -0.948909          -3.443
LJ           2.95236        -6.14952          2.4564
LJ           -6.0543        -5.90296         3.61992
LJ          -4.31378         2.90214        -2.14846
LJ          -2.36961        -5.34777        -1.52564
LJ          -5.18474         -0.2889        0.417435
LJ           1.66169        -1.30821        -5.71745
LJ           4.45599         6.41612        -6.13472
LJ           6.35061         -3.4198        -1.74197
LJ           -3.9622         1.98429        -4.84475
LJ          -1.80089        -2.76587        -2.31928
LJ          0.459593          5.3536        -5.46853
LJ           1.53909         5.97028         4.47889
LJ              1.52         5.23395         6.14581
LJ           4.57903         1.81613       -0.562006
LJ           4.52032        0.797955         3.38203
LJ           -2.4682        -3.14413        -4.17049
LJ          -2.25585        -5.24083        -4.21329
LJ          -3.13348        -5.84612        -3.80603
LJ          -5.61457        -1.37165        -1.98671
LJ          -2.69833        -1.30526        -4.46128
LJ           5.67017        -2.50456        -2.94419
LJ          -2.78612        -2.57028          -6.379
LJ          -5.99133        -4.83317         5.01328
LJ           1.15917         1.00962         5.92639
LJ          -2.82367         2.12062         -4.5312
LJ          -1.35382        -2.68562        -3.24146
LJ         0.0432739         4.18917         4.05366
LJ          -6.29916        -2.32431        -1.18772
LJ           5.85299        -1.52583        -1.97663
LJ           4.82965        -6.31731         3.74905
LJ          -5.80558        -3.98856        -6.36261
LJ           2.53514         5.88923        -3.19788
LJ          -5.43919        -4.01897         2.86969
LJ         -0.240828         5.78247        -4.27463
LJ            1.0558         3.74276         3.77218
LJ         -0.444209         -6.4039        -5.03777
LJ           0.60145         3.47901         5.50376
LJ          -4.36813        -4.06086         6.34064
LJ           2.25487         5.63413         2.69221
LJ           6.38932        -1.34456         3.04403
LJ          -6.37376       -0.222936       0.0697846
LJ           6.28194         3.78827        0.444601
LJ          -4.41689         3.56909        -3.48115
LJ         -0.887044        -5.16625        -4.96145
LJ          -6.19549       -0.595118        -3.53388
LJ           1.19579         6.34289        -5.74811
LJ            5.3998        -1.05274        -2.81847
LJ           4.17848       -0.144188        -6.23827
LJ          -4.62274        -5.02763        -6.11384
LJ         -0.424217          1.8942        -2.75579
LJ          -6.10522         6.42418         6.14435
LJ         -0.312408          4.8174         -4.8787
LJ          -5.76023         3.58037         1.85082
LJ           6.25898        -0.38165        -1.96087
LJ           1.68166       -0.804935        -3.43737
LJ          -1.24903        -2.54008         5.82232
LJ          -1.92706       -0.419786        -6.41929
LJ           3.78198        -3.62252         -3.6079
LJ           2.52201        -4.71511       -0.476983
LJ           3.75117         -6.3514         1.70344
LJ          -6.17176        -5.77619        -5.93286
LJ          -4.46788         2.48671        -3.30796
LJ          -5.53657         3.45565        0.715943
LJ           4.56056        -5.38506         2.96803
LJ          -1.29616        -2.10025        -6.10295
LJ          -4.29239       -0.710209        -3.90421
LJ          -1.11753         1.18712        -5.95564
LJ         -0.989138        -1.44788        -5.07674
LJ           4.35021         3.34531        -2.47387
LJ          -1.09507       0.0679416         -5.7538
LJ          -3.79918         2.88753         -4.1265
LJ           2.38058        -3.22082        -5.29262
LJ          0.862589         4.54644        -3.83365
LJ           3.28251       -0.174336        -1.29273
LJ           1.51815        -4.29951        0.809456
LJ            5.8734         6.02573          1.1442
LJ          -3.64076       -0.127626        -4.64424
LJ          -3.01886       -0.944476        -5.98161
LJ          -3.19742         1.00276        -4.88359
LJ          -3.05283        -2.71308        -5.08249
LJ           -3.4071       0.0295225        -5.77766
LJ          -2.22548        -1.63011        -5.67187
LJ          -3.68177        -3.00944        -6.07449
LJ          0.155594         5.84905         5.94737
LJ          -2.90243         2.84489         4.59827
LJ          -4.93989        -1.18994       -0.755918
LJ           4.05452         6.41496         2.75682
LJ          0.745021         5.45726        -4.41632
LJ         -0.167783         4.25974        -5.92379
LJ          -2.39629        0.388615        -5.71705
LJ           1.36044        0.251144        -3.00386
LJ         0.0595323         4.56533         6.04556
LJ           5.31045        0.381121         -1.4155
LJ           1.75218        -0.18366         2.53076
LJ         -0.936536           5.434        -5.45098
LJ           6.37061      -0.0442536       -0.989135
LJ            5.3125        -3.27223        -2.23146
