108
#Comment!
LJ          -2.00687        -4.31543        -5.28504
LJ         -0.757624        -3.65576        -5.79511
LJ          -3.92023         5.68191        -4.71455
LJ           6.07877        -3.75676        -3.09651
LJ          -1.03666        -5.82638        -2.58493
LJ           -1.8279        -2.41365        -3.83309
LJ         -0.976646         6.25969          3.6158
LJ           4.12553        -1.41552         4.88604
LJ           5.49876        -2.23194        -4.60102
LJ           1.66927       -0.449034         2.23204
LJ          -3.60824         3.80761        -5.25342
LJ          -3.61471       -0.228328        -5.11181
LJ          -5.25369         5.24068         3.57082
LJ          -0.96179        -2.91922        -3.60965
LJ         -0.411169        -4.62556         -6.0222
LJ          -1.03629        -5.17635        -3.82231
LJ           2.50906         4.64462         1.76495
LJ           3.04655         6.18527         5.95378
LJ          -2.02597        -5.22749        -4.44275
LJ          -3.51784        -3.65829         -4.9586
LJ          -1.36121         -4.3545        -4.39434
LJ          -5.57769        -2.37982         6.24147
LJ         -0.238523        -5.18361        -4.87988
LJ         0.0797133         3.10539       -0.786899
LJ          -1.51536          3.6481        0.223807
LJ         -0.489608        -2.15609         -2.9235
LJ           -2.4174         6.46163        -4.09521
LJ          -1.14949        -4.18729         5.47185
LJ           3.52025         5.62402        -5.94768
LJ           -2.5129        -6.17203        -2.73431
LJ         -0.171992        -2.41098         2.30756
LJ          -1.99968        -2.65581        -2.02124
LJ          -3.74488        -5.87101         6.18694
LJ         -0.450293        -2.28688        -5.96699
LJ           4.17719        -2.57987        -6.43563
LJ          -2.72302        -1.15139         4.36776
LJ          -2.56616        -5.81326         -5.3515
LJ           3.39494        -5.12122       -0.443274
LJ          -3.39039         -4.5123         -3.8892
LJ          -2.51991        -2.65346        -6.45428
LJ          -1.65136         -1.6318        -2.84842
LJ          -3.00914        -4.68674        -5.04373
LJ          -4.12911        -5.32102         3.91564
LJ           5.66332        -6.33183         6.20204
LJ          -2.73335        -5.19118        -3.21931
LJ           5.67682         2.76965         6.04644
LJ          -2.52731        -3.23297        -4.36105
LJ          -1.78905        -3.30265         5.76457
LJ           2.92347         1.57881         3.86868
LJ           1.97337        -2.08766         3.25107
LJ           1.41697        -1.41273         1.13009
LJ          -4.10646        -3.39106        -4.17067
LJ         -0.628747       -0.971679        -2.38877
LJ          -3.59625         4.28671        -1.37825
LJ          -2.50766        -4.98423        -6.14446
LJ           2.80993         5.02416       -0.758094
LJ           2.18643         2.04874       -0.136894
LJ          -1.40935        -5.21088         -1.4781
LJ         -0.390425         3.76584        0.127413
LJ          -4.94191       -0.689404       -0.112102
LJ         -0.247899         0.92666         5.29083
LJ          -4.60334       -0.695357        -4.50158
LJ          -1.50419        -4.30752         6.46183
LJ          0.443048         2.73072        -5.60288
LJ           1.91591           2.625         -4.6936
LJ          0.956233        -4.61397          5.5234
LJ          0.257108         4.18208        -5.36676
LJ           6.41294        -2.91435         3.45669
LJ            -1.742        -3.21978        -5.88438
LJ          -3.12167        -5.58306        -4.37833
LJ          -4.07254      -0.0556816        -3.84253
LJ           4.92936        -2.33179        -5.77122
LJ            1.1068        -2.55299         -5.2591
LJ          -2.26198       -0.829956         -2.0521
LJ          -2.42558         -1.7684        -1.43148
LJ           2.16506        -1.23009         -6.4618
LJ          -2.83756        -3.07569        -5.51476
LJ           3.68596        -2.71124         5.47952
LJ         -0.127412        -1.24168        -3.40689
LJ           -2.6591        -3.67727        -6.32847
LJ           5.69403        -2.35093         6.36958
LJ         -0.390381         4.07346        -1.13704
LJ          -1.62566        -4.46865        -2.71825
LJ          -4.77544         5.92956         -6.2306
LJ           2.92287         6.37896         4.63069
LJ           2.69142         6.27534        -6.02452
LJ         -0.273588        -1.80823        -4.91956
LJ          -2.75871        -5.11394         5.79255
LJ          0.527816        -4.40995        -4.38091
LJ          0.613534        -4.40379         -6.1536
LJ            1.7402        -6.15082         5.61549
LJ           4.78508        0.206158        -5.99713
LJ           3.69196        0.972838         2.90286
LJ           -1.3375        -2.22868        -4.73687
LJ          -2.53125        -6.36509        -6.38825
LJ          -1.09396        -2.05091        -1.86635
LJ         -0.228999        -4.91855         5.59548
LJ          0.178754         -3.2025        -5.42269
LJ          -0.95928         -5.4183        -6.31795
LJ          -1.85181        -3.59747        -3.58948
LJ         -0.689249        -3.97795        -3.64375
LJ           3.24516       -0.520614         5.04063
LJ          -1.28911         -3.2428        -4.54997
LJ         0.0844578         -3.9063         5.90394
LJ         -0.435567        -4.04942        -4.72144
LJ          -3.49276        -5.57246         -2.6043
LJ          -2.20907        -5.25015        -2.30523
LJ          -1.29127        -1.29142        -1.07632
