108
#Comment!
LJ          -1.31351          6.1844         -6.4241
LJ          -1.53714         5.14274        -5.06939
LJ          -3.84301        -0.87676        -1.86659
LJ          -3.26136         4.73548        -4.51721
LJ           4.19142         3.87585        -2.56678
LJ          -3.49725       -0.143675         5.87078
LJ            5.9136         4.46103        0.728131
LJ            -2.903         1.68336         6.16485
LJ         -0.248478        -5.35941        -5.26844
LJ           0.74188        -1.29519          5.8586
LJ         -0.735073        -3.05328        -4.28006
LJ           3.49841        -6.18547         3.81332
LJ           -4.8792         5.39199         3.80686
LJ          -6.44308         4.27125         5.98359
LJ          -5.32298         2.04957         -5.3481
LJ            3.9663       -0.508296        -1.54819
LJ            3.5711        -1.92841         4.36913
LJ            2.4858         -5.3438        -3.86928
LJ           5.26601        -1.59549        0.199819
LJ          -3.18929        0.323335        -3.99202
LJ         -0.526579        -3.07692        -2.98962
LJ           1.22572         6.28066        -5.05408
LJ           1.19646        -6.43981         1.57474
LJ          -2.24819        -1.46023        -2.82867
LJ           1.60843         3.26072       -0.729677
LJ         0.0827012        -2.61125          4.0824
LJ          0.476639        -1.92867         4.87425
LJ          -2.22743         4.27223        -4.12964
LJ         -0.737643        -2.40356         -2.0489
LJ           6.34816         -1.7749      -0.0131934
LJ          -2.17354       -0.641644        -2.05176
LJ           4.58876       -0.710014        0.547932
LJ          0.627803        -2.94839         5.18062
LJ          -4.17639        -3.77565         5.53884
LJ           4.29136        -2.43839        -3.39962
LJ           5.38764         3.96188         5.80905
LJ          -1.60481        -2.37987        -2.86706
LJ           3.20691         2.60603          4.8922
LJ           5.25534        0.728214        0.650548
LJ           5.27946        -2.81676        -2.40783
LJ           6.11409       -0.936164          5.2238
LJ           5.24874        -5.53321         4.00156
LJ           2.64006         3.59323        -1.14157
LJ           4.85956        -1.45343         4.17799
LJ          0.559789         6.13039        -4.21277
LJ           2.27129         3.32636         4.68608
LJ         -0.174956        -5.89993        -6.15116
LJ           3.09432         3.96874         2.15096
LJ          -6.14425         5.80452        0.900546
LJ          -1.60651        -6.28885         1.56142
LJ          -5.47934         -2.7982          5.4558
LJ           1.24902         5.96224        -3.00312
LJ          -4.68173         1.99574        0.915367
LJ          -3.53969        -1.46454        -3.16928
LJ          0.308899        -4.86872        -6.34055
LJ           5.79513       -0.878845         1.37651
LJ          0.458502         6.36645         6.09839
LJ            3.8506      0.00186462        -2.83528
LJ           1.72865         3.03982        -1.81501
LJ           5.42288        -6.23806         2.45514
LJ           0.22307         1.08134         -1.3791
LJ           1.54252        -2.56972        -1.62946
LJ          0.173058        -6.37372        -5.03735
LJ          -5.47226         2.83225         0.70684
LJ           2.84056        -1.59748         0.77754
LJ          0.361105          5.4887        -2.76056
LJ          -4.23858        -2.40882        -3.84853
LJ          -3.34011       -0.541541          4.3818
LJ          -4.91552        -2.15996         1.39878
LJ           3.41987         6.10808         2.84057
LJ           3.95286        -5.33722          5.0163
LJ          -5.70478         -3.6366         4.77584
LJ          -4.38446        0.971934        -5.84602
LJ          -3.95101         2.91558        0.951372
LJ           5.35487        -2.66351        0.605799
LJ           -3.2456        -3.56402          0.2471
LJ          -2.28477         3.65078         5.37473
LJ          -2.69793        0.911501         4.14676
LJ          -3.31015         1.13332        -3.20441
LJ           3.05301         4.34271        -2.61987
LJ          -1.70366         -1.2312        -3.79981
LJ          -2.01844           1.886         4.17304
LJ           3.69276        -3.69068         1.37303
LJ           3.55047         4.06278        -1.67729
LJ            4.9163        -1.30252        -1.36956
LJ          0.657825        -4.71438        -5.12788
LJ           6.28376        0.598344        -2.50165
LJ          -6.21614         3.39492        -6.45854
LJ          -1.27533         1.16635         3.87351
LJ          -5.62682         1.17315        -4.71307
LJ          0.575104       -0.160443         6.00217
LJ          -3.24413         2.87442        -4.29549
LJ          0.699558        -5.52108        -4.41488
LJ           6.18282         5.91938         1.85793
LJ          -0.15779          5.5321         3.26653
LJ           6.39925         3.73608         5.04868
LJ           3.33912       -0.819937        -2.34616
LJ           2.98031        -5.74286         4.57053
LJ          0.468972         5.63527        -5.71128
LJ         -0.580489         2.05414         2.56743
LJ          -3.42132        0.395384        -6.10037
LJ          -1.95367        0.274979         3.64501
LJ          0.521866         4.64286         3.78056
LJ           3.18226        -1.74608        -1.87573
LJ         -0.153085        -2.14254       -0.652886
LJ           1.71111         5.71401           6.126
LJ           6.09303        -1.99902        0.997185
LJ           2.64672       -0.545416        -1.68211
