108
#Comment!
LJ          -1.39063        -5.02787         -5.5825
LJ          0.223638         5.34714        -4.56677
LJ          -1.57726       -0.819629        -4.67796
LJ          -2.98653        0.443614        -4.56505
LJ           3.05645         4.77557        -2.54734
LJ          -2.26539         -2.0606         4.79405
LJ           4.01418         4.65328        -2.75012
LJ          -3.22599         1.79118        -6.03422
LJ          -1.34032        -4.10891        -4.43164
LJ          -2.02967         -1.2154         5.89229
LJ         -0.600737        -2.66836        -3.93044
LJ           3.53023         5.23379         2.42093
LJ           6.41232         6.39946         3.32853
LJ          -4.38398         4.08622        -4.93311
LJ          -2.99121         5.46328         1.25231
LJ           5.75193        -2.50964        -1.29485
LJ           2.54035        -1.83687         5.66616
LJ           1.27458        -6.28373        -5.88746
LJ           6.39138        -2.60136        -2.23431
LJ          -5.02804         2.31516        -5.32806
LJ          -2.71701        -2.97419        -4.32982
LJ           1.50098         5.49871        -4.31908
LJ           2.90141        -5.96601         4.10025
LJ           -2.5406         5.94412        -4.37143
LJ          -4.67346         1.82815        -3.21169
LJ           0.76743        0.242386        -6.16041
LJ          -2.06824        -2.90238        -5.65878
LJ          -1.61995        -6.14146        -4.34403
LJ          -3.08706        -3.69626        -3.59681
LJ          -5.55013       -0.463704        -1.74652
LJ          -1.50219        -2.23814        -3.80113
LJ           3.36322       -0.726103        -1.74751
LJ         -0.866293        -1.32172          6.1403
LJ           6.32723        -4.60705         3.72299
LJ           2.71717          -2.003        -4.81236
LJ          -3.61953          1.5309        -5.03792
LJ          -1.77764        -3.19718        -3.92029
LJ           2.04646         4.48733          4.4848
LJ          -6.42243        -3.30607        -1.29956
LJ           5.17053        -1.66477        -1.86387
LJ           5.42341         -3.9669         3.51075
LJ          -5.79031        -4.84613          6.3402
LJ           3.32665         5.44637        -1.75471
LJ          -6.15502        -2.33913         2.97406
LJ         -0.469571        -6.25986        -5.63355
LJ           1.50389          3.5559         4.16995
LJ         0.0593645        -6.16776        -4.53851
LJ          0.691924         3.13801         4.81041
LJ          -3.71293        -4.52108         5.45961
LJ          0.533769         5.77165         2.89844
LJ            -5.918        -1.93706         4.15188
LJ          -3.96047        -2.26885        0.172574
LJ          -6.23928         2.87737        0.631993
LJ          -4.78562         2.49274        -4.21649
LJ          -0.55176        -5.31388        -6.20105
LJ          -6.19256        -1.56763         -2.1761
LJ           1.80037         -6.3035        -4.90088
LJ           4.60044       -0.432156        -2.15122
LJ           0.52792        0.488895        -4.14635
LJ          -4.77421        -5.04917         5.49292
LJ         -0.472053         1.74908          -1.741
LJ          -4.82139        -5.41577         4.45912
LJ          0.487954         5.73054        -5.53057
LJ          -5.76408         3.37611         1.71438
LJ           5.55069       -0.477961        -1.32407
LJ           1.81599         1.36829        -5.31109
LJ          -2.40298        -1.41732         3.61678
LJ          -1.54754        -2.05285        -6.20857
LJ           3.67642        -4.14165         -1.4393
LJ            1.1867        -4.72839         2.00672
LJ           4.33128        -6.25941         2.88218
LJ          -5.85076        -5.39777         5.16777
LJ          -3.69839         3.21535        -4.77323
LJ          -4.91693         3.10102         1.00591
LJ            4.0625        -4.08909         3.65663
LJ          0.307602        -3.69825        -4.26178
LJ          -3.36382         1.14104          6.2031
LJ          -2.94631         2.46197        -5.08961
LJ         -0.710626        -0.97675        -3.61467
LJ           3.29584         4.15032        -1.77536
LJ           -1.4827       -0.432609        -2.93127
LJ          -5.03989        0.761983        -4.84236
LJ           4.80404       -0.103048        -3.42099
LJ            2.6904         3.54116        -2.48602
LJ           2.86505       -0.811862       -0.239034
LJ            1.8422        -4.57689        0.525988
LJ          -5.45814         4.63876       -0.656747
LJ          -4.77017         1.35842        -5.76971
LJ          -3.10191        0.344178        -5.97238
LJ          -2.22996         1.39109        -4.83029
LJ          -1.55459        -1.93168        -5.06515
LJ          -3.91701          2.6526        -5.66382
LJ          -1.23157         -2.9218        -4.88192
LJ          -4.63825        -5.30728        -6.39392
LJ          0.348328         4.47917         4.89347
LJ          -4.91114         2.92684        -6.14495
LJ          -4.89496        -1.34482         -2.1039
LJ           3.07661          6.3268         2.50558
LJ          0.749155          6.1807        -3.83598
LJ          -0.81144         3.48102         4.85523
LJ          -2.20339         2.62597        -4.39798
LJ           1.52565        0.206732        -4.96135
LJ         -0.166482         5.25468         4.25438
LJ           5.74815       -0.349973        -2.47091
LJ           1.19263       -0.644314         1.75686
LJ           1.91968         5.50061        -5.45434
LJ           5.60565       -0.992301       -0.408288
LJ           4.01103        -1.78027          -1.871
