108
#Comment!
LJ          -1.10291         6.28552        -5.50277
LJ          -1.14115         5.23512        -5.14387
LJ          -3.46477       -0.848416        -2.13733
LJ          -3.16069         4.56752        -4.67159
LJ           3.94517         3.88176        -2.44579
LJ          -3.36106      -0.0597776          5.8321
LJ           5.91977         4.75794        0.752346
LJ           -2.4526         2.47345          6.3908
LJ        -0.0369035        -4.76426        -5.56575
LJ          0.282968        -1.22456         5.68819
LJ         -0.710267        -3.49218         -4.3104
LJ            3.9071        -6.04522         3.70455
LJ          -4.99098         5.34774         3.83358
LJ          -6.25178         4.23645         5.89075
LJ          -4.88631         1.93017         -6.0899
LJ           4.23071        -0.88426        -1.92991
LJ           3.65519        -1.84249         4.38784
LJ           1.96497        -5.57453        -4.06337
LJ           5.18192        -1.79647       -0.553525
LJ          -3.81935        0.504344        -3.49688
LJ         -0.374387        -3.07731        -2.90072
LJ           1.37154         6.06746        -4.72316
LJ           1.16577          6.4254         1.68862
LJ           -2.4507        -1.76762        -2.73481
LJ           1.58124         2.73917         -1.0666
LJ         -0.432231         -2.6935         4.97562
LJ          0.437272        -1.97339         4.69535
LJ          -2.09899         4.40895        -4.31391
LJ         -0.972217        -2.11482        -2.35681
LJ          -6.40268        -1.10015       -0.156534
LJ          -2.36649       -0.700855        -2.42294
LJ           4.21419       -0.366302         0.41144
LJ          0.828579         -2.8404         5.25892
LJ          -4.58697        -3.55558         5.42153
LJ           4.00024        -2.22976        -3.00052
LJ           5.64399         3.62738         5.87681
LJ           -1.5642        -2.68302        -3.13642
LJ           3.35578         2.60808         4.92993
LJ           5.15364        0.269286        0.498344
LJ           5.16999        -2.51768        -2.13658
LJ           5.94819        -1.13985         5.00965
LJ            5.1077        -5.76194         3.88953
LJ            2.6278         3.61034        -1.42974
LJ           4.78044        -1.49065         4.19372
LJ          0.921684         6.18702        -3.69531
LJ           2.05472         3.55754           4.668
LJ         -0.336577        -6.31674        -6.34418
LJ           2.93861         4.52512         2.41793
LJ           -5.7267         6.29449         1.63152
LJ          -1.52633        -6.32903         1.62316
LJ          -5.31318        -2.73323         5.51767
LJ           1.14603        -6.43782        -2.42433
LJ          -4.78272         1.89455        0.909338
LJ          -3.86358         -1.0832        -3.19817
LJ         0.0422474         -5.2306         6.22006
LJ           5.10356        -1.06266        0.624187
LJ          0.667545         -5.9828         5.86248
LJ           3.86045        0.176832        -2.06552
LJ            0.4674         2.63822        -1.60343
LJ           5.51159        -6.16683         2.46293
LJ         0.0101576         1.27752        -1.37998
LJ          0.716875        -2.86981       -0.846022
LJ        -0.0767151         -6.2519        -5.23793
LJ          -5.41946         2.98324        0.851085
LJ           3.58219        -1.32503        0.085064
LJ          0.372236         4.69197        -2.95333
LJ          -4.06078        -2.16669        -3.75499
LJ          -3.42933       -0.357511         4.47982
LJ          -5.28963        -2.44055          1.5582
LJ           3.09802         5.73569         2.64422
LJ           4.07328        -5.50289         4.65358
LJ           -5.5501         -3.7676         4.77512
LJ          -4.20122         1.21752         -5.5814
LJ          -4.15991         2.97449        0.909167
LJ           5.12815        -2.63977         1.24304
LJ          -2.95011        -3.78837       -0.204898
LJ          -2.17142          3.3867         5.29965
LJ          -2.88373         1.12236         4.50857
LJ          -3.23645         1.05385        -2.78845
LJ           3.37467         4.90392         -2.9027
LJ          -1.50546        -1.60514         -3.9686
LJ          -2.14977         2.02884         4.23124
LJ             4.186        -3.70236           1.085
LJ           3.96673         4.00105        -1.35918
LJ           4.55384        -1.74922        -1.36163
LJ           1.24165          -5.209        -5.85305
LJ           -6.0398        0.921451        -2.45422
LJ          -6.10518          3.2166        -6.03888
LJ          -1.15109          1.4169         4.07454
LJ          -5.28871        0.935785        -4.70275
LJ          0.789448       -0.203343         6.26431
LJ          -3.47889          2.8198        -4.36442
LJ          0.785117        -5.59202        -4.62971
LJ           6.16473         5.69041         2.04197
LJ        -0.0853083         5.54448         3.23497
LJ           6.14858         4.00613          4.8679
LJ           3.68428        -1.15937        -2.91304
LJ           3.06529        -5.69557         4.69888
LJ          0.266445         5.79028        -5.69345
LJ         -0.692467         2.06748          2.7209
LJ          -3.80932         0.11224        -6.09979
LJ          -2.10345        -0.20503          3.5064
LJ          0.588449         4.62474         3.86589
LJ           3.73456        -1.88808        -1.98266
LJ          0.082282        -1.99355       -0.351005
LJ            1.0157         6.23962        -6.30287
LJ          -6.42496         -1.9889        0.991229
LJ           3.08662       -0.559961        -2.04861
