108
#Comment!
LJ          -3.29865        -5.08164        -5.42185
LJ          -3.22899        -4.15089        -6.05974
LJ          -6.13314       -0.469913       -0.109998
LJ           -3.8622        -4.19721        -4.11836
LJ          -2.87232        -4.82419        -3.21081
LJ          -2.84796        -3.55175        -4.18138
LJ         -0.728241          1.5706         4.29335
LJ          -3.52361        -2.33868         4.99353
LJ          -4.68428         -2.9707          -5.033
LJ           2.28498        -2.51198        -2.31382
LJ           -4.1777         6.12397         6.20749
LJ          0.342168         3.31102        -1.60604
LJ           4.75204         6.13552         1.18954
LJ           -2.0895        -4.17651        -4.72702
LJ          -2.56923        -5.27151        -6.40198
LJ          -3.37728        -5.62552        -1.75255
LJ          -3.51147          -3.417        -5.04264
LJ         0.0992871         5.45366         2.64579
LJ          -4.01699        -4.98266          -3.287
LJ         -0.967182        -4.81634         5.54896
LJ          -1.84828         -5.3457         -5.1664
LJ           6.28641        -1.99716        -5.63635
LJ          -0.99293        -5.92336        -4.32657
LJ           4.84353         6.09221         2.51026
LJ           -0.7514        -4.83329           2.658
LJ          0.489737         2.01744       -0.386389
LJ          -3.62936        -3.35216         5.44718
LJ           -1.9233        -3.32606         6.16936
LJ          -0.88873         5.26116         2.12803
LJ           2.04866        0.174013         2.66764
LJ          0.431548        -5.20731          6.0066
LJ          0.476955        -5.44161         1.37878
LJ          -1.95307        -3.39967        -1.96287
LJ          -3.65489         -1.6665         -5.4804
LJ           2.42002         1.17517         2.62649
LJ          -1.75026         3.22678        -3.07036
LJ          -4.11082        -4.28548         6.08203
LJ           6.40367          6.2689        -3.38495
LJ          -3.53101        -1.73348         6.23252
LJ          -2.72669        -3.85438         5.89465
LJ         -0.356384         3.35291        -2.45325
LJ          -3.08474        -5.90667         -4.7232
LJ          -4.35107        -6.32315        -3.52719
LJ          -3.58124        -2.23561         3.39818
LJ          -4.11193        -5.40333        -4.57188
LJ           6.14196         2.23811        -2.97334
LJ          -4.29856        -2.40467        -6.29466
LJ         -0.472441        -3.47587         5.81941
LJ           4.54524        -2.17232        -3.90413
LJ         -0.815114        -2.19393        0.864294
LJ            3.0339         5.08358        -4.75365
LJ          -4.34872        -5.17011        -2.08721
LJ         -0.775334         3.32282        -1.36303
LJ          -3.72763      -0.0433889        -5.05862
LJ          -3.35905         6.45332        -6.14889
LJ          -4.71676        -5.72923         5.94722
LJ          -6.10622          4.0027        -2.57008
LJ           -5.4651        -5.38328        -2.46365
LJ           3.91014        -5.78843        -1.92225
LJ          -2.23413        -5.51308        -4.00403
LJ          -1.59779         6.22136         1.99105
LJ           1.81397         2.97231        -1.93412
LJ          -3.14401        -5.98792         -3.5924
LJ           1.25896         4.18774        -1.38273
LJ           1.77231       -0.820225          2.0365
LJ          -1.26888         -4.7602       -0.791892
LJ           5.41978        -6.09682         1.51179
LJ           4.67537        -3.88197       0.0934852
LJ          -1.60642        -4.38707          6.3709
LJ          -4.32986         6.32752        -5.38394
LJ           0.28416         3.07076        -4.24978
LJ           6.23614         6.34529         2.84182
LJ          -2.01316        -4.41133        -3.71578
LJ         -0.886144        0.737607        -1.76613
LJ           2.56593         1.59156        -3.22257
LJ           -2.2029        -4.40276        -5.77084
LJ          -3.24983        -2.75091        -5.78758
LJ          -3.89707        0.782143         5.44735
LJ          -5.83592         5.16147       -0.997035
LJ           -4.1192        -5.69272        -5.85211
LJ           1.26488        -5.35249        -2.22814
LJ            3.9211          -4.707        -2.31704
LJ           -3.9716        -3.71981        -2.65511
LJ            -3.854        -6.27684         5.23429
LJ          0.349675        -6.33387         -5.9417
LJ           1.80444        -3.54434         3.30823
LJ           1.23933         2.46997        -1.02044
LJ          -2.43179        -2.67175         5.10837
LJ         -0.579269         -3.6265        -5.28646
LJ          -1.62443        -3.15215        -5.00515
LJ           1.10872         5.80773         2.96415
LJ            1.2354        -1.80639       -0.999863
LJ            5.8069        -3.38889         1.53349
LJ          -4.28175        -4.56849        -5.14686
LJ          -2.18768        -4.62025         5.38721
LJ         -0.234846        -5.14661       -0.171266
LJ          -0.76769        -2.15116         5.76752
LJ          -1.71347        -2.31464        -6.19274
LJ           -3.3726        -5.44026         5.69019
LJ      -0.000523948        -6.43656        0.136163
LJ          -2.92579        -4.67006         -4.3307
LJ          -3.00038        -2.76061         6.13007
LJ          -1.27207        -4.80176        -4.25992
LJ          -2.14984        -2.12992        -5.18982
LJ          -2.04994         -4.7292        -1.70202
LJ          -5.53471        -0.98502         4.03965
LJ          -4.76272         0.21572       -0.238512
LJ           0.25009         0.43135        -1.69232
