108
#Comment!
LJ          -2.28659        -6.08392        -6.20235
LJ          -2.36302        -3.39576         6.35598
LJ          -2.30081        -2.55747        -3.51051
LJ          -2.35804        -2.26599        -2.23271
LJ          -1.45265        -2.34673        -2.64632
LJ          -4.43631        -1.96259        -5.51284
LJ           4.23571          3.3006        -2.40729
LJ          -6.35826        -4.04772         -5.9942
LJ          -2.92737         -3.3572         5.41317
LJ          -4.24561         -1.0004        -3.43492
LJ         -0.900652         6.30545         5.80924
LJ           1.76677         -5.9055         -1.0353
LJ           4.88979         6.18238         1.18936
LJ          -2.12364        -1.11635        -1.99103
LJ          -3.53997         -5.2934        -6.25121
LJ           4.97776         2.67868         -2.6019
LJ          -1.96303        -1.63611        -3.27008
LJ          -3.75934         1.85689        -4.50689
LJ          -3.52496        -1.59616        -2.67552
LJ           3.83294       -0.710269        -3.73086
LJ          -3.48673        -3.02328        -4.03304
LJ          -1.36949         5.00979        -3.18222
LJ          -2.54817         4.58127         3.92453
LJ           4.02234        -5.75298         0.85631
LJ            -3.048         1.73559        -5.38318
LJ           3.76347         1.75158        -1.21307
LJ          -2.92109        -3.04403        -5.03758
LJ         -0.558708         6.33209         -5.5259
LJ         -0.200218         5.36172         -4.2463
LJ          -5.00056        -1.99232        -3.46799
LJ          -4.10062        -2.92955        -5.41106
LJ           -4.6599        -3.78725        -2.58268
LJ          -1.56724       -0.488838         -3.0817
LJ          -1.24209         -3.0768        -6.31595
LJ          -2.54718         6.08792        -5.50218
LJ           6.42058         4.58174         1.97002
LJ          -2.40939        -1.02823        -4.13876
LJ          -1.49613         5.74237         4.51351
LJ          -3.66195       -0.940926        -4.40572
LJ          -2.21463         2.19351       -0.412008
LJ           5.56885        -5.85373        0.836277
LJ          -5.38199         -3.1786         6.38183
LJ           1.60766       -0.812153        -0.27725
LJ          -4.45229         3.19271         3.30088
LJ          -1.43248         5.41004         5.98973
LJ           4.48957         1.47932         1.53004
LJ          -1.12715        -5.88594        -6.34488
LJ         -0.998296        -6.36078         3.45659
LJ          -3.34143         0.87553        -4.67396
LJ           2.61913       -0.226282         4.27007
LJ           4.14908        0.715052       -0.894999
LJ           4.58591         3.49827        -3.40846
LJ            4.8249         5.42766        0.548417
LJ          -4.51033       -0.935618        -2.47831
LJ          -3.69437        -3.87507        -5.84361
LJ          -4.68996        -3.06439        -3.38913
LJ          0.565494        -4.85772          3.9971
LJ          -2.85618       -0.774817        -4.98486
LJ          -3.72319         3.23206     -0.00889564
LJ                -4        -3.24836         5.63173
LJ          0.105525        -5.93412        -6.29116
LJ           3.23246         6.19573      -0.0377732
LJ          -1.59186        -6.14639         -5.2257
LJ           4.87889         4.38402         1.05451
LJ           5.52722       -0.965729         6.09719
LJ          0.864632        -5.15527        -1.31404
LJ          -3.65683         4.01049       -0.752109
LJ            4.3653         3.76247         3.50373
LJ          -2.39202        -1.87064        -4.95394
LJ           4.15797        -2.94945        -4.05645
LJ            1.7304        -6.12954         1.30536
LJ          -4.97346         -4.9862         3.35566
LJ              2.58        -0.59332        -3.20857
LJ           4.13889        -3.54311       -0.945706
LJ           3.57335        -6.25073         1.72931
LJ          -3.36149        -2.11859        -5.22851
LJ          -3.90841        -2.33706        -3.45423
LJ          -1.19548        -5.11906        -1.31563
LJ          -3.31086        -3.90018         6.09792
LJ           5.06301         3.89595        -2.49396
LJ          -4.10741       0.0568417        -4.17802
LJ          -1.18752        -1.39738        -2.48411
LJ           5.88518         6.41999        -1.92121
LJ           -1.9354        -6.42101         5.74636
LJ          -3.22655         3.44322         -4.5392
LJ           1.74878         5.77955         2.03652
LJ           5.30262        -5.97925       -0.379154
LJ         -0.976778        -5.36674        -4.83114
LJ           -3.0262        0.236275         -3.9959
LJ           -1.8607       -0.140833        -2.11921
LJ          0.118287        -2.97125        -1.04819
LJ          0.747455        -1.45361        -3.61554
LJ          -4.25692        -2.53742        -2.57188
LJ           6.15951        -1.55206        -5.76504
LJ          -1.71768         6.03144        -4.47658
LJ          0.873064         4.46781        -3.00742
LJ          -3.10372        -1.84655        -3.92236
LJ           -3.4483        -2.88972        -6.32334
LJ          -1.27327         5.06255        -4.97688
LJ          -2.22345        -4.97532        -5.72468
LJ          -3.16964        -1.03873        -6.09869
LJ          -2.92281        -4.17035        -5.21808
LJ         -0.291361         5.32065        -5.73262
LJ           3.40366         0.66132         4.60358
LJ           2.33615         1.29255        -3.96746
LJ          -1.43973         5.89501        -5.85747
LJ          -6.31538        -3.08688        -5.47236
LJ           -1.5554       -0.378106         2.81123
