108
#Comment!
LJ          -2.71031        -5.13731        -4.54746
LJ          -1.69222        -4.66195         5.61067
LJ          0.036649        -2.48672        -3.54464
LJ          -2.71127        -2.81499        -3.53458
LJ          -3.48455        -3.03978        -2.57618
LJ          -4.26931         -3.5857        -3.13596
LJ         -0.863033         2.57076        -4.84298
LJ           -6.3963        -2.24063         5.28204
LJ          -4.65574        -4.91286         5.99357
LJ          -2.29997        -1.53219         6.42599
LJ          -4.04077        -5.95125         6.43083
LJ           2.52198         6.25404       -0.475177
LJ           3.92715         5.29384        0.801796
LJ          -2.90966        -1.90789        -2.39725
LJ          -1.13897        -3.27068         4.97682
LJ          -6.31399         4.80607        -3.97707
LJ          -4.04055        -1.61634        -4.93546
LJ          -2.53429         3.31643        -2.17021
LJ          -3.17201        -1.63551        -3.88051
LJ          -4.35164         -5.5426        -4.48751
LJ          -2.26196        -3.90832        -5.59801
LJ          -3.11415         5.15594        -5.43755
LJ           -2.8989        -6.01482        -6.10744
LJ           4.83909         4.39902        0.830279
LJ          -2.26173         4.46327        -2.34619
LJ          0.877421        0.616954       -0.344721
LJ         -0.902965        -3.26962        -5.06097
LJ          -1.50968        -5.08649        -6.13167
LJ          -1.06749         4.48228         4.44938
LJ          -1.40223        -3.35253        -1.43313
LJ          -2.60925        -4.00165        -4.36039
LJ          -4.02463         6.42701        0.791029
LJ          -3.26302       -0.834666        -4.74422
LJ          -3.23396        -3.40832        -6.45169
LJ          -3.46977        -5.37628        -3.45404
LJ           3.47716        -4.14537          5.0371
LJ           1.14477        -1.83513        -4.45995
LJ          -3.59067        -5.47747        -5.55228
LJ          -1.58464        -2.65424        -6.36292
LJ          -2.21262        -5.15941         3.55778
LJ           3.18067         5.50599         -1.8847
LJ          -4.72157         -6.0903        -5.66496
LJ           2.81205        -5.36379        -1.24583
LJ          -4.07275         1.33362         3.29109
LJ          -1.99273         5.69454        -5.17491
LJ           5.29314         1.69736      -0.0324612
LJ          -2.49568        -4.40188         6.36157
LJ         -0.626629         -2.4687         2.62706
LJ          -4.44479       -0.714582        -4.56323
LJ           5.83778       -0.910521        -2.54916
LJ           3.25168        -1.90378         2.09466
LJ            5.4752         5.25658        -3.61318
LJ           3.87326         4.49713        -1.07902
LJ            -3.858       -0.559466        -2.64126
LJ          -3.79625        -4.69483        -6.21268
LJ           5.46619        -2.96841         5.88742
LJ          -2.31451        -3.12457         1.90794
LJ          -1.55903        -1.44294        -5.44163
LJ           5.45605         6.12857         1.76462
LJ          -4.84563        -4.50951        -5.87258
LJ          -3.12977         6.46038         5.88454
LJ           1.44934         5.19493        -1.89316
LJ          -2.32523        -4.86737        -5.50505
LJ           5.16807         5.76495        0.766168
LJ           6.36451        -3.18775        -5.76849
LJ           1.17933         5.24029        -5.16153
LJ          -6.28644         5.17747        0.687429
LJ            2.1777         6.26158         6.14157
LJ          -2.17918        -3.19599        -2.55868
LJ           5.71759      -0.0834615        -5.58893
LJ           1.63279         6.39075         4.99455
LJ          -5.85094        -2.50812         6.26215
LJ          -3.45615        -4.60362        -2.68204
LJ            2.9204         3.93385        -1.68393
LJ           2.87981         5.33855        0.151263
LJ          -3.24408        -3.29856        -5.13601
LJ          -3.10403        -2.34479        -4.61598
LJ         -0.753817           5.647        0.688414
LJ          -3.39109        -4.42849        -5.24148
LJ           5.92738         4.43062        -3.12355
LJ          -1.01287        0.230745        -5.52732
LJ          -2.08641        -1.45026        -3.79532
LJ           3.72106        -5.89567        -1.93665
LJ         -0.438698        -4.22657        -6.23647
LJ          -1.82638        -3.54332        -3.78399
LJ         -0.360296         5.67943         3.76368
LJ           4.94375         5.46846       -0.544093
LJ          0.198512        -5.82582          6.0786
LJ          -4.08026        -1.28669        -3.45342
LJ          -2.58824       -0.554204        -1.95982
LJ            1.5054        -6.05892       -0.741368
LJ           1.29285       -0.584259        -1.41418
LJ          -4.91564       -0.491414        -3.19709
LJ          -6.09467        -3.69925         6.42377
LJ          -1.44861        -4.85712        -5.08352
LJ           1.79374         6.20229        -5.23124
LJ          -1.94327        -2.46784        -4.92735
LJ          -2.59652        -2.53001        -5.65058
LJ         -0.944324        -5.97719         6.10499
LJ          -1.52094        -5.14644          4.6078
LJ          -3.55285        -3.40551        -4.10082
LJ          -1.54027         -4.0349        -6.35985
LJ          -2.11376        -6.22747          6.1864
LJ           5.92347        -3.12584         4.83621
LJ           1.41312        0.432541        -1.27086
LJ          -1.73744          5.5974         5.80458
LJ          -4.38085        -3.64262        -6.38975
LJ       -0.00575407         2.18995        -0.34486
