108
#Comment!
LJ          -1.29383         6.18292          6.4547
LJ          -1.55585         5.15561        -5.08092
LJ          -3.84669       -0.888117        -1.87975
LJ          -3.23102         4.73288        -4.49658
LJ           4.19232         3.87857        -2.56216
LJ          -3.50695       -0.149295         5.87469
LJ           5.91902         4.45009        0.732405
LJ          -2.93986         1.62068         6.14768
LJ         -0.259983        -5.37528        -5.22308
LJ          0.774054        -1.32935         5.85263
LJ         -0.740348        -3.02276        -4.27727
LJ           3.51928        -6.20776         3.79202
LJ          -4.87235         5.39481         3.80489
LJ           6.45928         4.31504         5.97804
LJ          -5.34459         2.02918        -5.28628
LJ           3.96325       -0.503439        -1.52924
LJ           3.58077        -1.92862         4.36544
LJ            2.5058        -5.33495        -3.86262
LJ           5.29478        -1.56167        0.253668
LJ           -3.1406        0.328407        -4.00047
LJ         -0.502759        -3.10053        -2.99842
LJ           1.19956         6.27327        -5.11456
LJ           1.19851        -6.43635         1.56818
LJ          -2.24764        -1.43301        -2.82563
LJ            1.5891         3.29251       -0.723446
LJ          0.130565        -2.59206         4.03165
LJ          0.471976         -1.9378         4.90314
LJ          -2.27859         4.26285         -4.1202
LJ         -0.743493        -2.41096        -2.03517
LJ           6.29393        -1.83456       0.0189208
LJ          -2.16941       -0.599116        -1.99356
LJ           4.64686       -0.750946        0.553351
LJ          0.614248        -2.93857         5.16675
LJ          -4.16167        -3.78079         5.54576
LJ           4.28414        -2.44303        -3.43431
LJ           5.39636         3.97466         5.79872
LJ          -1.56095        -2.42171        -2.82864
LJ           3.23966         2.57347         4.89875
LJ           5.25023        0.735032        0.660656
LJ           5.30339         -2.8342        -2.39849
LJ           6.11857       -0.925987         5.23273
LJ           5.26149        -5.52073         4.00358
LJ           2.66905         3.60075        -1.15016
LJ           4.85791        -1.45386         4.18532
LJ          0.559203         6.12935        -4.18592
LJ            2.2429         3.34385          4.6773
LJ         -0.113226        -5.91254         -6.1521
LJ           3.10591         3.93419         2.13376
LJ          -6.17505         5.76346        0.842637
LJ          -1.61149         -6.2863         1.55752
LJ          -5.48097        -2.80903         5.45222
LJ           1.25965         5.92694        -3.08333
LJ          -4.67479         1.99137        0.916836
LJ          -3.59189        -1.48192        -3.17199
LJ           0.30247        -4.88187        -6.30844
LJ           5.84182       -0.817212          1.4123
LJ          0.436673         6.32306         6.16993
LJ           3.87144       0.0137246        -2.88101
LJ           1.84667         3.07966        -1.79927
LJ           5.40174         -6.2281         2.47095
LJ          0.240199         1.07025        -1.37969
LJ           1.59503         -2.5417        -1.68199
LJ          0.155717        -6.30569        -5.04789
LJ          -5.48558         2.82784        0.695977
LJ           2.80201        -1.61012        0.825058
LJ          0.349502         5.55335        -2.75309
LJ          -4.23488        -2.40439         -3.8406
LJ          -3.33672       -0.579861         4.36485
LJ          -4.90107        -2.13729         1.38309
LJ           3.43746         6.11207         2.82798
LJ           3.95227        -5.32876         5.03402
LJ          -5.71262         -3.6301         4.77613
LJ           -4.4102        0.963899        -5.86315
LJ          -3.92754         2.91752        0.954031
LJ           5.36891        -2.71019        0.548098
LJ          -3.26694        -3.54754        0.279412
LJ          -2.29362         3.66243         5.38061
LJ          -2.69911        0.993992         4.15362
LJ          -3.31969          1.1131        -3.26193
LJ           3.04477         4.29306        -2.58371
LJ          -1.70881        -1.18447        -3.81182
LJ          -2.04753         1.87342         4.18164
LJ           3.66139        -3.68513          1.3924
LJ           3.48476         4.05727        -1.71295
LJ           4.90923        -1.25849        -1.36576
LJ            0.6288        -4.64539        -5.09655
LJ           6.24045        0.574648         -2.5056
LJ          -6.22093         3.37159         6.44357
LJ          -1.28204         1.11014         3.83817
LJ          -5.63572         1.20459        -4.73365
LJ          0.555681       -0.147969         5.98153
LJ          -3.22537         2.88347        -4.29125
LJ          0.667276        -5.56466        -4.37023
LJ           6.18999         5.91832         1.83867
LJ         -0.173606         5.54677         3.25905
LJ           6.40396         3.71528          5.0766
LJ           3.32275       -0.805389        -2.35006
LJ           2.92141        -5.71295         4.62041
LJ          0.523754         5.60189        -5.76154
LJ         -0.577692         2.04796         2.56671
LJ          -3.39956        0.439501         -6.0881
LJ          -1.88737        0.284807         3.63135
LJ           0.52945          4.6291         3.78406
LJ           3.14601        -1.75409        -1.83738
LJ         -0.166474        -2.15922       -0.689293
LJ           1.72131         5.69257         6.10274
LJ           6.05398        -1.97987        0.982795
LJ           2.61814        -0.54955        -1.63388
