108
#Comment!
LJ          -1.28745         6.26541        -5.96753
LJ          -1.41111         5.03791        -4.96536
LJ          -3.71243       -0.829592        -1.89295
LJ          -3.31745         4.67707        -4.63253
LJ           4.02204         3.92522        -2.57311
LJ          -3.41459       -0.146346         5.62177
LJ           5.90349         4.60388         0.71921
LJ          -2.63997          2.1313         6.31008
LJ         -0.188274        -5.00401        -5.44652
LJ          0.458936          -1.284         5.73199
LJ         -0.698253        -3.27105         -4.1293
LJ           3.83256        -6.13741         3.66662
LJ          -4.93901         5.36778         3.82262
LJ          -6.39021         4.30845         5.92108
LJ          -5.11466         2.07219        -5.81083
LJ           3.97673       -0.667489         -1.7675
LJ            3.6482        -1.87118         4.37373
LJ           2.26459        -5.43989        -3.94598
LJ           5.18377        -1.70563       -0.104085
LJ          -3.57358        0.371094        -3.80499
LJ         -0.658244        -3.00138        -3.14776
LJ           1.37572         6.30311        -4.80784
LJ           1.17922         6.45518         1.63413
LJ          -2.32035        -1.72253        -2.85703
LJ           1.62748         2.94536       -0.794803
LJ         -0.217042         -2.7707         4.61875
LJ          0.525415        -1.81671         4.78924
LJ            -1.964         4.43082        -4.31163
LJ          -0.84164        -2.24614        -2.17336
LJ          -6.34058        -1.33344       -0.205218
LJ          -2.22164       -0.704584        -2.28824
LJ           4.34104       -0.504193        0.500516
LJ          0.673092        -2.94011         5.17442
LJ          -4.41352        -3.68139         5.45124
LJ           4.27064        -2.34522        -3.11922
LJ           5.57959         3.82404         5.79967
LJ          -1.56722        -2.40768        -3.07794
LJ            3.2723         2.62096         4.90937
LJ           5.25678        0.567348        0.568144
LJ           5.12207        -2.65462        -2.41418
LJ           6.04601        -1.03823         5.12279
LJ           5.04609        -5.65558         3.99014
LJ           2.58058         3.60535        -1.28176
LJ           4.75534        -1.49242         4.17245
LJ          0.712464         6.05299        -3.86401
LJ           2.16974         3.43885         4.68358
LJ         -0.423627        -6.07693        -6.30102
LJ           3.00222         4.25606         2.29399
LJ           -5.8947         6.10263          1.3315
LJ          -1.56326        -6.31069         1.59497
LJ          -5.41463        -2.78252         5.46455
LJ           1.25337         6.31011        -2.56702
LJ          -4.73452         1.89704        0.911978
LJ          -3.54429        -1.26028        -3.20176
LJ          0.142555        -5.06148        -6.45025
LJ           5.27406        -1.36771        0.859551
LJ          0.631749        -6.23746         5.81703
LJ           3.89549        0.224644        -2.45219
LJ          0.920765         2.79546         -1.8129
LJ           5.50029        -6.21097         2.41878
LJ          0.091712          1.1759        -1.37583
LJ           1.10992        -2.77258        -1.20279
LJ        -0.0162396        -6.19025        -5.15122
LJ          -5.28684         2.94252         0.80312
LJ           3.19173        -1.48164        0.386439
LJ          0.320958         4.95965        -2.83461
LJ          -4.18668        -2.34732        -3.84263
LJ          -3.34187       -0.216671          4.6143
LJ          -5.07104        -2.33513         1.51017
LJ           3.22979         5.92997         2.75491
LJ           4.12938        -5.41419          4.8024
LJ          -5.58004        -3.66338         4.82386
LJ          -4.22368         1.09749        -5.68027
LJ          -4.22691         2.96356        0.913047
LJ           5.18453        -2.35824        0.998762
LJ          -3.07646        -3.69339      -0.0109765
LJ          -2.21535         3.53436         5.32693
LJ          -2.94345        0.763862         4.39322
LJ          -3.24026         1.17798        -2.87055
LJ           3.27433         4.63549        -2.81834
LJ          -1.60045        -1.55673        -3.80432
LJ          -2.12134         2.07395         4.19676
LJ            3.9571        -3.71888         1.21178
LJ           3.89832         4.05303        -1.41804
LJ           4.79735        -1.55715        -1.37393
LJ           1.09159        -4.91616        -5.65813
LJ          -6.29883        0.784683        -2.47199
LJ          -6.13394         3.24425        -6.14233
LJ          -1.10096          1.2857         4.01574
LJ          -5.48667         0.99781         -4.6466
LJ          0.723026       -0.123775         6.18644
LJ          -3.38159         2.83085        -4.33002
LJ          0.819349        -5.69063        -4.55944
LJ            6.1641         5.80509         1.97729
LJ         -0.106875         5.52202         3.25811
LJ           6.21936          3.8605         4.91821
LJ           3.60583        -1.10854        -2.77052
LJ           2.94088        -5.70294         4.69598
LJ          0.302813         5.59712        -5.66049
LJ          -0.62849         2.07916         2.61941
LJ          -3.60597        0.169921        -6.09326
LJ          -2.03977      -0.0375073         3.52181
LJ          0.543535         4.64853         3.82028
LJ            3.4291         -1.9102        -1.89242
LJ        -0.0488542        -2.02746       -0.436318
LJ             1.432         5.98465         6.34357
LJ           6.42709        -2.00506         1.10176
LJ           2.83052       -0.510999        -1.79106
