108
#Comment!
LJ          -1.69995          5.3944        -4.55746
LJ          -2.74936        -4.23136        -5.24235
LJ          -1.84034        -2.55999        -5.75139
LJ           -1.5741        -1.29544        -3.03602
LJ         -0.413602        -2.18904        -3.21281
LJ          -3.12298       -0.045318         -5.7123
LJ           4.92868         2.11124        -2.19986
LJ           -4.6548        -1.26379        -5.53515
LJ          -4.35896        -2.67959         -5.2897
LJ          -4.52668         1.38386        -4.48872
LJ          0.253762         3.67442        -6.33222
LJ           1.64216        -5.27354         1.21684
LJ           4.59146         6.29374         3.34846
LJ          -2.65584       -0.418316        -1.63475
LJ          -1.88718        -3.71994        -5.06229
LJ           4.90858         2.57319         -1.1733
LJ          -1.36284       -0.823446        -1.99283
LJ          -5.70637         3.00106        -6.09689
LJ          -5.13716        -2.23615        -2.45951
LJ            -4.203        0.380839        -4.86301
LJ          -3.68786        -2.67426         6.03088
LJ          -1.71366         5.24703        -3.49259
LJ          0.447961         4.92369          4.9209
LJ           3.09744        -5.50196        0.988079
LJ         -0.718664        0.374755         5.99169
LJ           5.50265         3.43061       -0.413699
LJ           -2.0059        -1.75464        -4.34671
LJ          -1.92493        -5.38385        -3.33351
LJ           -1.3205        -4.45329        -3.82798
LJ          -6.24561       -0.633448        -3.23618
LJ          -5.53283       -0.564697        -5.48334
LJ          -3.19529        -1.64795         -1.7214
LJ          -2.55678        0.251294        -4.91724
LJ          -2.83742        -3.70426         6.03005
LJ          -2.18649         4.16452         6.02557
LJ          -4.18275         3.27552        -3.19348
LJ          -1.52556        -1.15166        -5.03595
LJ         -0.514254         4.38218          3.5333
LJ           -3.7324        -1.84785         -2.8474
LJ          -4.22103        -1.50952        -1.82297
LJ           3.50052        -4.89481         3.12779
LJ          -4.50668        -2.05982        -6.37713
LJ          0.828414         3.76484       -0.807625
LJ          -4.68815         5.62973         3.17487
LJ        0.00154117         5.91985        -3.77962
LJ           1.95183         2.43634         3.42879
LJ          -0.35036         4.48229        -5.00224
LJ         -0.781861         3.72188         6.00887
LJ          -3.86635        -1.80488        -4.98677
LJ           2.62398         3.94764         2.22451
LJ           5.50781     0.000873642       -0.166024
LJ           6.32539         2.75417       -0.756748
LJ            6.0899         4.97137         1.47856
LJ          -4.73427       -0.354081        -2.09267
LJ           -1.4797         -5.5169        -4.87624
LJ          -4.10515       -0.529324        -3.23641
LJ            1.4852        -6.21764         5.26845
LJ          -4.73169        0.419927        -3.75247
LJ          -1.27193        -0.46063         -5.7397
LJ          -3.33593        -3.54437        -5.97158
LJ         -0.854799         4.44216        -5.96549
LJ           6.35319        -5.35543        -2.72473
LJ         -0.679925         5.00312        -3.92791
LJ           5.68224         3.88553        0.712893
LJ          -6.40417       -0.375638        -4.61338
LJ           0.85589        -4.08775        -1.03155
LJ          0.621188        -2.87338        -3.52809
LJ          -4.45536         2.31811        -2.73947
LJ          -6.41631       -0.532928         5.84114
LJ           3.86174        -4.90903        -1.93425
LJ           5.58149          5.7185         4.19327
LJ          -5.08408         -4.8803        -3.33375
LJ          -2.06829       -0.309345        -2.54236
LJ           5.61107          4.6837        -0.53361
LJ           4.59028        -6.35297         2.35758
LJ          -2.36372        -4.54628        -4.33804
LJ          -5.47733      -0.0194294        -2.88316
LJ         -0.980238        -2.20362         2.37047
LJ          -3.70866         -4.1933        -4.43655
LJ           4.84268         3.22681        -2.39903
LJ          0.927376         3.44629        -4.62694
LJ          -3.41703        0.291701        -3.42996
LJ          -2.71121        -5.68923         2.71728
LJ          -1.55479        -6.43405        -3.97227
LJ          -6.35497        0.658252        -3.89588
LJ           2.71024        -4.04835         -1.3172
LJ           4.01037        -5.10193         1.71998
LJ          -3.14816        -1.90343        -4.14138
LJ          -3.54533       -0.768415        -2.17103
LJ          -2.66943        -1.15766        -3.41532
LJ          -2.76354        -3.59779        -4.06764
LJ          -4.20661       -0.636853        -4.86605
LJ          -3.70155        -2.83988        -3.53622
LJ           -5.3866         -1.7604          5.6709
LJ          -1.65446         4.32524         -4.6787
LJ           1.27016          1.8066        0.501691
LJ          -4.18046        -1.85274         -3.8016
LJ           6.32327        -4.36239         2.89199
LJ         0.0210918         5.76959           4.464
LJ         -0.268068         5.92277        -4.92077
LJ            -3.048       -0.736549        -4.61715
LJ           -2.2554        -2.14992         -3.3395
LJ          -1.16611         4.64594         5.41082
LJ          -2.67924       0.0679601       -0.366472
LJ           1.86996        0.951003         4.57609
LJ          -1.54313          5.0907        -5.53661
LJ          -5.30837        -1.16909        -2.76619
LJ          -3.71981        -2.76133         1.52157
