108
#Comment!
LJ          -2.78186        -4.80903        -4.64468
LJ          -1.61851        -4.12703         5.70323
LJ          -1.02095        -2.74661        -3.63365
LJ          -3.01315        -2.86399         -3.4125
LJ          -3.60751        -2.58782        -2.28731
LJ          -3.64819        -3.62158        -3.35254
LJ         -0.229155         2.65817        -4.51988
LJ          -6.24676        -2.52587         5.42498
LJ          -4.14658        -4.85886         5.97612
LJ          -2.72731        -1.48193        -5.60934
LJ          -3.47011        -5.82574          6.3267
LJ           2.43215        -6.01198       -0.870355
LJ           4.35793         5.57887        0.816097
LJ          -2.92091         -1.5916        -2.56953
LJ         -0.820181        -3.65694         4.85161
LJ           6.41268         4.49823        -3.89599
LJ          -3.53625        -1.52037        -4.68206
LJ          -2.48454         3.13769        -2.82488
LJ          -3.44146        -1.68978        -3.51591
LJ          -4.51763        -4.50188        -4.45018
LJ          -2.39702        -3.17064        -5.43865
LJ          -3.25793         5.18374        -4.86454
LJ          -2.35792        -6.19455        -5.95651
LJ           4.72933          4.5641         1.16503
LJ          -2.56926         4.17716        -2.37578
LJ           1.23899        0.223642       -0.719046
LJ         -0.496437        -3.80912        -5.03197
LJ          -1.75171        -5.39557         6.17666
LJ          -0.38857         4.91833         5.11791
LJ          -1.55789        -3.56017        -2.01881
LJ          -2.87393          -3.862        -4.69532
LJ          -4.41464          6.4217        0.404155
LJ          -3.11287       -0.793489        -3.88711
LJ          -2.63045        -3.79158        -6.23778
LJ          -3.49909        -4.60661        -3.32734
LJ           3.87669        -4.72825         4.72106
LJ          0.726658         -1.4909        -4.67595
LJ          -4.14497        -5.34747        -5.51251
LJ          -1.53923        -2.35594        -5.92285
LJ          -2.23996        -5.92323         2.97855
LJ           3.74511         5.77551        -1.78713
LJ          -4.82804        -5.65824         6.15962
LJ           2.65878        -4.83557        -1.00044
LJ          -4.12281          1.5724         3.29427
LJ          -1.91663         4.92709        -5.31816
LJ           5.21282         1.66112        0.193971
LJ          -2.62199        -4.68234         6.13448
LJ         -0.617913        -2.58917         2.49974
LJ          -3.99334       -0.641229         -4.5956
LJ           5.51678       -0.715268        -3.19418
LJ           3.26346        -1.45191         1.64139
LJ           5.38384         5.05746        -3.69184
LJ           4.27806         4.62259        -1.17479
LJ          -3.79486       -0.583341        -2.69244
LJ           -3.6681        -4.32809        -6.12725
LJ           5.68631         -2.9249         6.23183
LJ          -1.96206        -3.66924         2.26027
LJ          -1.53883         -1.3233        -5.23679
LJ           5.72707         6.07335         1.77407
LJ          -4.84105        -4.78596        -6.03871
LJ           -2.6626          6.4437         5.90176
LJ           1.72275         5.38715        -1.66964
LJ          -2.92732        -4.96615        -5.69334
LJ           5.41265         5.08723        0.459611
LJ           6.04441        -2.38062        -5.63499
LJ           1.44571         5.45051        -4.24212
LJ          -5.80338         5.39712        0.403144
LJ           1.26458          5.9165         6.01853
LJ          -2.28439        -2.66426        -2.52333
LJ           5.20408       -0.515154        -5.38439
LJ           1.66194          6.1621         4.57486
LJ          -5.90342        -3.26229        -6.32892
LJ          -3.99899        -4.28753         -2.4189
LJ           3.42877          3.3679        -1.45564
LJ           2.47257         5.63777        0.201084
LJ          -3.61057         -2.7818        -5.46157
LJ          -2.92506        -2.58109        -4.52427
LJ         -0.825981         5.90467        0.175684
LJ          -3.71137        -4.30979        -4.99749
LJ           5.87903         4.31014        -2.98043
LJ          -1.13951       -0.178485        -5.51712
LJ          -2.28447        -1.34944        -3.65729
LJ           3.45297        -6.22008        -2.32682
LJ         -0.886448        -4.57484         6.45822
LJ           -1.7094        -4.58081        -3.59513
LJ          0.018039         6.01727         3.30644
LJ           4.38232         5.30944       -0.132435
LJ          0.293735         6.29823         6.34204
LJ          -4.43338        -1.19611        -3.52127
LJ          -2.06594       -0.668511        -1.87442
LJ           1.36312        -6.03719       -0.423742
LJ           1.15312       -0.552128         -1.3375
LJ          -5.29645       -0.387766         -2.9823
LJ          -5.76216        -4.34967         5.76674
LJ          -1.35234        -4.90708        -5.67415
LJ           1.85084         6.24359        -5.02589
LJ          -1.84375        -2.58375        -4.60459
LJ          -2.84436        -2.50596        -6.34949
LJ         -0.726919        -5.68598         5.97405
LJ          -1.95004        -4.75268         4.80996
LJ          -3.99691          -3.332        -4.59408
LJ          -1.61708        -3.90003        -5.96183
LJ           -1.5759          6.4422         5.99546
LJ            5.4983        -2.56678         4.46393
LJ           1.80977        0.757785        -1.56423
LJ           -1.4276           5.389         6.17422
LJ          -4.46696        -3.82978        -5.51121
LJ         -0.227077           1.877       0.0785529
