108
#Comment!
LJ          -3.17704          6.0425        -5.87233
LJ          -3.01631        -4.16921        -5.73707
LJ            3.3629        -1.76071        -1.05229
LJ          -1.96427        -1.92888        -4.02802
LJ          -1.12921        -4.26531        -3.45081
LJ          -3.11896        -3.85289        -3.75563
LJ          -3.39867         1.96401         6.04908
LJ          -5.77034        -2.60739         6.26381
LJ          -4.68912        -4.44513        -5.67246
LJ          -1.11089       -0.933305        -4.29914
LJ          -4.11419         -5.6399         -6.3099
LJ           2.59039         4.80057        -1.46629
LJ           4.96705         5.40407        0.377894
LJ          -2.03829        -3.36036        -4.01744
LJ         -0.523735        -4.75782         5.79817
LJ          -5.81688        -6.34852        -3.99298
LJ          -3.84968        -3.74415        -4.89614
LJ          -1.34964         5.70806       -0.564842
LJ          -3.91981        -2.72636        -5.53823
LJ          -1.80326        -5.67018        -5.14508
LJ          -2.58912         -4.9173        -4.84913
LJ          -3.20996        -5.20807         4.03058
LJ          -4.12201         6.36508        -5.61015
LJ           5.31509         5.43429       -0.863618
LJ          -1.83629         4.77759      -0.0109111
LJ         0.0775015         1.74439        -0.78317
LJ         -0.707845        -1.94383         5.35625
LJ         -0.840786        -3.68766        -5.72111
LJ          -2.18345         4.78491         3.52805
LJ          -1.21394        -2.50448       -0.187772
LJ          -1.90273        -4.45839        -4.32021
LJ          -1.53082        -6.41364         2.24247
LJ          -4.10633        -1.16399        -5.03882
LJ          -4.80401         -3.1138        -6.01288
LJ         -0.503463        -1.51964     -0.00456287
LJ           1.27792       -0.839333        -5.99973
LJ           5.39853        -3.18001        -5.43549
LJ          -4.39526         5.64878        -4.49877
LJ            -3.828        -2.97842         6.02798
LJ          -2.30198        -3.73686         6.38447
LJ           2.02741         3.89361        -1.20012
LJ          -4.23023        -5.76765        -4.96778
LJ           6.31181         5.96462        -2.11087
LJ          -3.78375      -0.0262195         3.27896
LJ          -4.27912        -6.19045        -3.99909
LJ           5.72577         1.98151        -1.32649
LJ          -3.09725        -3.73705         5.54065
LJ           -1.1006        -1.98595         3.32329
LJ          -4.53801         -2.3416         -3.3226
LJ          -5.01015        -1.96925         1.02108
LJ           3.17995        -4.48687         4.73346
LJ           6.07336        -6.38975        -3.36558
LJ          0.677302         3.86043         -2.5304
LJ          -3.36068        -2.84855        -4.56262
LJ           -3.4759        -4.66087         6.33716
LJ           6.23268        -4.63417         6.04605
LJ          -3.92494       0.0152351       0.0265402
LJ          -4.67673         -3.0238        -4.64173
LJ           4.74557         -5.5929        -1.72925
LJ          -3.77505        -4.87193         -5.4009
LJ           -2.4477         5.97444         3.59909
LJ           1.59576         5.27711        -1.07773
LJ          -3.03553        -5.88898        -4.51826
LJ           4.19914         5.77853         1.24576
LJ           4.57465        -2.28195        -2.55137
LJ          0.949209        -6.26522         2.93789
LJ           4.81562           4.937         1.77566
LJ           4.94511        -5.52311        -3.32547
LJ         -0.517884        -3.74256        -4.59281
LJ          -4.84447         1.92078        -6.02447
LJ           1.25083         5.92812        -6.00539
LJ           6.31656        -2.52052         5.20113
LJ           -2.2327        -5.64123        -3.60448
LJ          0.151018         2.49014         -2.4286
LJ           3.74807          4.2823        -1.37949
LJ          -2.70291        -3.84688        -4.70011
LJ          -2.72411        -2.83482         6.16288
LJ         -0.712911          3.7512          3.7019
LJ          -3.26891        -5.05394        -3.63186
LJ          -6.07745         5.38796        -4.25192
LJ         -0.903923         1.80449        -5.26509
LJ          -4.49082        -1.47071        -1.86203
LJ           4.29515          -4.854       -0.606881
LJ          -1.95575        -4.18554        -5.54032
LJ         -0.395804         1.97388          -4.145
LJ          -5.18913         1.89266         4.13156
LJ           3.46038         4.88008         1.89683
LJ          -1.27826        -3.47086         5.72924
LJ          -2.36348         -1.6034        -5.03898
LJ          -3.12981        -2.85147        -3.07399
LJ          -1.44472         5.55527         1.56908
LJ           1.19956        -1.28937         -1.4502
LJ          -5.37286         0.25537         6.20419
LJ           -4.4372        -4.46686          5.7783
LJ          -1.02957        -4.57207        -5.13092
LJ           1.31092          6.4412         3.97785
LJ          -1.55935        -3.02848        -4.81674
LJ          -2.81318        -3.10444        -5.74791
LJ          -1.37614        -4.29864        -6.37784
LJ         -0.419057         5.64366         3.68777
LJ          -4.32166        -4.75505        -4.44007
LJ          -1.62758        -3.09929         -6.0471
LJ          -2.99322        -5.73268        -5.57806
LJ          -4.26586        -2.16987        -6.24123
LJ         -0.905226         2.84369        0.214219
LJ          -3.57401         5.84358         2.92526
LJ          -3.98544        -4.07696         2.46975
LJ          0.937338         1.90415        -1.55693
