108
#Comment!
LJ          -2.04096        -4.47269        -4.84328
LJ          -1.13586        -3.57586         -5.5912
LJ          -3.93528         4.76903        -5.14163
LJ          -5.96983        -3.47959        -4.56147
LJ          -1.78599        -5.64828        -3.02416
LJ          -1.83297        -2.52427        -4.09845
LJ          -0.47807        -5.73572         3.67472
LJ           4.70338        -1.90171         4.76298
LJ           5.63531        -1.72456        -5.03982
LJ           2.56228        -1.11462          2.3427
LJ          -3.96554         3.64999        -4.51044
LJ          -2.97313        0.645869        -4.54806
LJ          -5.66448         5.41725         3.43101
LJ         -0.715524        -2.78002        -4.11361
LJ         -0.615313        -4.78947        -5.74251
LJ         -0.712089        -5.44329        -3.53464
LJ           1.97266         3.70971         3.00753
LJ           3.10097         5.38191         5.34378
LJ          -1.83835        -5.53609        -4.23138
LJ          -3.32813        -3.57696        -5.61536
LJ           -1.1081         -4.4712        -4.41453
LJ          -5.71563        -2.98608        -5.97621
LJ         -0.197993        -5.03981         -4.4223
LJ          0.692345         3.54859       -0.763942
LJ          -1.73062         4.61997          0.6626
LJ         -0.464706        -1.11849        -2.81208
LJ          -3.20657         6.25252        -4.42553
LJ          -1.21202        -4.08524         5.15347
LJ           3.02084         5.71947        -6.43267
LJ          -4.00791         5.94882        -3.62724
LJ          -0.19326        -2.62631         2.51008
LJ          -1.57167        -2.48534        -2.52244
LJ          -3.63691         5.85172         5.17282
LJ         -0.274904        -2.84457        -6.27214
LJ           3.91494        -1.07416        -6.35351
LJ          -3.08919        -1.89705         3.83598
LJ          -3.47951        -6.15544        -5.31661
LJ           3.71891        -5.21174        -0.59096
LJ           -3.0964        -4.42228        -4.74309
LJ          -2.16846        -2.29639         6.31485
LJ          -1.45024        -1.06579        -2.51387
LJ          -3.35049        -5.12969        -5.62566
LJ          -3.33855        -5.02747         4.16688
LJ           6.15609        -6.04854         6.03666
LJ          -2.57021         -4.8681        -3.23323
LJ           5.75884         2.72072        -6.39061
LJ          -2.80861        -3.37482        -4.57646
LJ          -1.78643        -3.54332         6.41063
LJ           1.98894         1.21333         4.15099
LJ           1.76893        -1.58551         3.54093
LJ           1.74588       -0.760661           1.126
LJ          -4.36005        -4.47111        -4.73033
LJ         -0.501574      -0.0524644        -2.22814
LJ          -2.64762         3.97618       -0.772944
LJ          -2.22578        -5.29513        -5.64802
LJ           3.44605         5.05129        -0.25813
LJ           2.74791        0.909137       -0.605173
LJ          -1.62958        -5.03447        -1.86412
LJ         -0.784245         3.83931       -0.302602
LJ          -3.94245        -1.89025        0.808835
LJ          0.262318         1.22779         4.78574
LJ            -4.317       -0.602075        -4.61555
LJ           -1.6395        -4.64757        -6.33427
LJ         0.0893134         2.53349        -4.95395
LJ           1.84153         2.17511        -5.19536
LJ          0.642977        -3.84617         5.68221
LJ          0.950151         4.69416        -4.28033
LJ           6.02694        -2.94573         3.12555
LJ          -2.03634        -2.95584        -5.56588
LJ          -2.96993        -5.54201        -4.35628
LJ           -3.6791        0.196469        -3.57911
LJ            5.0369        -2.45788        -5.99795
LJ          0.589802        -2.09396        -4.82783
LJ          -2.06136       -0.256273        -1.95925
LJ          -2.15715        -1.51244        -1.69098
LJ           1.81842        -1.40623         5.84152
LJ          -2.98816        -2.46141         -5.6464
LJ            3.7847         -2.6938         5.63398
LJ          0.463111       -0.579101         -3.0782
LJ          -2.48771        -4.20621        -5.94595
LJ           5.19409        -1.13913         6.05489
LJ         -0.124593         4.06156        -1.24192
LJ          -1.45653        -4.66094        -3.20125
LJ          -5.20283         5.94815        -6.43767
LJ           2.66537        -5.86517         4.70565
LJ           1.87247         6.23725        -6.41022
LJ         0.0612931        -1.75335        -3.91128
LJ          -3.23415        -4.87925         5.87131
LJ          0.811847        -4.70153        -4.61908
LJ          -0.09182        -3.75972        -5.90518
LJ           2.05812        -6.40099         5.40306
LJ           4.29251        -0.35195        -5.01875
LJ           4.09688        0.376209         2.20695
LJ          -1.19358        -2.63661        -4.97173
LJ          -3.01839        -5.73995        -6.37159
LJ         -0.824682        -1.95868        -1.42987
LJ         -0.797858        -5.40908         6.12971
LJ        -0.0314164        -3.00335        -5.01762
LJ            -1.859        -5.80545         6.23222
LJ          -1.62072         -3.5126        -3.39241
LJ         -0.307827        -4.33379        -3.64763
LJ           4.65616        -0.89582         5.29382
LJ          -1.73275        -3.54492        -4.40242
LJ         -0.380585        -3.43283         5.84997
LJ         -0.295469        -3.95176         -4.7639
LJ          -4.45013        -5.98506        -3.30299
LJ           -2.7654        -5.08476        -2.06233
LJ          -1.05369        -1.00629       -0.698925
