108
#Comment!
LJ          -2.58802        -5.34668        -4.68531
LJ          -2.11136        -3.71159         5.98525
LJ          -2.03112        -2.93499        -3.56429
LJ           -3.0386        -2.82195        -3.23624
LJ          -3.33356        -2.11368        -2.34568
LJ          -3.89254        -2.98797        -3.77273
LJ          0.336945         2.73903        -4.22848
LJ          -5.90639         -2.8663          5.6649
LJ          -3.60357        -4.68076         5.61929
LJ          -2.70452        -1.67604        -5.36246
LJ          -3.07269        -5.86327        -6.38519
LJ           2.21332        -5.92743         -1.1422
LJ           4.88613         6.03996         1.34697
LJ          -2.77368         -1.2663        -2.55078
LJ          -0.98356        -4.35344         5.15883
LJ           6.36231         4.23477        -3.98511
LJ          -3.51832        -1.32107        -4.36181
LJ          -2.46195          3.1161        -3.33576
LJ          -4.01482        -1.98092        -3.61286
LJ          -4.76277        -3.66573        -3.81242
LJ          -2.45339        -3.26118        -5.24349
LJ          -3.34379         5.19783        -4.44266
LJ          -2.29335          6.1155        -6.09296
LJ           4.74597         4.73769         1.32155
LJ          -2.82193         3.78453        -2.49113
LJ           1.66713        0.402876       -0.692064
LJ          -0.35648        -3.75798        -5.16779
LJ          -1.50748        -5.09856         5.80213
LJ        -0.0344033         5.46139         5.86474
LJ          -1.93718        -3.66955        -2.59509
LJ          -3.01864        -3.43958        -4.30258
LJ          -4.80835         6.40031        0.050408
LJ          -3.03219       -0.638269        -3.65293
LJ          -2.78142        -3.61158        -6.12444
LJ          -3.41968        -5.18346        -3.46708
LJ           4.24054        -5.24946         4.43821
LJ           0.29384        -1.19401        -4.86901
LJ          -3.75957        -5.49183        -5.66995
LJ          -1.64728         -1.7739        -5.70099
LJ           -2.2373         6.34441         2.51724
LJ           4.17059         5.89143        -1.52568
LJ          -4.39935        -5.34795         5.62608
LJ            2.5463        -4.16262       -0.890228
LJ           -4.1679          1.7873         3.29709
LJ          -1.81184         4.44264        -5.59552
LJ           5.13778         1.63417        0.396062
LJ          -2.52647         -5.0642         6.11972
LJ         -0.683899        -2.76271         2.38105
LJ          -3.90634      -0.0600131        -4.33935
LJ           5.24746        -0.53902        -3.80575
LJ           3.27346        -1.04472         1.23262
LJ           5.31433         4.82671        -3.66681
LJ            4.9274         4.94993        -1.11906
LJ          -3.93005        -1.28731        -2.70248
LJ          -3.84145        -4.05357        -6.08537
LJ           5.97939        -3.02079        -6.14366
LJ          -1.57212        -4.11087         2.60033
LJ          -1.64748        -1.15773        -4.64101
LJ           5.93655         5.83533         1.56483
LJ          -5.03484         -4.2131         6.36413
LJ          -2.28079        -6.26947         5.75501
LJ           2.06027         5.68476        -1.37934
LJ          -2.97915        -4.80627         -5.6145
LJ           5.18418         4.69253         0.28337
LJ           5.88649        -1.78088        -5.90692
LJ           1.77772         5.82751        -3.60802
LJ          -5.47233         5.61547        0.177563
LJ            1.1122          5.4471         5.75989
LJ          -2.03077        -2.25884        -2.46321
LJ           4.77365       -0.942792        -5.18301
LJ           1.56151         5.95362          4.1789
LJ          -6.16205        -3.86279        -6.27797
LJ          -4.34905         -3.6236        -2.65152
LJ           3.46591         2.45268        -1.47054
LJ           2.15127         6.09028       0.0601634
LJ          -3.53045        -2.49663        -5.40165
LJ          -2.74635         -2.2881        -4.26276
LJ         -0.881805         6.13994       -0.287207
LJ          -3.44535        -4.26705         -4.8578
LJ           5.67183         4.24955        -2.75763
LJ          -1.23451       -0.608044        -5.56854
LJ           -2.4837        -1.54855        -3.51803
LJ           3.12794        -6.37886        -2.59562
LJ          -1.11787         -4.1324         6.14659
LJ          -1.95479        -5.34897        -3.71068
LJ          0.362345         6.30637         2.95077
LJ           4.25127         5.16964       -0.119694
LJ         -0.470838         5.96416        -6.30035
LJ          -4.47056       -0.887439        -3.71203
LJ          -1.84652        -1.04269        -2.04718
LJ           1.51842        -6.11387       -0.152871
LJ           1.05098       -0.821874         -1.7016
LJ          -5.14881       -0.570726        -2.86858
LJ          -5.62007        -4.59057         5.41752
LJ          -1.96036        -5.43496        -6.07846
LJ           1.78998         6.09479        -4.69927
LJ          -1.72518        -2.33746         -4.7756
LJ          -2.52675        -2.63331        -6.32852
LJ         -0.284054        -6.14592         5.72194
LJ          -2.16861         -4.5375         5.13431
LJ          -4.13606        -3.33341        -4.79823
LJ          -1.62923        -3.79099        -5.60335
LJ          -1.30209         6.26525         6.20896
LJ           5.22998        -2.09159         4.39562
LJ           2.02459        0.834733        -1.75339
LJ          -1.12003         5.21375        -6.34877
LJ          -5.04191        -4.03398        -5.36468
LJ         -0.411225         1.57785        0.451254
