108
#Comment!
LJ  -0.16555785543554416   -0.3359534776615109   -0.40392904754815578
LJ  -0.069962020471270425   -0.28045861066775513   -0.43335112775452717
LJ  -0.30051483443960064   0.45573004974345549   -0.35821532986470728
LJ  0.45600339224138309   -0.2948430782730217   -0.21596416951385156
LJ  -0.070978829053331999   -0.44775065487261617   -0.19799011079585591
LJ  -0.16606279924029171   -0.16568651695429654   -0.29793087622740633
LJ  -0.0837848464630159   0.46912557839730895   0.27907132636052728
LJ  0.3023708023289311   -0.097891651321050821   0.38686599915466946
LJ  0.42337624519005618   -0.1803210867808932   -0.34994846978449135
LJ  0.11755794018600151   -0.020713847268738483   0.16475151559117204
LJ  -0.27353213980745744   0.300075267332096   -0.41874738166024789
LJ  -0.28042441094323289   -0.025680411913492743   -0.40731992024093056
LJ  -0.3995985959828115   0.40262110928220812   0.27864040764574338
LJ  -0.073988688409447334   -0.2235992583305314   -0.277068264145028
LJ  -0.028448580679602237   -0.34375298330985204   -0.4686260793786941
LJ  -0.086848905114714728   -0.40173149466805941   -0.29317399149700435
LJ  0.20292696939088359   0.37469525094065004   0.1159918126617476
LJ  0.23507323406649366   0.4940789577068827   0.4560074319738664
LJ  -0.15383268249933302   -0.41382106117535883   -0.33179141579113336
LJ  -0.27239908634246468   -0.28744452355003136   -0.37623785311845287
LJ  -0.10547179466446353   -0.33495434787634182   -0.34417837445091826
LJ  -0.43111474122851601   -0.17390140404246818   0.47158766708903954
LJ  -0.025580242856727567   -0.39074823871049569   -0.37350688959774064
LJ  -0.0013404956674534967   0.23197774485177908   -0.062781861889441418
LJ  -0.12166165900618447   0.26564675099654111   0.0095494183633829353
LJ  -0.042562825261265778   -0.17220004681912793   -0.21972325657313102
LJ  -0.18295291162716759   -0.47869377537214214   -0.30858478271578504
LJ  -0.08737277530391209   -0.31881385337588669   0.4192403627477756
LJ  0.28544877068430918   0.42991852823301341   -0.45546682123087123
LJ  -0.16823377864651209   -0.4823147195644219   -0.2045260408457247
LJ  -0.012453730095069884   -0.18270194143603716   0.17517604473419277
LJ  -0.15979179136208993   -0.20886884745706444   -0.15295718274661674
LJ  -0.28990629495909376   -0.44235330555374192   -0.49773967123765606
LJ  -0.044515920733365404   -0.19489130547324099   -0.45680517396337061
LJ  0.32991135935365234   -0.22553191623909566   0.49979233965855585
LJ  -0.20451246260857117   -0.077029453382020815   0.34694926852406494
LJ  -0.17745426297003192   -0.42933188007005529   -0.41247989426079412
LJ  0.25728034557063062   -0.39477024624319351   -0.031864690351922666
LJ  -0.25683963001838822   -0.34893780097658755   -0.30418597446200885
LJ  -0.1958606515376706   -0.21000847113917534   -0.49834379599806522
LJ  -0.12561169837243499   -0.13711207367144942   -0.23531224674823309
LJ  -0.23626477825403991   -0.36409858107004589   -0.38956674213761422
LJ  -0.33201994208070629   -0.41676481340670651   0.30017546528382794
LJ  0.43008028249640895   -0.4946579421934974   0.48259366196441067
LJ  -0.19501729101071938   -0.38292359249574898   -0.26085219393353698
LJ  0.43777754816308861   0.21503862926451053   0.45970269152125232
LJ  -0.19478728580583476   -0.24905943726560825   -0.33282630095616683
LJ  -0.13759297378740568   -0.26088249779802336   0.45477703352299298
LJ  0.24313145378657486   0.126807852907625   0.29281235311337056
LJ  0.15447729508019925   -0.17573426319749474   0.25453264910050388
LJ  0.1024221065108194   -0.11712368271692122   0.086146751563210597
LJ  -0.31125632472053316   -0.2442114844204164   -0.3052712879130805
LJ  -0.063607266741569135   -0.10087731304961677   -0.18304839797088154
LJ  -0.29344431152380174   0.33682850614248805   -0.11640530636128033
LJ  -0.20012504471588816   -0.37274181137558282   -0.46889929211520814
LJ  0.20684006866335733   0.3882364437637148   -0.066781257675017247
LJ  0.15974206624604767   0.17735132611177537   -0.0028635259947849853
LJ  -0.10601999126957659   -0.40813082320170507   -0.12390892653986507
LJ  -0.016617931587515355   0.29413659607376874   0.0086291956724384236
LJ  -0.39865634718404386   -0.033580942684995334   -0.023916736174549719
LJ  -0.02745512753264822   0.066711773985840925   0.41764957512870771
LJ  -0.37202042575367844   -0.06332877116529112   -0.34386362815338911
LJ  -0.108696110377694   -0.33029833750896626   -0.49534227522160323
LJ  0.041980691549277818   0.21760235015480803   -0.44273064494532766
LJ  0.14715315135129706   0.21088802115248015   -0.35572348314683633
LJ  0.071337214646001013   -0.37052177152033833   0.41606286536281667
LJ  0.0088927850172091337   0.31168699532272659   -0.4336666622312832
LJ  -0.49762538807532103   -0.22487004662561999   0.27302832169648827
LJ  -0.13018851061855233   -0.24651254117925783   -0.47108597910666183
LJ  -0.23728648974940084   -0.42946233086260266   -0.34455839328872356
LJ  -0.31952952232366161   -0.007691052727524521   -0.30135715408838565
LJ  0.38404030619189716   -0.17218526940260803   -0.44231995499063825
LJ  0.086723421636064835   -0.20417494886559909   -0.41350670407504997
LJ  -0.16705724112329631   -0.082890471487954531   -0.16284854003571578
LJ  -0.174979128784745   -0.14310303732905222   -0.10917049224668364
LJ  0.173979726073619   -0.092804113818215947   -0.48983698744340182
LJ  -0.20108230760441825   -0.25195959904830922   -0.41284620737705319
LJ  0.28368340898270339   -0.20641688213039361   0.41457085476926148
LJ  -0.013421066416282129   -0.097066049985206362   -0.27196190288530636
LJ  -0.20640261769665524   -0.29904678637277937   -0.49823127958257046
LJ  0.44415109284945392   -0.20499500011750602   -0.49861475643940867
LJ  -0.036427305451326837   0.31282005752465969   -0.076123202889033958
LJ  -0.13005399692129618   -0.33752736305974562   -0.21934558792611994
LJ  -0.35931896199978397   0.45992014954570004   -0.47818510353190191
LJ  0.22699608164331075   0.47996671583946854   0.36768822639000115
LJ  0.20986654441253971   0.49356993497650731   -0.45382962805600396
LJ  -0.017022290009741373   -0.1438308592895495   -0.39343652592326384
LJ  -0.19771299242325177   -0.38563308608560898   0.43962181078474494
LJ  0.038730619604048055   -0.34508371094414764   -0.34781062210732966
LJ  0.05590074994603543   -0.34918493426156355   -0.46686564574163447
LJ  0.13823340690019523   -0.47393894315422619   0.43950338500840586
LJ  0.37822778329857054   0.024113944853334165   -0.48063977596403779
LJ  0.27710645120843957   0.085974590007856178   0.23799191494134175
LJ  -0.11457604250100639   -0.16910853238273951   -0.37086497224458909
LJ  -0.19496459942741912   -0.49846397198392378   -0.49097966960990447
LJ  -0.10434221543885507   -0.15153443694125815   -0.14777707310602795
LJ  -0.0060062995116967307   -0.39039048190049064   0.41682208483274052
LJ  0.011082605197160559   -0.25103885352309674   -0.41949232276192716
LJ  -0.06819017239259248   -0.41639190466362858   -0.4945704807479982
LJ  -0.13759736381184778   -0.28026291640438605   -0.27825721993163177
LJ  -0.068331580943348125   -0.32858036504019   -0.27305506564560944
LJ  0.23333701423255318   -0.043323662469677754   0.38497094324199171
LJ  -0.0966675760677254   -0.25505039608270125   -0.34901565711421872
LJ  0.021333086908130638   -0.29743022636757249   0.45901327192922903
LJ  -0.026013916846634105   -0.30440301857685104   -0.37193580552050798
LJ  -0.24927515727988625   -0.42741455695198871   -0.18895153562888647
LJ  -0.16389744511871476   -0.40220576282099463   -0.17729074653453433
LJ  -0.10645273805044853   -0.10379866194553108   -0.080734303730134876
