108
#Comment!
LJ          -2.73763        -4.57871        -5.35183
LJ           -3.1446        -3.85105        -6.15942
LJ          -5.70946      -0.0446361       -0.551821
LJ           -3.5732        -4.19151        -4.03711
LJ           -2.7022        -4.93952        -2.79744
LJ          -2.93682        -3.48193        -3.85889
LJ         -0.297808         1.33929         4.29284
LJ          -3.95441        -2.08065         5.14978
LJ            -4.758        -3.07922        -5.21675
LJ           2.61959        -2.67805        -1.93935
LJ          -4.53475         5.42839         6.33487
LJ          0.217703         3.25766        -1.83665
LJ           4.73463         5.79609         1.07246
LJ          -1.99053        -3.75762        -4.55519
LJ          -2.15922        -5.27572        -6.18788
LJ          -3.28788        -5.18258        -1.82869
LJ          -3.45377         -3.5137        -4.99973
LJ          0.192796         5.58531         2.96591
LJ          -3.92636        -5.03783        -3.34619
LJ         -0.797912        -4.40489         5.19728
LJ          -2.15294        -5.36976        -4.77878
LJ           6.05845        -1.91533          -4.769
LJ         -0.722638        -5.30467        -4.98486
LJ           4.78611        -6.33716         2.38773
LJ         -0.483683        -4.87039         2.60625
LJ          0.287819         1.79054       -0.180098
LJ          -3.96802        -3.16253         5.18964
LJ          -2.10204        -3.25514        -6.19477
LJ         -0.857078         5.12567           2.472
LJ           2.75547        0.445517         3.29107
LJ          0.231082         -5.0349         5.59809
LJ          0.168231        -4.86358        0.846844
LJ          -2.04564        -3.20752        -1.25685
LJ          -3.43422        -1.80311        -5.64793
LJ           2.48216         1.77147         2.77545
LJ          -2.01232         3.78464        -2.51587
LJ          -3.68782        -4.63344         6.12036
LJ           6.13898        -6.39741        -2.93703
LJ          -3.80973        -1.76671         6.25962
LJ          -2.95113        -3.73885          5.5319
LJ         -0.863111         3.43939        -2.50188
LJ          -2.92257        -6.01211        -5.09991
LJ          -4.01013         6.13572        -4.11163
LJ          -3.56347        -2.59642         3.67039
LJ          -3.74513        -5.24884        -4.38532
LJ           6.11661         2.25203        -3.20684
LJ          -4.44508        -2.21715        -5.86804
LJ          -1.02439        -3.66695         6.33605
LJ           4.18531        -2.05026         -4.3998
LJ         -0.251608        -2.10142        0.554911
LJ           3.00836         4.66908        -4.32541
LJ          -4.30086        -4.95332         -2.0715
LJ         -0.935112         3.32056        -1.43024
LJ          -3.53599         0.35164        -5.63469
LJ          -3.69235         6.31688        -5.87737
LJ          -5.15827        -6.03055         5.25442
LJ          -6.30493         4.56172        -2.82494
LJ          -5.12815        -5.62827        -1.77621
LJ           3.62329        -6.17745        -2.02353
LJ          -1.89841        -5.21559        -3.56622
LJ          -1.47109         6.06341         1.95179
LJ           1.64847         2.96588        -2.22054
LJ          -3.23763        -5.99059        -3.93634
LJ            1.2599         3.87226         -1.8546
LJ           1.44146       -0.856342         2.47937
LJ          -1.38321         -4.1535        -1.39685
LJ           5.22005        -5.70686         1.36835
LJ           4.49569        -3.73311        0.360205
LJ          -1.97842        -4.17315         6.06133
LJ          -4.06015        -6.07986        -5.03033
LJ         0.0807111          2.7284        -3.90763
LJ           6.23314         5.66211          3.1633
LJ          -2.05029        -4.21699        -3.27631
LJ         -0.991025        0.410014        -1.57987
LJ           2.29947         1.33878        -3.38349
LJ          -1.74878         -4.1903        -5.75857
LJ          -2.93496        -2.65565        -5.93235
LJ          -4.41274         0.57903         5.44687
LJ           -6.2302         4.75843        -1.05378
LJ           -3.4831        -5.16386        -5.85594
LJ            1.5948        -4.45214        -1.98237
LJ            3.5115        -4.98649        -2.06086
LJ          -3.41825        -3.99928        -2.90157
LJ          -4.18263        -6.25951         4.94919
LJ           0.68006        -6.36198         -6.0653
LJ            1.1068        -4.23967         3.20572
LJ           1.16522          1.9515        -1.13489
LJ          -1.86012        -3.35873         5.43931
LJ         -0.703102         -4.2572        -5.28941
LJ          -1.19694        -3.24383        -5.67779
LJ           1.66269         5.86199         2.98754
LJ            1.3173        -1.90201        -1.04982
LJ           5.59456        -4.12335         1.41153
LJ          -4.19832        -4.39519          -5.532
LJ          -2.72047        -4.85906         5.64844
LJ          0.145034        -5.28337       -0.550566
LJ         -0.961924        -2.43602          5.5945
LJ          -1.44322        -2.09661        -6.15501
LJ          -3.31848        -5.67884         6.01442
LJ         -0.272639        -6.24745       -0.192161
LJ          -2.82033        -4.90745        -4.12646
LJ           -3.0828        -2.58988         5.81453
LJ          -1.39287        -4.60163        -4.46713
LJ          -1.87258        -2.45412        -5.14887
LJ          -1.81949        -4.58602        -2.27469
LJ          -5.81173        -1.87856         4.27269
LJ          -4.94386        0.761846       -0.433257
LJ          0.106528        0.160724        -1.76206
