108
#Comment!
LJ          -2.67426         5.92611        -5.09909
LJ          -2.81775        -4.22864        -6.12639
LJ           2.32486         -1.9155        -1.90197
LJ          -1.78219        -2.41505        -3.75914
LJ          -1.44891         -3.6208        -3.51206
LJ           -3.7047        -3.92862        -3.46833
LJ          -3.19255         2.04008        -6.09165
LJ          -5.97345        -2.74215         5.46216
LJ          -4.93863         -4.2786         -6.1348
LJ          -1.80031        -1.40325        -4.46907
LJ          -4.44944        -5.53554         -6.0784
LJ           2.77245         5.03067       -0.513807
LJ           4.01584         5.33141          0.1817
LJ           -2.8556        -3.31823        -3.63773
LJ          -1.04525        -2.84891        -6.46099
LJ          -6.02364         6.00222        -3.98277
LJ          -3.83244         -3.3669        -4.59216
LJ          -1.96345         5.27431       -0.693227
LJ          -3.17977       -0.884831        -5.25559
LJ          -2.30482        -5.78571        -6.17824
LJ          -2.46063        -4.92337        -5.10246
LJ          -2.76029        -6.41542         4.95734
LJ          -4.14069         6.26231         -6.1529
LJ           4.89308          5.8168        -1.04639
LJ          -1.81998         4.29484        -1.24822
LJ       -0.00283342         1.91087       -0.547933
LJ         -0.209823        -2.31874         6.04357
LJ         -0.830529        -4.19941         -5.7436
LJ          -2.25289         4.81296         3.44746
LJ          -2.05856        -2.24712        -1.06464
LJ          -2.03016        -4.90079        -3.76966
LJ          -2.56652         6.40098         2.28877
LJ          -4.20709        -1.73409        -4.81235
LJ          -3.96651        -3.71201        -5.99575
LJ          -1.20817        -3.15346       -0.752631
LJ            2.0341        -1.92299         6.27879
LJ           3.87102        -2.77279        -5.05472
LJ          -3.54393         -6.3009        -5.21911
LJ          -2.51693        -3.29738         6.03224
LJ            -2.292        -4.91174          5.7507
LJ           2.27815         4.37888        -1.30097
LJ          -4.64128        -5.43378        -4.64533
LJ           5.00856         6.40362        -2.18742
LJ          -3.88078        0.423668         3.28071
LJ          -2.82386        -5.79241        -4.60019
LJ           5.58551         1.87685       -0.895665
LJ          -3.32732        -4.41631         5.37286
LJ         -0.926583        -2.13774         3.07412
LJ          -3.37635        -1.16143        -4.15979
LJ          -5.73675        -1.62993       -0.160964
LJ           3.20474        -3.62477         3.84042
LJ           5.91931         6.08426        -3.42329
LJ           1.40547         4.08416        -2.29414
LJ           -3.3594        -2.30985        -4.18725
LJ          -3.65443        -4.99372         6.40007
LJ           5.86252        -4.08844         5.93754
LJ          -3.39544        -1.00338        0.681971
LJ           -3.8171        -2.40863        -5.49227
LJ             4.219         6.38457      -0.0934888
LJ          -3.97269        -4.65279        -5.37723
LJ          -2.96968         5.91022         4.04937
LJ           1.49463         5.66593        -1.61912
LJ          -3.26631        -5.45931        -5.69499
LJ           5.23138         5.83137        0.795474
LJ            5.1987        -2.60233        -3.54363
LJ           1.01031          5.9749         4.33319
LJ           5.26748         4.71235         1.82491
LJ           4.09419        -5.81199          -4.533
LJ         -0.688706        -2.72898        -3.98321
LJ          -5.16764         1.40571        -6.27213
LJ           1.34633        -6.24247        -6.44045
LJ           5.95745        -1.64177         5.61326
LJ          -2.83371        -5.38462        -3.01731
LJ          0.742119          2.8105        -2.68419
LJ           3.70702         4.83383       -0.900659
LJ          -2.72221         -3.9257         -4.5217
LJ          -2.41728        -1.99399        -6.00516
LJ         -0.534731         4.68086         2.71109
LJ          -3.19293        -4.77203        -3.98245
LJ          -6.45365         4.91981        -3.78259
LJ         -0.911347         1.33601        -5.47547
LJ          -2.60841        -1.61255        -1.62733
LJ           4.61059        -5.30842       -0.934545
LJ          -1.86439        -3.88938        -5.09113
LJ         -0.476609       -0.417018        -4.21233
LJ          -3.43439         3.12412         4.46865
LJ           4.73412         5.60359          2.0251
LJ          -1.63871          -4.131         5.94142
LJ            -2.776        -2.19861        -5.08559
LJ          -3.01003        -2.31923        -3.10204
LJ        -0.0325221         5.93133        0.510324
LJ           1.31234         -1.2116        -1.53009
LJ          -5.23839        0.359441        -5.13384
LJ          -5.06235        -4.43918         5.13511
LJ          -1.05136        -4.24736        -4.42926
LJ           1.65059         5.92434         5.28554
LJ          -1.82165        -2.81775        -4.93551
LJ          -3.01334        -3.18605        -5.46739
LJ           -1.8032        -4.65014        -5.97604
LJ         -0.681831          5.9596         3.75432
LJ          -4.25435        -4.44851        -4.13331
LJ          -1.83153        -3.61193        -6.11834
LJ          -3.45191         -6.0248         6.37024
LJ          -5.26922        -2.39226         6.27852
LJ         -0.325124         1.23845        0.291357
LJ          -3.33851        -5.87912         4.04087
LJ          -3.70988        -4.97154         3.74428
LJ           1.06394         2.07091        -1.34287
