108
#Comment!
LJ          -1.14706        -6.08297        -6.01586
LJ         -0.352891         5.85024        -4.04171
LJ          -1.83703        -0.63467        -4.54216
LJ          -2.00003        0.621715         -4.5808
LJ           2.01787         5.21503        -2.81066
LJ          -2.76827        -1.12714          5.2405
LJ           4.27852         4.60759        -2.19903
LJ           -2.6257        0.573348         6.11385
LJ          -1.22093        -3.24562        -4.69956
LJ          -2.04863        -2.07396         5.65044
LJ          -1.38539        -1.44426        -3.97439
LJ           3.01859         6.08361         2.21972
LJ          -6.09694        -5.93282         3.54452
LJ          -4.32464         3.96076        -2.87545
LJ          -2.61808        -6.20244       -0.395609
LJ          -5.48306         -1.2326       -0.751847
LJ           2.10105        -1.80587         6.45379
LJ           3.12279        -6.18247        -6.17816
LJ          -6.02334        -2.58517        -2.18792
LJ          -4.50444         1.33195        -5.08111
LJ          -2.31695        -2.77343        -2.90893
LJ          0.862844         5.77131        -4.82751
LJ           2.02444         6.43417         4.35782
LJ         -0.938635         4.90998        -5.54307
LJ           6.16428         1.90721        -1.92763
LJ           3.12201        0.729508         4.84329
LJ          -2.33774         -3.4403        -4.37204
LJ          -1.72519        -5.62848        -4.25693
LJ          -3.18112        -5.16076        -3.61961
LJ          -5.55273       -0.573861         -1.5859
LJ          -2.63543         -1.7738        -4.18905
LJ           4.53281        -1.61721        -2.72847
LJ          -3.02287        -1.03029        -6.25614
LJ           6.16085        -4.70964         4.02524
LJ           1.45683       -0.460437        -6.36313
LJ          -3.46708         1.40686        -4.43394
LJ          -1.74538        -2.78501        -3.86008
LJ            0.3079         4.14772         3.41211
LJ          -6.32676        -2.59698       -0.945502
LJ           6.42244        -1.49801        -1.52483
LJ            4.9288        -5.75065         3.65848
LJ          -5.98596        -4.33411         6.04841
LJ           2.99358         5.89488        -2.65422
LJ          -5.62691        -3.37918         2.81012
LJ         -0.753788          6.0705        -5.16176
LJ           1.03576           3.202         4.45701
LJ          0.300332        -6.27302        -4.98471
LJ          0.976006         4.38095         4.65473
LJ          -4.06315        -4.09346         5.78493
LJ           1.42122         5.29875         3.63093
LJ          -6.33822        -1.45234         3.53666
LJ           -5.5582        -1.03969        0.500985
LJ          -6.37365         3.32322        0.556584
LJ          -4.78468         3.24075        -3.87837
LJ          -0.34728        -5.53363        -5.12733
LJ          -6.19927        -1.25712        -2.49014
LJ           1.20917        -6.26526        -5.70865
LJ            5.0531         -0.6546        -3.01639
LJ           2.74661         0.06796        -5.68528
LJ          -4.78136         -4.7875         6.26223
LJ          -0.45008         1.85637        -2.31061
LJ          -5.93034        -5.96069         5.57079
LJ         0.0697695          5.1366        -4.67122
LJ          -5.80202         3.52715          1.8143
LJ           5.29445       -0.588252        -1.69964
LJ           1.81025         0.42842        -4.27596
LJ          -1.36459        -2.06697         4.24618
LJ          -1.97682        -1.20717        -5.44078
LJ           3.53833        -4.06793        -2.77273
LJ           2.26963        -5.11299        0.513723
LJ           4.34775        -6.37802         1.52259
LJ           -5.7638        -6.14589        -6.19643
LJ           -3.8875         2.93056        -3.29203
LJ          -5.33279         3.27627        0.828513
LJ            4.9379        -4.60957         3.49676
LJ         -0.448571        -2.63447        -5.50788
LJ          -3.72262       -0.417621        -5.96897
LJ           -2.8753         2.56426        -4.90373
LJ         -0.653971        -1.28377        -5.16959
LJ           4.02696         3.42053        -2.16359
LJ         -0.748884       -0.511867        -4.15095
LJ          -3.99738         2.51927        -4.39343
LJ           3.43532        -2.31333        -4.14871
LJ           1.61275         3.85408        -3.22336
LJ           3.00978       -0.421631       -0.779038
LJ           1.32958        -3.98673         0.68123
LJ           -6.3996         5.56566         0.37225
LJ          -3.61348        0.540666        -4.99505
LJ          -2.55009        0.183335        -5.76355
LJ          -3.00088         1.40325        -5.45734
LJ          -2.51093        -2.66699        -5.18284
LJ          -3.59608        0.841395        -6.29111
LJ          -1.68255         -2.2466        -4.73544
LJ          -3.78707        -4.16071        -5.86687
LJ          0.333588         5.77531         5.76945
LJ          -3.85392         3.06317         5.30453
LJ          -5.55927        -1.81532        -1.74754
LJ           3.52416         6.39318         3.13859
LJ          0.748671         5.89837         -3.6815
LJ         0.0433922         3.52907         5.85113
LJ          -1.84564         1.17669        -5.53925
LJ           1.55691        0.367076        -3.20966
LJ         -0.361193         4.71761         5.22618
LJ           5.36274        0.560359        -1.54735
LJ           1.52129       -0.369861         2.21921
LJ           0.26642         6.07473        -6.08798
LJ           6.12813       -0.652921        -1.07254
LJ           4.76561        -2.98522        -2.34322
