108
#Comment!
LJ          -2.80081        -6.39292        -6.30611
LJ          -2.31386        -3.17667         6.29546
LJ          -2.33517        -2.42072        -3.28313
LJ          -3.06048        -2.55453        -2.40361
LJ          -1.80148        -2.70755         -2.4109
LJ          -4.11451        -2.11021        -5.66733
LJ            3.0989         3.14928        -2.78143
LJ            6.1996        -4.41269        -6.12185
LJ          -3.32071        -2.57624         5.67808
LJ          -4.27069        -1.76472          -3.969
LJ           -1.0674         6.01253          6.1073
LJ           1.77431        -5.79788       -0.984795
LJ           5.05488        -6.25823         1.83072
LJ          -2.32181        -1.61877        -2.16531
LJ          -3.21712        -5.46628         5.58932
LJ           5.42391         2.96214        -2.94198
LJ           -2.4291        -1.33516        -3.43843
LJ          -3.35607         2.91298        -4.19601
LJ          -3.14417       -0.915312         -2.8023
LJ           4.81271        -1.66094        -3.88451
LJ          -2.68287        -3.08087        -4.23044
LJ          -1.96173         5.57227        -3.60825
LJ          -2.68497         5.01336         4.65075
LJ           4.22054        -6.22338        0.722244
LJ          -3.04207         2.02554        -4.87121
LJ           3.31417         1.35824        -1.13311
LJ          -2.31052        -2.87319        -5.56272
LJ         -0.821226        -5.97542         -5.5405
LJ         0.0806819         5.30851        -5.29164
LJ          -4.67439        -2.60539        -2.98126
LJ          -3.75232        -2.96622        -5.01112
LJ          -4.71923        -4.49944        -1.94967
LJ          -2.34131       -0.222861        -2.87328
LJ          -1.29043        -3.44308        -6.11941
LJ          -2.86388         -6.2513        -5.10997
LJ           5.97871         5.22784         2.74566
LJ          -1.36559       -0.950618        -4.31666
LJ          -2.05566         6.31597         5.40197
LJ          -3.73225        -1.42743        -4.86219
LJ          -2.18484         3.18159        0.294287
LJ           5.14088        -6.05658        0.243381
LJ          -4.39102        -4.49776          6.4429
LJ           1.81424        -1.60647       -0.395411
LJ          -4.38646         2.84558         3.30463
LJ          -1.42893         5.03074         5.97021
LJ           4.67577         1.52402         1.29813
LJ          -1.67937        -5.97286         6.18483
LJ          -1.13138        -5.34636          2.8739
LJ          -3.09405        0.922682        -4.61954
LJ             3.138       -0.434875         5.51736
LJ           3.74683        0.499204       -0.550372
LJ            4.8115         3.92088        -3.62905
LJ           4.82691         5.29666        0.298684
LJ          -4.19849        -1.45774        -2.66703
LJ          -4.37367        -4.01489        -5.25143
LJ          -4.69024        -2.99259        -4.03223
LJ          0.315072        -4.76106         3.83592
LJ          -2.57186        -1.14889        -5.37473
LJ          -4.45145         3.84943        0.400699
LJ          -4.18567        -3.05882         5.94902
LJ         -0.439215        -6.11776         6.24317
LJ           3.94606         6.01443       -0.242814
LJ          -1.97453        -5.76293        -5.60645
LJ           4.88533         4.32859        0.656092
LJ           5.41328       -0.873324         6.29228
LJ           1.09275        -5.49077        -1.95189
LJ          -4.49198         4.41535       -0.500762
LJ           3.60766         4.14362         4.08395
LJ          -1.99367         -1.9272        -4.41478
LJ           4.23551        -2.54999        -4.28901
LJ          0.989383          6.4046         1.70526
LJ          -4.90689        -5.09347         4.36691
LJ           4.12153        -1.06838        -2.84426
LJ           3.94059        -2.25275        -1.13261
LJ           3.07558         6.44519         1.34488
LJ          -3.01448        -2.15163        -5.80042
LJ          -3.53262        -2.59751        -3.30479
LJ          -1.06762        -5.55555        -1.93216
LJ          -3.18915        -4.56088        -6.33761
LJ           5.28858          3.9731        -2.55436
LJ          -3.23951       -0.460304         -4.9727
LJ          -1.54723       -0.973112        -2.87525
LJ           5.05329         6.44481         -2.3516
LJ           -1.5814        -5.14988         5.17022
LJ          -2.85841         4.08369         -4.4198
LJ           1.94894         6.04915         2.64131
LJ           4.85343         6.12608        -0.75192
LJ         -0.958803        -5.78685         -3.6882
LJ          -3.04547        0.301377        -3.52723
LJ          -1.68696     0.000788999          -1.851
LJ          0.508078        -3.79139       -0.843526
LJ           0.88092        -1.32268        -3.15457
LJ          -4.99485        -1.88861         -1.8571
LJ          -6.38064        -2.24261        -6.26723
LJ          -1.57286         6.19819          -4.372
LJ           1.15205         4.83437        -3.34783
LJ          -3.12579        -1.93211        -4.15436
LJ          -3.42519        -3.25057        -5.89753
LJ         -0.831943         5.17531        -4.64341
LJ           -2.1808        -4.86718         6.20081
LJ          -3.93293        -1.03229         -6.3455
LJ          -2.42635        -3.96018        -5.36123
LJ          -1.12486         5.15179        -5.72717
LJ           4.04646        0.168705         4.33796
LJ           2.40422         1.12984        -3.09281
LJ          -1.55254         6.23433        -6.01774
LJ          -5.99239        -3.11922        -5.80849
LJ          -1.27925       0.0935607         2.24375
