108
#Comment!
LJ          -2.06048        -4.53648        -5.15538
LJ          -1.85394        -3.58636         -5.5363
LJ          -4.75877          1.5395         -3.0467
LJ          -2.80276        -3.53816        -3.49107
LJ          -1.72594        -6.13012        -3.71293
LJ          -1.08614        -1.97833         -3.3358
LJ           1.46329        -1.03505         4.23391
LJ          -5.43031        -2.85508         5.94013
LJ          -5.41781        -2.92279        -5.84439
LJ           5.83771        -1.97961        0.998468
LJ          -4.72538          4.4493        -5.07379
LJ          -1.24722         2.82812        -1.30422
LJ           5.43431         6.06873         2.61786
LJ          0.302441        -2.55671        -3.85139
LJ          -2.09299         -5.6335        -5.06427
LJ          -3.57328         -5.7124        -2.25084
LJ          -1.95756        -1.35004        -4.64295
LJ           1.36953         6.15298         3.36118
LJ          -2.63492        -5.66027        -3.72924
LJ          -2.83639        -3.13979         5.43401
LJ          -1.17126        -4.59777        -4.41481
LJ           4.60182        -1.75857        0.600716
LJ          -1.20916        -4.93817        -5.69518
LJ           3.18821         6.00388       -0.613647
LJ          -1.73554        -5.97357        0.195573
LJ          0.298605         0.64256         -1.2333
LJ           -3.5731        -3.92224        -5.16944
LJ          -2.65446        -4.09635         5.86749
LJ            0.5407         5.59177         3.97616
LJ           5.13111         4.04799         5.33486
LJ         -0.411637        -3.86148         3.67065
LJ           0.24871        -3.46407        -2.74795
LJ          -3.03466        0.644424         1.65763
LJ          -3.58946        -2.10107        -5.11732
LJ           4.26494         2.97816         5.04728
LJ          -3.42955        -6.11935         0.71939
LJ          -3.78103         5.85037        -6.40585
LJ           5.12558        -5.76224        -1.23225
LJ          -3.68476        -3.21871         -6.2079
LJ          -3.01523        -4.49003         -5.8418
LJ         -0.106852         1.78075        -2.41513
LJ          -3.74229        -5.67529        -4.22409
LJ          -2.42018        -6.35139        -5.94793
LJ          -4.54949        -3.95927         5.52099
LJ           -3.0444        -4.28894        -4.31621
LJ           5.99384         2.43616        -4.48166
LJ          -2.76405        -3.07079        -5.70474
LJ          -1.84619        -4.30319        -6.39708
LJ           2.41403        -1.32362         5.68319
LJ           1.27518        -1.52843         1.54821
LJ           2.44767         2.23983        -1.67914
LJ           -5.4756        -3.52029        -4.45673
LJ            -0.782         2.99633        -2.42922
LJ          -2.66866         2.19845         3.67124
LJ          -3.80107        -5.84195        -6.28836
LJ           6.30467          5.4639         2.32027
LJ           5.07663        -4.27319         -2.6377
LJ          -2.36298        -5.33838        -1.98329
LJ           1.64624         5.76761         -2.0435
LJ         -0.192606          -5.819        -6.19774
LJ          0.106052         4.55122         3.78458
LJ          -1.15042        0.588753        -3.15765
LJ          -3.07953        -6.28864        -5.11121
LJ         0.0229225         1.83064         -3.6178
LJ          0.510285        0.273694         5.26629
LJ         -0.716894        -3.52602        -4.25023
LJ           3.23423         6.00373        0.483058
LJ           4.39175        -3.45738         2.24867
LJ          -2.59109        -5.39867         6.41073
LJ          -3.00796        -5.05558        -5.00822
LJ          -1.50785          1.7473        -3.81216
LJ            5.8248           1.922         4.75777
LJ          -1.81584        -2.81235        -4.45542
LJ          -0.81559        -1.02223       -0.924808
LJ           0.10822        0.665532        -3.59036
LJ         -0.902545        -3.56298        -5.22568
LJ          -1.92793        -3.15162         6.37369
LJ           5.86194       -0.790856          5.7427
LJ            4.3888         2.51178        -2.04368
LJ          -3.94941        -4.55175        -6.45528
LJ           2.44295        -1.94879        -2.36449
LJ           1.25271         5.31937        -1.02287
LJ           -2.1648         -4.6532        -3.40676
LJ          -4.57988        -5.16611         5.37074
LJ           1.90646        -5.93399         5.96681
LJ         0.0712638         5.49412          5.2388
LJ         -0.730117        0.755682        -2.17713
LJ          -2.39658        -3.80928         4.27568
LJ         0.0885436        -4.17408        -4.84255
LJ           0.47876        -3.09677        -4.91524
LJ           2.57688          5.9962         3.19766
LJ            3.1659        -1.73586        -3.28458
LJ           5.21724        -3.25707        0.389108
LJ          -2.80186        -3.29352        -4.62152
LJ          -3.37217        -5.14581         5.81906
LJ         -0.467211        -3.51111        -1.47621
LJ          -1.76172        -3.77589         5.48172
LJ         -0.795449        -2.24649        -4.41557
LJ          -3.40674        -6.24816         5.76419
LJ          -1.03068        -3.56974        -2.49002
LJ          -1.18138        -4.96033        -3.36743
LJ           -5.0623        -1.46768         4.23164
LJ          -1.91583        -3.86586        -4.31578
LJ          -1.81145        -2.08791        -5.85686
LJ          0.184648        -3.81515        -3.79747
LJ            6.3516         5.86288         5.87726
LJ          -4.50539         4.83275        -1.65271
LJ         -0.622217      -0.0261375         -1.3746
