108
#Comment!
LJ           -1.5025           6.242        -5.03229
LJ         -0.453888         5.74389        -5.20271
LJ          -1.97445       0.0385511        -2.44053
LJ          -2.63385         2.88878        -5.30466
LJ           2.86348         4.65586         -2.1273
LJ          -2.15925       -0.711765          5.0166
LJ           5.71615         5.34037        0.058914
LJ          -1.57183         3.68341         6.04995
LJ        -0.0722055        -4.79791        -5.20968
LJ          -0.30511        -1.18614         5.47352
LJ          -1.31162        -4.40305         -4.2962
LJ           3.28164         -6.4091         3.15722
LJ          -5.75068          5.1303         3.46555
LJ          -5.91859         3.80648         5.64351
LJ          -3.91368          2.0207         5.64299
LJ           4.71575       -0.310928        -3.03251
LJ           3.68014        -1.71985         4.56838
LJ            2.4811        -5.90016        -5.15502
LJ           5.63324        -1.37389        -1.80858
LJ          -5.06463       0.0388157        -2.06396
LJ          -1.87618        -3.05122        -3.10365
LJ          0.913473        -5.63087        -4.31128
LJ           1.53091         6.29612         2.34098
LJ           -2.9518        -2.29302        -2.80458
LJ          -1.11699         2.33699        -2.34467
LJ         -0.223667        -2.09185        -5.64053
LJ         -0.546519          -2.385         5.24517
LJ          -1.88357         4.84761         -4.4376
LJ          -1.00552        -1.36104        -3.27727
LJ           5.56487       -0.442601       -0.608993
LJ           -1.9626        -1.03701        -3.56548
LJ           3.47893        0.503503        0.192311
LJ          0.225202        -1.98628         6.11281
LJ          -5.05011        -3.25518         5.24727
LJ           4.58814        -3.46505        -2.81309
LJ           6.43777         2.75361         5.91085
LJ         -0.975013        -3.66195        -3.09643
LJ           3.10286         3.19127         4.85938
LJ           4.24871        -1.57622       -0.164121
LJ            4.7489        -1.99174        -1.28702
LJ           5.76297        -1.92136         4.52183
LJ           5.83332        -5.40594         3.73398
LJ           2.78921         3.43306        -2.39602
LJ           4.72803        -1.56319         3.96199
LJ          0.500577         5.94278        -4.94995
LJ           2.09998          3.9231         4.45126
LJ         -0.141063        -6.32093        -5.84558
LJ           1.79852         3.94246         3.30656
LJ          -5.28518        -6.08904         3.98662
LJ          -1.12328         6.41679         1.89657
LJ          -5.35647        -2.12967          5.5413
LJ         -0.192604        -5.21969        -1.15142
LJ          -5.21292          2.0797        0.836696
LJ          -4.70189        0.745051        -3.26818
LJ         -0.924363        -5.15009        -5.75054
LJ           5.06924        -1.11619        0.916409
LJ           1.47833         -6.0475         6.38845
LJ           4.10779       -0.837547       -0.877572
LJ          0.585147         2.18821        -1.34535
LJ           6.44424        -6.27834         3.35276
LJ           -0.1042         1.38225        -1.26076
LJ          -1.64483        -3.90136         1.11541
LJ        -0.0657757        -5.87713        -4.67736
LJ          -5.51232         3.16735         1.19677
LJ           6.25556        -1.42816       -0.872282
LJ          0.923419         3.45246        -3.93704
LJ          -3.16005        -1.56727         -5.0109
LJ          -2.92484        0.185707         4.64029
LJ           5.14034        -2.37771        0.216328
LJ           2.04419        -5.55787         2.29716
LJ           4.23041         -6.0457         3.99595
LJ          -5.59407        -4.00086         4.62087
LJ            -3.582         1.52642        -5.09238
LJ           -4.4922          3.0162        0.922523
LJ           5.18702        -3.38971         2.43024
LJ          -1.99159        -4.35854         -1.5822
LJ          -1.94676         2.63403         6.29972
LJ          -2.90052         2.21083         6.17141
LJ          -2.75786       -0.735834          -2.599
LJ           4.20766         4.72673        -2.13112
LJ          -1.82317        -2.05831         -3.7802
LJ          -2.37421         1.48327         4.23083
LJ           5.91339        -3.21691        0.296377
LJ           3.56739         3.88633         -1.5271
LJ           3.74301        -1.87228        -1.58146
LJ            2.3802        -5.55702         4.53796
LJ          -4.77276         1.97358        -2.42732
LJ          -5.63406         2.98747        -6.36088
LJ          -2.22934         2.26168         5.09803
LJ           -4.1012        0.664845        -4.76266
LJ          0.912159        -1.44471         5.48275
LJ          -3.80537         3.05123        -5.30967
LJ           0.60375        -5.48257        -5.95591
LJ          -5.53955         5.99626         2.93865
LJ          0.339092         5.30619         3.14661
LJ           6.08607         4.23159         5.97226
LJ           5.08911        -1.63715        -3.88039
LJ           3.35859        -5.94833         4.62965
LJ         -0.812089         5.42567        -4.07393
LJ          -1.05859         2.33223         3.15308
LJ          -4.88904         1.33505        -5.30745
LJ          -2.91666       -0.853145         4.07501
LJ          0.951378         4.74577         3.97698
LJ           4.06399         -1.2939        -3.20197
LJ          0.507473        -1.39254        0.402152
LJ           1.80062          5.9308        -5.61177
LJ            -6.032        -1.68209        0.393897
LJ           3.50358       -0.692877        -2.00092
