108
#Comment!
LJ          -2.30468        -6.02108         -6.1352
LJ          -2.23347        -2.93294         5.71599
LJ          -2.06534        -2.50532        -3.42101
LJ          -3.18372        -2.80239        -2.50218
LJ          -2.25916        -2.15242        -2.30016
LJ          -4.09415        -2.81339         -4.9591
LJ           1.89978         2.97566        -3.41615
LJ           6.43809        -4.08028        -6.16854
LJ          -3.05976        -3.45337         5.04476
LJ          -4.03921        -1.60079        -4.80121
LJ           -1.8493          6.2575         6.17729
LJ           1.62148        -5.63613        -1.40448
LJ            5.0644        -6.16992         1.89956
LJ          -2.91838        -1.51994        -3.05911
LJ          -1.73815        -5.28456         5.17014
LJ           5.81196         3.49713        -3.41316
LJ          -3.46826       -0.972177        -4.11032
LJ          -2.75187         3.41686        -4.09734
LJ          -3.87313       -0.941683        -3.02866
LJ           6.16933        -2.61513        -3.69669
LJ          -2.41351        -3.36976        -4.34782
LJ          -3.14659         5.44147        -3.45551
LJ          -2.42058         4.97588         5.55966
LJ           4.57623         5.71013        0.858835
LJ          -3.18447         2.43568        -3.55915
LJ           2.72503        0.794326        -0.97179
LJ          -1.21466        -3.12591        -5.63197
LJ          -1.08521        -5.34406        -5.98033
LJ         -0.154165         5.34759        -6.38482
LJ           -3.5498        -3.78857         -3.0207
LJ          -3.52576        -3.47565        -3.98381
LJ          -4.73565        -5.34522        -1.08166
LJ          -2.75061        0.245372        -2.83793
LJ          -2.55107        -4.12028        -6.32686
LJ          -3.47754        -5.67088        -5.59576
LJ            5.2578         6.22968          3.6216
LJ         -0.376428        -1.02423        -4.52671
LJ          -3.49494         6.31705         6.33388
LJ           -3.1933        -1.22164        -5.37515
LJ          -2.20327         4.54413         1.25343
LJ           4.71752         6.44531       -0.710441
LJ          -3.87165        -5.32056        -6.40636
LJ           2.13311        -2.69046       -0.594168
LJ          -4.29291         2.38544         3.30381
LJ          -1.87948         4.13595         6.32753
LJ           4.90004         1.57637         0.93252
LJ          -1.99671        -5.14071         6.28956
LJ          -1.10084        -3.96007          2.3442
LJ          -2.86341        0.184351        -4.40182
LJ           4.36127       -0.472704        -6.01238
LJ           3.25664        0.162062      -0.0309369
LJ           5.02744         4.26939        -3.77881
LJ           5.53322         5.19162        0.121529
LJ          -4.18204        -2.14298        -2.73267
LJ           -4.6848        -4.08349        -5.19126
LJ          -5.45122        -2.57683        -5.18244
LJ         -0.291437        -4.70433          3.4847
LJ          -1.44214        -1.37822        -4.83104
LJ           -5.3936         4.68325        0.978737
LJ          -4.39685        -3.98577         6.36771
LJ          -1.21122        -5.79993         5.85334
LJ           3.07612         6.16767       -0.589122
LJ          -2.84979        -4.73235        -5.38035
LJ           4.98104         4.29518         0.21889
LJ           5.32391        -0.95546        -6.26405
LJ           1.54846        -5.98538        -2.35636
LJ          -5.64198          4.9499       -0.178091
LJ           2.58289         4.67282         4.85345
LJ          -1.30746         -1.6488        -3.72882
LJ           4.24699        -2.03107        -4.59787
LJ          0.923375         5.65651         2.98965
LJ          -4.79809        -5.14951         5.83331
LJ           6.27425        -2.03318        -2.67846
LJ           3.64584       -0.394961        -1.43788
LJ           2.73224         6.21666        0.380439
LJ          -2.91883        -2.36686        -4.93185
LJ          -3.62505        -2.23392        -3.78005
LJ          -0.97958        -6.11262        -1.57127
LJ          -3.60911        -3.96695        -5.56415
LJ           5.50623         4.10211         -2.5591
LJ          -2.37263       -0.768963        -4.74487
LJ           -2.2109       -0.513479        -3.74683
LJ           3.88173         6.35697         -2.4368
LJ           -1.2137        -4.61948         5.77055
LJ          -2.19664         5.39842        -4.12595
LJ           1.55317        -6.21126         2.53245
LJ           4.76527         5.35048       -0.586734
LJ         -0.670645        -5.99879        -4.06629
LJ          -3.61739       0.0316608        -3.36859
LJ          -1.52578       -0.838138        -2.03953
LJ            1.0002        -4.92183       -0.534358
LJ          0.977539        -1.13325         -2.5238
LJ          -4.75973        -1.23362        -2.40133
LJ          -5.90159        -2.99212         5.94779
LJ           -1.2028        -5.90085        -5.09727
LJ           1.47139         5.36255        -3.86477
LJ          -2.58494        -1.47295        -4.03138
LJ          -2.47197        -3.00275        -5.77252
LJ         -0.765438         6.21903        -6.12663
LJ          -2.48393        -4.41355         5.44578
LJ          -4.63198        -2.28745        -5.69454
LJ           -1.9679        -4.09668        -5.36975
LJ          -1.27245         5.06426        -6.41204
LJ           4.55846        -0.80094         4.30682
LJ           2.49644        0.996779         -2.0468
LJ          -1.80431          5.9329         -5.6596
LJ           -5.4709        -3.83981        -6.16564
LJ         -0.905258        0.734892         1.47193
