108
#Comment!
LJ          -2.55145        -5.43579        -4.68897
LJ          -2.14559        -3.67725          5.9239
LJ           -2.0097        -2.86411        -3.78198
LJ          -3.24184        -2.85601        -3.08874
LJ          -3.23762        -2.12245        -2.17903
LJ          -4.00929        -2.94666        -3.96433
LJ          0.462177         2.75743         -4.1637
LJ          -5.85502        -2.98462         5.77387
LJ          -3.49162         -4.5941         5.57134
LJ          -2.86079        -1.59276        -5.42864
LJ          -3.00831        -5.96822        -6.31782
LJ           2.15988         -5.9487        -1.17906
LJ           4.86381         6.07806         1.39949
LJ          -2.77511        -1.15916        -2.59983
LJ          -1.05727        -4.51458         5.12058
LJ           6.32964         4.17373         -3.9608
LJ          -3.59987        -1.27626        -4.40348
LJ          -2.46581         3.14044        -3.42579
LJ          -4.12989        -1.85976        -3.68538
LJ          -4.80622        -3.52246        -3.65776
LJ          -2.39246         -3.3556        -4.98031
LJ          -3.35261         5.20221         -4.3556
LJ          -2.30528         5.89889        -6.17445
LJ           4.77351         4.85962         1.30155
LJ          -2.86918         3.66951        -2.54229
LJ           1.75551        0.431043       -0.708349
LJ         -0.392255        -3.74619        -5.22831
LJ          -1.46701        -5.14049         5.79444
LJ         -0.112992         5.50281         5.91055
LJ          -2.03618        -3.78232        -2.55806
LJ          -2.99761        -3.30943        -4.17608
LJ          -4.78022        -6.39973      -0.0475622
LJ          -2.95766       -0.557696        -3.52966
LJ          -3.00176         -3.5951        -6.11809
LJ          -3.37358        -5.29873        -3.54573
LJ            4.3216        -5.36512         4.37544
LJ          0.182925        -1.12791        -4.91486
LJ          -3.74162        -5.50282        -5.71534
LJ          -1.72738        -1.60695        -5.67117
LJ          -2.23544         6.19933          2.4157
LJ           4.21798         5.97503        -1.48858
LJ          -4.24206        -5.39242         5.58924
LJ           2.51596        -4.03643       -0.866184
LJ          -4.17792         1.83505          3.2977
LJ          -1.76973         4.37696        -5.69359
LJ           5.12055         1.62892        0.440512
LJ            -2.553         -4.9891         6.10963
LJ         -0.709332        -2.81543         2.35634
LJ          -3.83902       0.0381398        -4.31276
LJ           5.18371       -0.504498        -3.95988
LJ           3.27552       -0.954024         1.14149
LJ           5.29886         4.77131        -3.65208
LJ           5.10059         4.96506        -1.05378
LJ          -3.99562        -1.48147        -2.71967
LJ          -3.87451        -4.05531        -5.99131
LJ           6.03505        -2.98829         -6.0411
LJ          -1.47492        -4.19672         2.67658
LJ          -1.61105        -1.13186        -4.47667
LJ           6.11599         5.74635         1.54511
LJ          -5.01417        -4.07774         6.28607
LJ          -2.17459         -6.1453          5.6875
LJ           2.14876         5.80109        -1.28557
LJ          -2.99327        -4.73945        -5.64306
LJ            5.1496         4.60401        0.291205
LJ           5.85007        -1.67015        -5.96666
LJ           1.85859         5.92129        -3.47602
LJ          -5.52137         5.53213        0.149497
LJ           1.26272         5.37154         5.70047
LJ           -2.0551          -2.107        -2.51717
LJ            4.6962        -1.04574        -5.12804
LJ            1.5256         5.90482         4.09997
LJ          -6.11078        -4.03127        -6.30321
LJ          -4.38251        -3.44199        -2.77956
LJ           3.47448         2.25018        -1.47317
LJ           2.19855         6.06865       0.0251613
LJ          -3.44301         -2.4784         -5.3073
LJ          -2.73527         -2.3244        -4.23187
LJ         -0.892742         6.19264       -0.390015
LJ          -3.44224        -4.14259        -4.78973
LJ            5.6433         4.24556        -2.75462
LJ          -1.25199       -0.717842         -5.5836
LJ          -2.48531        -1.53103        -3.58671
LJ           3.05705        -6.43323        -2.62794
LJ           -1.1874        -4.04004          6.2441
LJ          -2.06089        -5.50452        -3.76806
LJ          0.444367         6.36946         2.87945
LJ           4.18948         5.17092       -0.128651
LJ         -0.485777         6.07152        -6.03727
LJ          -4.36468       -0.904301        -3.74553
LJ           -1.7846        -1.16033         -2.0982
LJ           1.45087        -5.99896       -0.157967
LJ           1.04016       -0.857759         -1.7718
LJ          -5.10575       -0.614399         -2.8049
LJ          -5.68643        -4.52146         5.34587
LJ          -1.89187        -5.54181        -6.08788
LJ           1.77189         6.05351        -4.61447
LJ          -1.75855         -2.3925        -4.72295
LJ          -2.42045        -2.61731        -6.23014
LJ         -0.225997        -6.29216         5.73099
LJ          -2.14641        -4.44753         5.17875
LJ          -4.17753        -3.38087        -4.92883
LJ          -1.63132        -3.80379        -5.62492
LJ          -1.40351         6.29973         6.21308
LJ           5.17493        -1.98773         4.38563
LJ           2.06724        0.841249        -1.78332
LJ          -1.14806         5.10785        -6.26504
LJ          -5.07141        -4.05496        -5.41625
LJ         -0.451282         1.51074        0.533415
