108
#Comment!
LJ          -3.37622        -5.03027        -5.42871
LJ          -3.28768        -4.14211         -6.0565
LJ          -6.17859       -0.519733      -0.0625717
LJ          -3.83282        -4.17672        -4.08802
LJ          -2.86705         -4.8602        -3.27787
LJ          -2.77484        -3.59908        -4.16964
LJ         -0.776006         1.59625         4.29336
LJ           -3.4602        -2.39299         4.97729
LJ          -4.67011        -2.95651        -5.03746
LJ           2.24509        -2.49227        -2.35251
LJ          -4.15113         6.23598         6.18527
LJ           0.40986         3.30359        -1.59447
LJ            4.7292         6.15241         1.21038
LJ          -2.05956        -4.21116        -4.72572
LJ          -2.60496        -5.25932        -6.45169
LJ          -3.45856        -5.70745        -1.74782
LJ          -3.54315        -3.44805        -5.12414
LJ          0.108445          5.4461         2.61448
LJ          -4.02695        -4.98203        -3.34893
LJ         -0.960021        -4.86822         5.56571
LJ          -1.87232        -5.28851        -5.18326
LJ           6.31242         -2.0069        -5.73222
LJ           -1.0544        -5.98849         -4.2629
LJ           4.86953         6.04538         2.49215
LJ         -0.778759        -4.83131          2.6606
LJ           0.51434         2.04442       -0.418444
LJ          -3.60794          -3.386         5.47833
LJ          -1.88016        -3.28314         6.15445
LJ         -0.912526         5.29793           2.081
LJ           1.95799        0.123852         2.58711
LJ          0.436327        -5.22554         6.05547
LJ          0.504131        -5.50979         1.42821
LJ          -1.93686        -3.32255         -2.0393
LJ          -3.68346        -1.68346        -5.49001
LJ            2.4185         1.11389         2.61175
LJ          -1.72372         3.16794        -3.12624
LJ           -4.0999        -4.24152         6.08401
LJ           6.43616         6.24099        -3.43304
LJ          -3.48679        -1.75996         6.26977
LJ          -2.73539         -3.9055         5.92293
LJ         -0.285878         3.33643        -2.41976
LJ          -3.05893        -5.95175        -4.62762
LJ          -4.35224        -6.22654        -3.48417
LJ          -3.58351        -2.19593         3.38029
LJ          -4.11118        -5.41529        -4.56124
LJ           6.14539         2.23839        -2.94697
LJ          -4.23022        -2.43933        -6.31486
LJ         -0.452755        -3.46022         5.75544
LJ           4.58606         -2.1859        -3.84946
LJ         -0.877383        -2.20445        0.898322
LJ           3.03662         5.12963        -4.80109
LJ          -4.35982        -5.19212        -2.07137
LJ         -0.799765          3.3234        -1.37007
LJ          -3.74866      -0.0936097        -4.99699
LJ          -3.32248        -6.39764        -6.14838
LJ          -4.61506        -5.71072         6.03083
LJ          -6.08446         3.94133        -2.53936
LJ           -5.4895        -5.35579        -2.54421
LJ           3.94223        -5.75551        -1.90858
LJ          -2.27407        -5.51814        -4.07074
LJ          -1.59267         6.21731         2.00203
LJ           1.80335         2.97907        -1.87554
LJ          -3.16481        -5.93074        -3.55882
LJ           1.26808         4.20114        -1.33951
LJ           1.81552       -0.801327          1.9966
LJ          -1.25241        -4.83919       -0.733596
LJ           5.46211        -6.12757         1.55856
LJ           4.69873        -3.89867       0.0676354
LJ          -1.57843         -4.4451          6.4015
LJ          -4.35377         6.20956        -5.41054
LJ            0.3052         3.10972        -4.28328
LJ           6.22164          6.4227         2.79878
LJ          -2.03681        -4.42412        -3.76202
LJ         -0.869658        0.774022        -1.78529
LJ           2.59428         1.62144        -3.20301
LJ          -2.26034        -4.44376        -5.76707
LJ          -3.30048        -2.74065        -5.75414
LJ          -3.83955        0.803589          5.4482
LJ          -5.79252         5.20524        -0.99415
LJ           -4.1922        -5.70387        -5.87359
LJ           1.22844        -5.45237        -2.25484
LJ           3.96565        -4.66517        -2.34762
LJ          -4.07463        -3.72511        -2.61168
LJ          -3.83941        -6.27956         5.29951
LJ          0.310549        -6.32155        -5.93348
LJ           1.88121        -3.46743         3.31941
LJ           1.24337         2.55224        -1.02901
LJ          -2.50087        -2.61257         5.06608
LJ         -0.615721         -3.5563        -5.28702
LJ          -1.65107        -3.13148        -4.96934
LJ           1.02986         5.79759          2.9583
LJ           1.22865        -1.79731       -0.997147
LJ           5.82686        -3.30892         1.54311
LJ          -4.27169        -4.60021        -5.18806
LJ          -2.13605        -4.58534         5.36012
LJ          -0.28403        -5.13792       -0.126001
LJ          -0.75353        -2.15486         5.78323
LJ          -1.76002        -2.33951        -6.15964
LJ          -3.36287        -5.39026         5.68896
LJ         0.0271142        -6.44045         0.17496
LJ          -3.00693         -4.7015        -4.27365
LJ          -2.97139        -2.76979         6.15926
LJ          -1.24493        -4.84479        -4.28912
LJ          -2.20724        -2.10636        -5.22705
LJ          -2.02193        -4.80423        -1.66049
LJ          -5.50234       -0.886389         4.01436
LJ          -4.74425        0.157591       -0.215224
LJ          0.262855        0.464557         -1.6844
