108
#Comment!
LJ          -2.59519        -5.51727        -4.84498
LJ          -2.28856        -3.56905          5.9615
LJ          -1.95887        -2.92418        -3.86248
LJ          -3.44367        -2.80441        -2.94827
LJ          -3.06071        -2.14567        -2.00695
LJ          -3.96991         -2.7976        -4.28758
LJ          0.649754         2.78523        -4.06655
LJ          -5.78028        -3.22569         5.98118
LJ           -3.3126        -4.38155         5.49389
LJ          -3.03763        -1.46533        -5.46545
LJ          -2.72307        -6.14758        -6.32737
LJ           2.05301        -5.96443        -1.19001
LJ           4.86111         6.09388         1.47295
LJ          -2.81364        -1.08093        -2.61258
LJ          -1.06224        -4.59513         4.93455
LJ           6.22922         4.10455        -3.88455
LJ          -3.57582        -1.21891        -4.50927
LJ          -2.46572         3.17075        -3.57454
LJ          -4.24508        -1.91085        -3.78432
LJ          -5.16397        -3.46746        -3.67404
LJ          -2.28536        -3.41526        -4.73739
LJ          -3.36255         5.21054        -4.22722
LJ          -2.30256         5.62481        -6.31901
LJ           4.82003         5.07836          1.2635
LJ          -2.94614         3.50475        -2.60701
LJ           1.89514        0.481363       -0.768065
LJ         -0.503378        -3.72938        -5.34225
LJ           -1.4767        -5.26466         5.99906
LJ         -0.253755         5.47133         6.03782
LJ          -2.20256        -3.91726        -2.53245
LJ          -3.07558        -3.27833        -3.80451
LJ          -4.75629        -6.23475       -0.189223
LJ          -2.94709       -0.403021        -3.44091
LJ          -3.07501        -3.51247        -6.08352
LJ          -3.25219        -5.46498        -3.70704
LJ           4.44334         -5.5386         4.28128
LJ       -0.00757242        -1.02713        -4.98884
LJ          -3.84911        -5.48112        -5.71486
LJ          -2.00304        -1.61276         -5.5802
LJ          -2.23206         5.98233         2.26371
LJ           4.29694          6.0734        -1.41514
LJ          -4.02915        -5.47214          5.5617
LJ           2.46929        -3.85212       -0.830412
LJ          -4.19295         1.90669          3.2986
LJ          -1.75243         4.23893        -5.81086
LJ           5.09421         1.62149        0.506727
LJ          -2.58532        -4.87289         6.10627
LJ         -0.754104        -2.90696          2.3225
LJ          -3.71619       0.0947837        -4.23195
LJ           5.07592       -0.468682        -4.22118
LJ           3.27841        -0.81768         1.00441
LJ           5.29724         4.68742         -3.6734
LJ           5.31573         5.00396       -0.908114
LJ          -4.03968        -1.70155        -2.70639
LJ          -4.11817         -4.2176        -5.78628
LJ           6.15128        -2.93242        -5.90765
LJ          -1.32264        -4.31409         2.78982
LJ           -1.6073        -1.16424        -4.28583
LJ           6.34134         5.61217         1.50265
LJ          -4.98926        -3.88038         6.19826
LJ          -2.19486        -5.90475         5.59739
LJ           2.29407         5.96084        -1.11174
LJ          -2.91457        -4.55848        -5.73484
LJ           5.07073         4.50603        0.257273
LJ           5.78985         -1.5358        -6.04918
LJ           1.99397         6.07116        -3.28854
LJ          -5.58234         5.43189        0.106018
LJ           1.45693         5.26705         5.60788
LJ          -2.23737         -1.9983        -2.73317
LJ           4.60609        -1.19193        -5.02588
LJ           1.46264         5.83189         3.98417
LJ          -5.98976        -4.23812        -6.36364
LJ          -4.34512        -3.13876         -2.7332
LJ           3.48485          1.9438        -1.47708
LJ           2.28926         6.02072      -0.0705186
LJ          -3.31582        -2.60556        -5.12945
LJ          -2.90974        -2.18035        -4.35785
LJ         -0.908104         6.27199       -0.544098
LJ          -3.36132        -3.96927        -4.72846
LJ           5.62818          4.2205        -2.74073
LJ           -1.1638       -0.704556        -5.53972
LJ          -2.42443        -1.51053        -3.65191
LJ           2.93248         6.40046        -2.66908
LJ          -1.25847        -3.98381         6.32813
LJ          -2.20625        -5.73463        -3.75302
LJ          0.573434         6.46121          2.7805
LJ           4.16088         5.15719       -0.151596
LJ         -0.439834         6.22984        -5.66381
LJ          -4.26217       -0.658745        -3.72581
LJ          -1.64977        -1.21234        -2.11848
LJ           1.35983        -5.80943       -0.215473
LJ           1.02772        -0.90427        -1.87365
LJ          -4.98181       -0.713353        -2.74776
LJ           -5.7603         -4.3806         5.30859
LJ          -1.77527        -5.78523        -6.06515
LJ            1.7471         5.98992        -4.46278
LJ          -1.81335        -2.35308        -4.85086
LJ           -2.2613        -2.59939        -5.99979
LJ         -0.195673        -6.43206          5.7732
LJ          -2.14035        -4.40546          5.2329
LJ          -4.26207        -3.40697         -5.1893
LJ          -1.64786        -3.82103        -5.64701
LJ          -1.49924         6.33481         6.25827
LJ           5.09308         -1.8324         4.37179
LJ           2.12281        0.838427        -1.79572
LJ          -1.16047         5.06486        -6.20567
LJ          -5.08127        -4.06322        -5.55182
LJ         -0.511018         1.40986        0.656369
