108
#Comment!
LJ          -2.80746        -5.56639        -5.33879
LJ          -2.33561        -3.50034         5.99483
LJ          -2.04119        -2.90211        -3.57328
LJ          -3.37277        -2.60523        -2.87085
LJ          -2.73163        -2.00729        -1.84749
LJ          -3.89534        -2.73847        -4.48465
LJ           1.08677          2.8509        -3.83978
LJ          -6.13726        -3.49795        -6.43044
LJ          -3.00593        -3.82083         5.33357
LJ          -3.64691        -1.47662         -5.5133
LJ          -2.38422         6.35285         6.37529
LJ           1.82982        -5.74278        -1.25685
LJ           4.92472         6.42342         1.69212
LJ          -2.93335        -1.25099        -2.61668
LJ          -1.22625        -4.80642         4.76259
LJ           6.10422         3.84193        -3.64801
LJ          -3.54773       -0.905329        -4.27817
LJ           -2.5067         3.25583        -3.85179
LJ           -4.2824        -1.58579        -3.81403
LJ          -5.82393        -3.24813        -3.74976
LJ          -2.31638        -3.35921        -4.49635
LJ          -3.37031         5.24324        -3.93245
LJ          -2.29881         5.21082         6.21074
LJ           4.94942           5.213        0.906795
LJ          -3.08633         3.11619        -2.83666
LJ           2.20568        0.556193       -0.798456
LJ         -0.969797        -3.69873         -5.7387
LJ           -1.2076        -5.05983         6.40015
LJ         -0.290713         5.21147         6.23878
LJ          -2.66491        -4.09535        -2.61715
LJ          -2.97957        -3.35791        -3.56626
LJ          -4.74053         -5.9095       -0.505247
LJ          -3.05307       -0.174374        -3.24977
LJ          -3.48898        -3.53686        -6.19853
LJ          -3.30285        -5.67489        -4.31956
LJ           4.72807        -5.94359         4.06074
LJ         -0.138268       -0.918671         -4.9647
LJ          -3.68246        -5.79148        -5.77401
LJ          -2.40131        -1.31124        -5.54341
LJ          -2.22257         5.47793         1.90988
LJ           4.47996         6.19924        -1.16114
LJ          -3.55316        -5.46143          5.6432
LJ           2.35599        -3.43613       -0.747232
LJ          -4.22801         2.07396          3.3006
LJ          -1.82138         3.92124        -6.03193
LJ           5.03017         1.60567        0.658802
LJ           -2.2884        -4.92548         6.43276
LJ         -0.880746         -3.1877         2.26995
LJ          -3.37852         0.27541        -4.34934
LJ            4.8387       -0.358985        -4.84841
LJ           3.28346       -0.496771        0.681113
LJ           5.13396         4.61598        -3.74285
LJ           5.60151         5.08935       -0.363092
LJ          -4.25847        -1.99921        -2.64137
LJ          -4.05235        -4.28484        -5.67874
LJ          -6.39391        -2.80199        -5.70731
LJ         -0.945725        -4.52677         3.04787
LJ          -1.37927        -1.33754        -4.36452
LJ          -6.14709         5.29426         1.33232
LJ          -4.46599         -3.9249         6.32288
LJ          -2.44275        -5.53965         5.51846
LJ           2.72196         6.00248        -1.29836
LJ          -2.84054        -4.45057        -5.62891
LJ           4.93172         4.39344        0.162418
LJ           5.63507        -1.31047        -6.18629
LJ           1.84054         6.36239        -3.11576
LJ          -5.73401         5.25823       0.0382486
LJ             1.868         5.04733         5.36397
LJ          -2.01161        -1.90691        -3.06419
LJ            4.4329        -1.57793        -4.81876
LJ           1.28077         5.68077         3.70367
LJ          -5.65219         -4.7829          6.2576
LJ          -5.05441        -2.62648        -2.56401
LJ           3.45092         1.19126        -1.49281
LJ           2.42199         6.06165        0.189134
LJ          -2.96274        -2.57779        -5.13641
LJ          -3.07714        -2.04626        -4.23978
LJ         -0.939119         6.45895       -0.903174
LJ          -3.45519         -3.7083        -4.76355
LJ           5.63774         4.14745        -2.72892
LJ          -1.44771       -0.635237         -5.4579
LJ          -2.61109        -1.17264        -3.72104
LJ           3.09757         6.27848        -2.36492
LJ          -1.41982        -3.99261          6.1688
LJ          -2.13935        -6.37181        -3.77478
LJ          0.905949        -6.28133         2.60198
LJ           4.24941         5.21086        -0.26817
LJ         -0.516577          -6.383        -5.07646
LJ          -3.99836       -0.476258        -3.42819
LJ          -1.55644        -1.25232        -2.24672
LJ           1.19133        -5.44142       -0.296092
LJ           1.00833       -0.993278        -2.10345
LJ          -4.58906       -0.941101        -2.73049
LJ          -5.80931        -3.87448         5.47461
LJ          -1.43298        -5.87561        -5.56144
LJ           1.68442         5.79574        -4.13289
LJ          -1.94422        -2.34948        -4.45226
LJ          -2.25141        -2.90531         -5.8361
LJ         -0.351584        -6.39651          5.9353
LJ          -2.06663        -4.49231         5.46261
LJ          -4.32241        -3.29233        -5.75403
LJ          -1.96225        -3.98653        -5.57172
LJ          -1.33427         6.00647         6.16269
LJ           4.90403        -1.47094         4.34365
LJ           2.31624        0.891127         -1.9306
LJ          -1.42285         5.27178        -5.85837
LJ          -5.32588        -3.81772        -5.83233
LJ         -0.649446         1.17392        0.942395
