108
#Comment!
LJ          -1.67181         5.51748        -4.53117
LJ          -2.95797        -4.43148        -5.46436
LJ           -2.4637        -2.96855        -5.26592
LJ          -2.28152        -1.77813        -3.39349
LJ         -0.945113        -1.63483        -3.34722
LJ          -3.04251       -0.890872        -4.70978
LJ           5.60924          2.2123        -1.36193
LJ          -5.18429        -1.68465        -5.53698
LJ          -3.80735        -2.71035          6.0377
LJ           -4.6461         1.19555        -3.52008
LJ         -0.201214          4.6009         5.74262
LJ          0.930883        -4.90095        0.857971
LJ           4.39337         5.53059          3.1283
LJ          -2.51374        -1.42227        -1.87305
LJ          -1.45356         -3.8792         -4.9551
LJ           4.58414         2.83616        -1.73706
LJ          -1.31785        -1.23314        -1.37997
LJ          -5.31909         2.30465        -6.01337
LJ          -4.67706        -1.46561        -2.81268
LJ          -4.04034         0.93175        -4.66067
LJ          -3.91429        -4.13379        -5.77347
LJ          -1.48297         5.47162        -3.41273
LJ         -0.303516         4.56569         4.64295
LJ           3.56113        -5.77224         0.90409
LJ          -1.47441        0.271691        -6.11139
LJ           5.26256         3.48084       -0.707699
LJ          -1.39988        -2.06491        -4.26867
LJ         -0.848838         6.22532         -2.9438
LJ         -0.739549         -5.8465        -3.80234
LJ          -6.25397       -0.561791        -3.62787
LJ          -5.14732        -0.73765         -6.1283
LJ          -2.57205        -2.26611        -2.48422
LJ          -2.08192        -1.14797        -4.28217
LJ          -2.97774        -2.66399        -6.16226
LJ          -2.42149         4.54027         5.86832
LJ          -5.48423         2.98358        -2.31046
LJ          -1.53104       -0.579132        -5.41433
LJ          -1.11166         4.32517         3.96523
LJ          -3.52356          -1.702         -2.8173
LJ          -4.02337       -0.397772        -1.89672
LJ           4.02058         -4.6221         2.52202
LJ          -5.06595        -1.62498         5.76811
LJ          0.628769         3.21101       -0.187891
LJ          -4.64879         5.10573         3.22111
LJ         -0.150589         6.25215        -3.70236
LJ           2.76102         1.82441         3.01093
LJ         -0.459181         5.54419        -5.45174
LJ         -0.550212         3.34231          5.0352
LJ          -3.69559        -1.45188        -5.69107
LJ           2.43331         3.50125         2.44231
LJ            5.3905        0.407268       -0.902323
LJ           6.03245         3.14386        -1.40391
LJ           5.92392          4.3481         1.58876
LJ          -5.03024       -0.381096        -2.36545
LJ          -2.26143        -4.91758        -4.81738
LJ          -4.77728       -0.991527        -4.01633
LJ           1.40535        -5.82767         4.99026
LJ          -3.98579         0.22022        -3.32785
LJ         -0.230736        0.370484        -4.43393
LJ          -3.90928        -2.77328        -5.72722
LJ           -0.7078         5.44082          6.3966
LJ           5.67697        -5.23412        -2.03401
LJ         -0.483956         5.25637        -4.19475
LJ           5.44217         4.70585        0.480598
LJ           5.52525       -0.698932        -5.21639
LJ           1.04704        -4.95644       -0.828842
LJ          0.447062        -1.01753           -2.38
LJ          -4.96709         2.36984        -0.79375
LJ          -5.25778       -0.440888         5.77914
LJ           3.94713        -4.44353        -2.62215
LJ           4.97711         6.11841         4.15292
LJ          -5.38411         -4.8745         -1.8327
LJ          -1.42398      -0.0285113        -4.13269
LJ           5.42922         5.33859       -0.709858
LJ           4.33853        -6.21634         1.79943
LJ          -2.69879        -4.17334        -4.13584
LJ           -5.2905         0.29024        -3.29271
LJ          -1.05663        -2.79989         1.63204
LJ          -3.78823        -3.27519        -4.83009
LJ           4.66996         2.93899        -2.79213
LJ         -0.422188         2.10874        -4.01174
LJ          -2.55232          0.2343        -3.09146
LJ          -3.54017        -5.97724         1.72421
LJ          -1.67817        -6.32224        -4.86437
LJ          -5.65756       -0.126283        -4.25652
LJ           2.81652         -4.5274        -1.06537
LJ           4.20521        -4.78085         1.51691
LJ           -3.5333        -2.25371        -4.72716
LJ          -2.90447       -0.337798         -2.1558
LJ          -2.71699       -0.751293        -3.56326
LJ           -2.2383        -3.22189         -4.2524
LJ          -2.80919        0.381679        -4.08669
LJ          -3.37107        -3.21147        -3.83225
LJ          -6.03409        -1.35649        -6.44968
LJ           -1.7695         4.44054        -4.20787
LJ           1.40475         2.04302       -0.752203
LJ          -3.95598         -2.1608        -3.78555
LJ           -5.9876        -4.02986         3.67474
LJ         -0.259147         5.70329         4.62919
LJ         -0.717656         6.32203        -4.62592
LJ          -2.06341        -1.89683        -5.42438
LJ          -2.68937        -3.28091        -2.97304
LJ          -1.21769         4.33219         5.96682
LJ          -1.50014        0.187493        0.954406
LJ           1.98229         1.04425         5.46474
LJ          -1.47188         5.36318        -5.58929
LJ          -5.70157        -1.09784           -2.81
LJ          -3.21855        -2.39155         2.64806
