108
#Comment!
LJ          -1.45829         6.08792        -4.92579
LJ         -0.802616         5.34142         -5.3616
LJ          -1.92087       -0.218813        -2.30196
LJ          -2.73418         3.33473        -5.08594
LJ             3.112         4.50838        -2.14542
LJ           -2.5739       -0.279492         5.44871
LJ           5.79079          5.3131        0.323028
LJ          -1.60945         3.92152         6.18881
LJ          0.280843        -4.71577        -5.05978
LJ         -0.222446        -1.11864         5.31273
LJ          -1.10572        -4.21595        -4.33059
LJ            3.2267        -6.27298         3.27764
LJ           -5.5499          5.2262         3.68125
LJ          -5.87484         3.64037          5.5687
LJ          -4.01223         1.68429         5.87225
LJ           4.75393       -0.279889        -2.83432
LJ           3.59545        -1.76113         4.56381
LJ            1.8763         -5.9626        -5.15863
LJ           5.85248        -1.71265        -1.93665
LJ          -4.87388        0.123273        -2.05659
LJ          -1.64781        -2.69905        -2.83713
LJ          0.799445        -5.39578        -4.49723
LJ           1.09812         6.02192         2.42539
LJ          -2.62723         -1.9212        -2.90891
LJ         -0.569273         2.26593        -2.31459
LJ         -0.171176        -2.02196        -5.91784
LJ         -0.347071        -2.36384          4.9957
LJ           -2.0435         4.57735        -4.36604
LJ             -1.33        -1.42309        -3.05261
LJ           5.54737       -0.394516       -0.373728
LJ          -2.23047         -1.0284        -3.51866
LJ           3.48885        0.491396        0.124718
LJ          0.271289        -2.35489         5.98078
LJ          -4.80292        -3.27553         5.38403
LJ           4.47764        -3.43404        -2.92365
LJ           6.39965         2.77157         5.76617
LJ         -0.944018         -3.7856        -3.25177
LJ           3.24218         3.00548         4.91019
LJ           4.25706        -1.58482       0.0175579
LJ           5.17574        -1.67502        -0.91008
LJ           5.73116        -1.71164         4.60489
LJ           5.70553        -5.57333         3.76857
LJ           2.79098         3.39276        -2.12433
LJ           4.83572        -1.54301         3.98934
LJ          0.510076         6.06927        -4.58494
LJ           1.82764         3.99725           4.423
LJ         0.0959695        -6.30489        -6.08076
LJ           2.17063         4.00955         3.04794
LJ          -5.58139         -6.4059         3.57713
LJ          -1.22682         6.45927         1.83226
LJ          -5.36783        -2.36109         5.48156
LJ         0.0849969        -5.46532        -1.43399
LJ          -5.10507         2.16651        0.868433
LJ          -4.76292        0.260935        -3.30272
LJ         -0.646062        -5.39611        -5.69004
LJ           5.07329        -1.29285         1.03421
LJ             1.355        -5.89862         6.22361
LJ           4.30031       -0.717083        -1.19262
LJ          0.598837         2.50933        -1.03465
LJ           6.16473        -6.25284         3.07295
LJ          -0.17518         1.25021        -1.39877
LJ          -1.19291        -3.73835        0.756104
LJ         -0.135593        -5.99825        -4.96121
LJ          -5.62366         3.08186         1.14511
LJ            6.3726        -1.05095       -0.931058
LJ          0.816936         3.66672        -3.74915
LJ          -3.17368        -1.49235        -4.56003
LJ          -3.14725       0.0494945         4.54692
LJ           5.40393        -2.27098        0.750001
LJ           2.46971        -5.82719         2.48674
LJ           4.60828        -5.84744         4.04787
LJ          -5.66569        -3.90366         4.63287
LJ          -3.67719         1.47261        -5.42681
LJ          -4.31547         2.92696        0.887419
LJ           5.27316        -3.26649         2.31335
LJ          -2.20716        -4.26798        -1.29885
LJ           -1.9334         2.58922         6.23926
LJ          -2.87432         1.86411         5.54886
LJ           -3.0607       -0.669309         -2.6626
LJ           4.10003         4.99741        -2.45319
LJ          -1.70701        -2.14114          -3.813
LJ          -2.29494         1.75953          3.8612
LJ            5.4661        -3.44474        0.333872
LJ            3.5746         3.76261        -1.44652
LJ           3.72794        -1.85738        -1.56159
LJ           2.20044        -5.39427         4.87356
LJ           -4.9497         1.88299        -2.43313
LJ           -5.9568         3.33843        -6.31687
LJ          -1.79382          1.9326          4.9879
LJ          -4.35195        0.558323        -4.67659
LJ          0.915405        -1.18819         5.75334
LJ          -3.81779         3.09989        -5.03626
LJ           0.83766        -5.56543        -5.64563
LJ          -5.71775         6.03646         2.52999
LJ          0.562393         5.46174         3.08069
LJ           6.06282          4.2932         6.04898
LJ           4.59204        -1.48084        -3.52953
LJ           3.21038        -5.96094          4.6129
LJ         -0.704001         5.73731        -4.33663
LJ          -1.08148          2.2688         3.08649
LJ          -4.78503         1.09035        -5.56962
LJ          -2.76802       -0.820817         3.83132
LJ          0.843123         4.78357         3.92204
LJ           3.89948        -1.44185        -2.75049
LJ          0.446147        -1.46671        0.258192
LJ           1.89769         6.00599        -5.61112
LJ           6.39347        -1.71375       -0.084351
LJ           3.40384       -0.852681        -2.07047
