108
#Comment!
LJ          -1.47479         6.24692         -5.0379
LJ         -0.464215         5.80911        -5.16934
LJ          -1.99177       0.0497207         -2.4731
LJ          -2.63104         2.82923        -5.34328
LJ           2.84441         4.62876        -2.11245
LJ          -2.13113       -0.753685         4.93418
LJ           5.70679          5.3436       0.0259243
LJ          -1.57548          3.6318         6.03652
LJ         -0.090723        -4.78975        -5.20921
LJ         -0.323904        -1.17111         5.50708
LJ          -1.32423        -4.42342        -4.28413
LJ           3.29246        -6.41178         3.16097
LJ          -5.78605         5.10101         3.45615
LJ          -5.91966         3.81153         5.67316
LJ          -3.91437         2.06018         5.61453
LJ            4.6958       -0.345408        -3.05505
LJ           3.64361        -1.72267         4.59463
LJ           2.53358        -5.90233        -5.16298
LJ           5.62111        -1.31823        -1.78595
LJ          -5.08463       0.0368858         -2.0821
LJ          -1.93117        -3.06468        -3.13756
LJ          0.920963        -5.66725        -4.31608
LJ           1.59467         6.34467         2.33178
LJ          -2.95613        -2.37353        -2.81273
LJ          -1.18002         2.34132        -2.34275
LJ         -0.231328         -2.0956        -5.60795
LJ         -0.585105        -2.42361         5.25679
LJ          -1.84443          4.8974        -4.44844
LJ          -0.96509        -1.37983        -3.30763
LJ           5.56899       -0.486958         -0.6504
LJ          -1.95081        -1.02557        -3.57384
LJ           3.47985        0.501456        0.198533
LJ          0.223163        -1.92447         6.13217
LJ          -5.06569        -3.21411         5.25506
LJ           4.60186        -3.46473        -2.79833
LJ           6.44587         2.76793         5.93456
LJ          -0.97025        -3.66244        -3.09293
LJ            3.0731         3.22353         4.84713
LJ           4.21119         -1.5377       -0.218363
LJ           4.73389        -2.06458        -1.28519
LJ           5.75957        -1.94531         4.50951
LJ           5.85334        -5.40219         3.72435
LJ           2.79491         3.46634        -2.42328
LJ           4.77078        -1.56131         3.93482
LJ           0.52543         5.97348        -4.99986
LJ           2.13797         3.91426         4.50445
LJ         -0.188848        -6.32474        -5.76736
LJ           1.73698         3.94445         3.29718
LJ          -5.23531        -6.05739         4.04666
LJ          -1.10935         6.41121         1.90511
LJ          -5.35259        -2.11773         5.54285
LJ         -0.228553        -5.18822        -1.11664
LJ          -5.21795          2.1101        0.841185
LJ          -4.69417        0.806585        -3.25298
LJ         -0.960078        -5.14524        -5.76895
LJ           5.06249        -1.11841        0.869796
LJ           1.51334        -6.09041         6.40865
LJ           4.08305       -0.789619         -0.8312
LJ          0.583679         2.14878        -1.38863
LJ           6.44899        -6.26991         3.39111
LJ         -0.101072         1.40218        -1.24559
LJ          -1.70125        -3.92198         1.15994
LJ        -0.0516297         -5.9177        -4.67339
LJ          -5.55788         3.16585         1.21353
LJ           6.20959        -1.46831       -0.854946
LJ          0.936581         3.42637        -3.96016
LJ          -3.15286         -1.5759        -5.06006
LJ          -2.88152        0.206228         4.66886
LJ           5.17457        -2.41069        0.178812
LJ           1.98836        -5.54554         2.28113
LJ           4.22555        -6.07558         3.94432
LJ           -5.6051        -4.03516         4.59879
LJ          -3.56987         1.57647        -5.07131
LJ          -4.46341         2.99846        0.908113
LJ           5.17658        -3.40423         2.44351
LJ           -1.9624        -4.36838        -1.62008
LJ          -1.91204         2.66963         6.29668
LJ          -2.93867         2.24021         6.25395
LJ          -2.71811       -0.704469        -2.57889
LJ           4.20842          4.6807        -2.08314
LJ          -1.83556        -2.04544        -3.75452
LJ          -2.38749         1.43778           4.271
LJ           5.96776        -3.18812        0.288621
LJ            3.5605         3.93111        -1.56433
LJ           3.72688        -1.86629        -1.59616
LJ           2.39936        -5.57891         4.49225
LJ          -4.75012         1.97465        -2.43149
LJ          -5.60295         2.95552        -6.39166
LJ          -2.26814         2.31675         5.13875
LJ          -4.09815        0.646939        -4.75256
LJ          0.928322        -1.48475           5.455
LJ          -3.79109         3.03221         -5.3462
LJ          0.557476        -5.45862        -5.94983
LJ          -5.50436         6.02003         2.96845
LJ          0.317364          5.2842         3.15906
LJ           6.09383         4.20964         5.96239
LJ           5.13029        -1.64434         -3.9017
LJ           3.33342        -5.94778          4.6542
LJ         -0.832301         5.39627        -4.08434
LJ          -1.05951         2.33835         3.16501
LJ          -4.87392         1.36911        -5.26972
LJ          -2.92161       -0.862613         4.11637
LJ          0.983988          4.7274         3.97651
LJ           4.11471        -1.26363        -3.24879
LJ          0.515149        -1.38325        0.420014
LJ           1.77641         5.94792        -5.61077
LJ          -5.98797        -1.67583        0.437468
LJ           3.51082       -0.682703         -2.0181
