108
#Comment!
LJ          -3.49289        -5.38058        -6.03718
LJ          -3.15765        -4.37443        -6.07461
LJ           4.95705        -1.53728     -0.00980645
LJ          -2.84985        -1.95384        -3.63409
LJ          -1.52223         -4.7622         -3.7592
LJ           -2.6965        -3.88413        -4.04941
LJ          -2.88826           2.197         4.89934
LJ          -4.90761        -2.83016         6.31979
LJ          -4.16042         -3.6337        -6.08765
LJ          0.355063        -1.50981        -3.56796
LJ          -4.14935        -6.17271         -5.9128
LJ           1.73275         4.17181        -2.01762
LJ           5.40049         5.99769         1.60633
LJ          -1.69846        -3.40619        -4.25411
LJ          -1.84654        -5.91382         5.97608
LJ          -5.54376         6.28852         -3.6006
LJ            -3.397        -3.56077        -5.04036
LJ         -0.806528         5.47167        0.965806
LJ          -4.41191        -3.97285        -4.34421
LJ          -1.44043        -5.76951        -5.88548
LJ          -2.38383        -4.86896        -5.32937
LJ          -4.54508        -2.96101          3.6271
LJ          -3.64765         6.24145         -3.9764
LJ           5.85167         5.55677        0.654933
LJ          -1.47578        -6.30329         1.50747
LJ        -0.0837052         2.05673       -0.871942
LJ          -1.92234        -2.99815           5.434
LJ          -1.38625        -3.63749         6.27377
LJ           -2.0793         5.05919         2.52091
LJ          0.844839        -0.70791         1.21404
LJ          -1.20904        -4.99639        -5.08831
LJ         0.0812807         5.86107         1.75125
LJ          -2.82621        -1.57606        -5.79352
LJ          -4.46325        -2.80537        -5.50525
LJ         -0.194527        -1.13887        0.903608
LJ         0.0323714        0.768237        -4.97446
LJ          -5.00534        -3.92698         6.22934
LJ          -4.60517          5.6705        -4.43683
LJ          -3.87964        -2.62033         6.07706
LJ          -2.29646        -3.77781         -6.1164
LJ           1.62324         3.00174        -1.68243
LJ          -4.45746        -6.07423        -4.65613
LJ          -5.28248         5.86364        -2.64904
LJ           -3.6698       -0.729108         3.29808
LJ          -4.67554        -5.96893        -3.45921
LJ           5.91629         2.16994        -1.98075
LJ          -3.12452        -3.54897         5.98438
LJ          -1.46794        -2.03768         4.62856
LJ          -6.26253        -3.01133        -1.99589
LJ          -3.60181        -2.64543         2.40187
LJ           3.13161        -5.81693         6.09704
LJ          -5.68927        -5.66332        -3.03216
LJ          0.103331         3.14244        -2.25787
LJ          -3.37779        -3.10797        -4.06404
LJ          -4.44668        -4.66962         6.31636
LJ          -5.74894        -5.15346          6.2557
LJ          -4.77453         1.48828        -1.00375
LJ          -5.11209        -3.17509        -3.64274
LJ           5.17795        -4.07415        -1.92816
LJ          -3.41407        -5.94054        -5.12176
LJ          -2.25364         6.06367         3.00144
LJ           1.76276         4.91187       -0.894309
LJ          -3.11345        -5.50252        -4.19485
LJ            2.8129         4.92177        0.311922
LJ           3.38519        -1.74231        -0.82057
LJ          0.197611        -5.71001        0.989244
LJ           4.21577         5.58935        0.896988
LJ           5.74232        -4.78067         -1.4079
LJ         -0.732988        -3.61272        -5.11007
LJ          -4.69546         3.33013        -5.82999
LJ            1.0591         4.77573        -5.41674
LJ          -5.98773        -3.93656         4.82945
LJ          -1.38378        -5.53219        -2.86234
LJ         -0.679487         2.05834        -2.19586
LJ           3.62353          3.0749        -2.19033
LJ          -2.13788        -3.86514        -5.07465
LJ          -2.79131        -2.51291         6.39181
LJ          -1.34605         2.14834         4.86807
LJ          -3.84115        -5.66448        -2.28543
LJ          -5.46019        -6.39688        -4.98582
LJ         -0.310038         3.24323        -3.67197
LJ           6.00802        -2.67768         -3.0061
LJ           4.66869         -5.1892        -1.73684
LJ          -2.37176        -5.15808         6.40427
LJ         -0.747906         4.91549         -4.9369
LJ           5.18289       -0.137673          3.7561
LJ           2.63502         3.99914        0.955104
LJ         -0.771962        -2.60369         6.07304
LJ           -2.3833        -2.84304        -5.35853
LJ          -2.66262        -3.10746        -3.25363
LJ         -0.797834         5.87447         2.32207
LJ           1.15592         -1.4961        -1.25122
LJ          -6.02604       -0.917528          3.8072
LJ          -4.00687        -4.14788         5.52847
LJ          -1.09866        -4.61452        -6.19539
LJ           0.17716        -5.99417         2.08125
LJ          -1.29947        -2.70695        -5.41528
LJ          -3.55621        -2.49508        -5.76326
LJ          -1.49797        -4.66786         5.79567
LJ        -0.0623023         6.14747         3.22218
LJ          -3.59406        -4.77284        -4.90579
LJ          -1.71695        -2.24847        -6.39763
LJ          -2.27334        -6.17996        -5.24158
LJ          -4.53585         -1.8954        -6.34394
LJ          -1.39726         5.13737       -0.670939
LJ          -4.00343         3.28773          2.9635
LJ          -4.37929        -2.52715        0.899268
LJ          0.577174         2.01948        -1.73008
