108
#Comment!
LJ          -1.38608        -5.08392        -5.71206
LJ          0.108037         5.38077        -4.53996
LJ           -1.5717       -0.695642        -4.71118
LJ          -2.95808        0.393265        -4.58414
LJ           2.91558         4.77508        -2.62424
LJ          -2.40986        -2.04154         4.79824
LJ           4.08057         4.66697        -2.73476
LJ          -3.16941         1.76277         -5.8613
LJ          -1.33438        -4.11238        -4.43918
LJ          -2.02406        -1.30742         5.81935
LJ         -0.481104        -2.64882        -3.91087
LJ           3.50278         5.25623         2.37679
LJ           6.43257         6.44766         3.33527
LJ          -4.35401         4.12091        -4.79985
LJ          -2.96649         5.54504         1.14605
LJ           5.89676        -2.37366        -1.15664
LJ           2.51435        -1.84014         5.69292
LJ           1.14476        -6.28517        -5.85643
LJ           6.33571        -2.59332        -2.29462
LJ          -4.90047         2.39166        -5.28734
LJ           -2.7532        -2.92086        -4.33704
LJ           1.51462         5.46529        -4.27059
LJ           2.83165        -5.98487         4.15261
LJ          -2.50209         5.81739        -4.45796
LJ          -4.76893         1.89823        -3.26205
LJ           0.96717        0.351643         -6.1966
LJ          -2.20833        -3.01444        -5.55641
LJ           -1.5788        -6.11772        -4.31061
LJ          -3.14282        -3.84953        -3.55355
LJ          -5.46723       -0.489446        -1.73036
LJ          -1.47829         -2.1099        -3.75935
LJ           3.48018       -0.801717        -1.82362
LJ         -0.920137         -1.2037          6.1322
LJ           6.35875        -4.64667         3.72806
LJ           2.63782        -1.93185        -4.90323
LJ          -3.54268         1.47748        -4.98341
LJ          -1.73243        -3.23812         -3.9562
LJ           1.91794         4.51493          4.4505
LJ          -6.39925        -3.36728        -1.27782
LJ           5.21045        -1.75155        -1.92121
LJ            5.4053        -4.08512         3.49906
LJ          -5.86717        -4.74507          6.3473
LJ            3.3385         5.52533        -1.76305
LJ          -6.10347        -2.37303         3.03613
LJ         -0.469067        -6.34951        -5.59833
LJ           1.50954         3.45934         4.14756
LJ          0.100243        -6.18445        -4.58886
LJ          0.694207         3.21904         4.86288
LJ          -3.69244        -4.51035         5.51679
LJ          0.583885         5.75085         2.92542
LJ          -5.95955        -1.93037         4.03683
LJ          -4.05879        -2.19297        0.194514
LJ          -6.21719         2.92426        0.679678
LJ          -4.76158         2.53484        -4.22217
LJ         -0.448485         -5.3463        -6.08817
LJ          -6.17698        -1.57103        -2.23069
LJ           1.83677        -6.28488        -4.91516
LJ           4.52943       -0.399211        -2.19534
LJ          0.535727        0.419286        -4.26304
LJ           -4.7987        -4.87951         5.57038
LJ         -0.470194         1.75787        -1.77498
LJ          -4.88568        -5.48698         4.47194
LJ          0.503457         5.75156        -5.57943
LJ          -5.79996         3.36725         1.69105
LJ           5.40097       -0.540134        -1.40078
LJ           1.80177         1.24803        -5.32623
LJ            -2.308        -1.43909         3.57894
LJ          -1.54448        -2.00029        -6.17157
LJ           3.66325        -4.14483        -1.52521
LJ           1.24375         -4.7729         1.96129
LJ           4.33491        -6.26057         2.78222
LJ          -5.81177        -5.54261         5.28225
LJ          -3.74506         3.17371         -4.6231
LJ          -4.94087         3.10254        0.978392
LJ           4.05015        -4.08802         3.66397
LJ          0.262997        -3.55412        -4.28757
LJ          -3.37014        0.972402         6.21722
LJ          -3.01614         2.44852        -5.12012
LJ         -0.697248        -1.06797        -3.68332
LJ           3.31173         4.00435        -1.81067
LJ          -1.45199       -0.395183        -2.93236
LJ          -5.09539        0.806886        -4.68096
LJ           4.72827       -0.262705        -3.48508
LJ            2.6549         3.61349         -2.4787
LJ           2.85817       -0.783367       -0.251831
LJ            1.8187        -4.51598        0.483165
LJ          -5.51896         4.70838       -0.596651
LJ          -4.70082          1.3347        -5.84361
LJ           -3.0836        0.269104        -5.94529
LJ          -2.32855         1.50349        -4.94624
LJ          -1.67012        -1.98151        -4.97948
LJ          -4.02074         2.50166        -5.75334
LJ          -1.25676        -2.94691        -4.85949
LJ          -4.55881        -5.31337        -6.37445
LJ          0.438952          4.6019          4.9096
LJ          -4.88263         2.94949        -6.23277
LJ          -4.83159        -1.32925        -2.06765
LJ           3.11206         6.33683         2.54746
LJ          0.806449         6.23501        -3.84085
LJ         -0.816528         3.46595         4.89522
LJ          -2.06695         2.57823        -4.44321
LJ           1.64156         0.28479        -4.82914
LJ         -0.219331         5.19314         4.31987
LJ           5.80143       -0.275353        -2.36041
LJ           1.21305        -0.62639         1.78772
LJ           1.80891         5.54991         -5.4981
LJ           5.58476       -0.904948       -0.405433
LJ            4.1023         -1.7534        -1.88942
