108
#Comment!
LJ          -1.57007         5.76284        -4.36532
LJ          0.102856         -5.3107         -5.2938
LJ          -1.59865        -1.96596        -5.49023
LJ          -2.59796         1.76362        -4.02112
LJ           1.03488          6.2925        -5.03543
LJ          -2.99514        0.586179         -6.0808
LJ           3.98913         3.66178        -1.99131
LJ          -4.28128      -0.0428324        -5.94293
LJ          -2.40716        -2.65949        -5.75638
LJ           -2.7675       -0.164515         6.07562
LJ          -1.23535       -0.206074        -3.65368
LJ             2.939        -5.89487         2.60433
LJ           -6.3358        -5.71912         4.07653
LJ          -4.29066           1.203        -3.01293
LJ          -2.23173        -4.02055        -3.95973
LJ          -6.08334        0.395938      0.00156977
LJ          0.776512       -0.574214         -4.0346
LJ           5.92247         5.40901        -6.21368
LJ           6.10213        -3.36658        -1.45649
LJ          -3.68502         1.91743        -4.71458
LJ         -0.948591        -2.70403        -2.74452
LJ         -0.690705         5.09721        -4.25044
LJ           1.64475         4.84693         5.00595
LJ           2.43673        -5.85583         4.35898
LJ           2.19523         1.36831         1.41653
LJ           6.36243          1.1243           1.277
LJ          -1.86721         -1.0233        -3.35144
LJ          -3.21127        -5.08941        -3.47217
LJ          -2.85785        -6.25827        -4.14063
LJ          -5.51336       -0.995783        -1.24751
LJ          -4.28684        -1.16966        -5.58041
LJ          -6.15373        -3.17688        -2.19874
LJ          -2.10635        -1.10949        -6.13634
LJ          -3.75816        -4.67752        -6.08099
LJ          0.285056         4.05435          5.9814
LJ          -1.97154         2.39448        -4.91117
LJ          -1.65735        -2.16435        -3.46993
LJ          0.771294         4.27721         4.43502
LJ          -6.41567        -2.28423        -1.74418
LJ          -5.33213        -2.19442        -1.59023
LJ           3.65772        -6.42804         3.28488
LJ          -5.73946        -3.90802        -5.26087
LJ           1.32243          5.4824        -3.32584
LJ          -5.12031        -5.31458         3.03875
LJ         -0.820229        -6.33249        -3.73978
LJ        -0.0675967         4.82046         3.93603
LJ        -0.0661695         6.02384        -4.54452
LJ           0.41343         2.66511         6.41939
LJ          -4.69064        -3.96883        -5.67098
LJ           2.95574           5.205         1.95163
LJ           6.05852        -1.09571         2.15162
LJ           5.88502        0.870034        0.264829
LJ           6.18231         4.44778        0.701467
LJ          -3.68032         1.94108        -2.33277
LJ         -0.797871        -6.17267        -5.04594
LJ          -6.40641       -0.535046        -4.09706
LJ           1.45807         6.24467         -6.4022
LJ           5.95209        0.466545        -3.66747
LJ          -6.46021       -0.544092         5.78152
LJ          -5.06896        -4.97557        -5.58866
LJ         -0.550236         1.84751        -3.67804
LJ          -6.09155        -6.23219        -5.09079
LJ          -1.91318          4.6106        -4.28194
LJ           -6.1095         3.92537         1.62702
LJ           6.11838       -0.689035        -3.02108
LJ           1.06903        -1.42675        -1.92793
LJ           -1.4297        -4.22596         -5.7437
LJ          -1.94456        0.722813         -6.0209
LJ           4.50707        -2.63295        -4.85992
LJ           2.23928         -3.9531       -0.913982
LJ           4.39484        -5.48156         2.35695
LJ          -6.03024        -4.82968        -6.40472
LJ          -4.36851         2.29703        -3.28257
LJ            -5.911         3.71333        0.344464
LJ           5.16093        -5.18099         3.08179
LJ          -1.42897        -3.11599        -5.37931
LJ          -4.34104       -0.220863          -2.878
LJ         -0.695207        0.157528         5.15232
LJ          -0.65418        -2.58953        -6.12167
LJ           4.84246         3.37389        -2.80981
LJ          0.930273        -3.23837         -6.2656
LJ          -2.98838         2.77427        -4.47966
LJ          0.543005        -4.54335         5.85741
LJ          0.421331         5.46828        -3.84279
LJ           4.15821        0.268263        -2.24919
LJ           2.62653        -5.00742      -0.0991236
LJ           4.20639         6.37444         1.50516
LJ          -5.40373       -0.923908        -3.36747
LJ          -3.27623       -0.561617        -5.94621
LJ          -2.62637        0.991136        -5.09508
LJ          -3.64519        -2.72019        -6.19452
LJ          -4.76038       -0.377753        -4.90132
LJ          -1.46291        -2.42699        -4.46098
LJ          -4.49234        -2.45146        -5.66852
LJ         -0.624315         5.27885          6.3681
LJ          -1.26342         2.45146         3.49263
LJ          -5.00102       -0.280325       -0.441857
LJ           4.41643         5.28574         2.16267
LJ          0.935573         5.46997         6.00444
LJ          -1.02801         4.29757        -4.92078
LJ          -3.69567        0.482144        -5.21494
LJ           1.24676        -1.37265        -3.22171
LJ           1.39292         4.42265         6.02569
LJ           6.19963      -0.0813337        -2.01005
LJ           2.15459        0.142147         3.05194
LJ          -1.34356         5.20238        -5.27086
LJ          -6.21178       -0.389122       -0.695368
LJ          -5.90124        -4.41308         -1.7779
