108
#Comment!
LJ          -1.63322         6.35539        -5.28493
LJ          0.168451        -5.71072        -4.29513
LJ          -1.71786        -1.05464        -5.72131
LJ          -2.32983         1.69757         -3.9888
LJ           0.85641          6.0172        -3.97308
LJ            -2.712       -0.317241         5.53156
LJ           4.09181         4.17472         -2.0124
LJ          -3.44851        0.238605         6.34981
LJ          -2.18359        -3.01397        -5.33216
LJ          -2.11567        -1.25323         6.27784
LJ          -1.07604        -0.62842        -3.41345
LJ           2.59676        -5.84475         2.73686
LJ          -6.05635         -5.8695         3.71965
LJ          -4.23348         2.30491        -2.22604
LJ          -2.23986        -4.89338        -2.15027
LJ          -5.40745       0.0962571         0.71942
LJ           1.42922        -1.03786        -5.28343
LJ           5.18454         6.25128         -6.1207
LJ           6.45929         -3.7668        -1.07861
LJ          -3.77856         2.00965        -4.86721
LJ          -1.59151        -2.74277        -1.97358
LJ         -0.132867         5.33238        -5.78555
LJ           1.32507         5.67135         4.71537
LJ           1.97597         5.88934         5.52873
LJ           3.82256         1.68827       0.0686936
LJ            5.2519        0.827454         2.61649
LJ           -2.3452        -2.71471        -4.10957
LJ          -2.62635        -5.03858        -4.06553
LJ          -3.20422        -6.21512        -3.86878
LJ          -5.71134        -1.16869        -1.86476
LJ            -3.068       -0.971582        -5.10843
LJ           6.00463        -2.82386        -3.05544
LJ          -2.25688        -2.42064         -6.2591
LJ            -5.612        -4.86619         5.71072
LJ            1.0021         1.75894         5.62217
LJ          -2.57275         2.44913        -4.87117
LJ          -1.27908        -2.74364         -3.4266
LJ        -0.0925496          4.2309         4.41204
LJ           6.11784         -2.5701         -1.4292
LJ           6.27995        -1.56934        -1.81176
LJ           4.65542         6.45724         3.38909
LJ          -5.56384        -4.24843        -6.17263
LJ           2.19123         5.93883        -3.51041
LJ          -5.37387        -4.40639         2.95019
LJ         -0.200067         5.88881        -3.99815
LJ          0.942834         4.14126         3.71073
LJ         -0.455632         6.18221        -4.93822
LJ          0.417547         3.27659         6.11294
LJ          -4.55064        -4.08314        -6.30732
LJ           2.92272         5.84629         2.14853
LJ           6.28701        -1.29219         2.77854
LJ          -6.42329       0.0260876       0.0153193
LJ           6.18768         4.02047        0.417581
LJ          -4.07161         3.25678        -3.20742
LJ         -0.653481        -5.52126        -4.88642
LJ          -6.26371        -0.46371        -3.63904
LJ           1.46629         6.30513         -5.5479
LJ           5.48375        -0.41739        -2.82469
LJ           4.89369       -0.268648         6.39897
LJ           -4.8925        -5.01179        -5.86869
LJ         -0.416977         1.89444        -3.01735
LJ          -6.18009         6.37315        -6.43509
LJ         -0.279147         5.11496         -4.6529
LJ          -5.76826         3.64834         1.81987
LJ           -6.3205       -0.423594         -2.3182
LJ           1.50863        -1.15735        -2.86579
LJ          -1.12012        -3.32034         6.11335
LJ           -2.2232       -0.120408         6.44906
LJ           3.98943        -3.31784        -4.01339
LJ           2.49087        -4.41459       -0.811135
LJ           3.48534        -6.27852         1.77061
LJ          -6.12421        -5.40141         -5.9987
LJ          -4.83783          2.4021        -3.26882
LJ          -5.67982         3.54965        0.665685
LJ           4.77728        -5.41295         2.89911
LJ          -1.28425        -2.20992        -5.96382
LJ          -4.12065       -0.607276        -3.15033
LJ         -0.834101        0.982639         6.33911
LJ          -0.59101        -1.94936        -5.14622
LJ           4.52373         3.29651        -2.61577
LJ          -0.64159        -1.43721        -6.16521
LJ          -3.35616         2.84648        -4.00722
LJ           1.82739        -3.66629        -5.87048
LJ          0.513746         4.78044        -3.90193
LJ           3.48669      -0.0281957        -1.58223
LJ           1.79389        -4.56965        0.703179
LJ            5.4843         6.24839          1.5874
LJ          -4.47349       -0.486398        -4.36751
LJ          -3.18373         -0.6353        -6.06527
LJ          -3.19062         1.10886        -4.51202
LJ          -3.30011        -2.50124         -5.5772
LJ          -4.01723      -0.0527784        -5.58025
LJ          -1.61068         -1.9765        -4.94784
LJ          -4.38567        -2.74969         -6.0342
LJ          0.128266         5.46028          5.9161
LJ          -2.39661         2.72182         4.24107
LJ          -5.37137       -0.622384       -0.592964
LJ           4.15249         5.78469         2.74797
LJ          0.664138         5.31927        -4.77782
LJ         -0.412951         4.30917        -5.32759
LJ          -2.78579        0.667339        -5.82517
LJ           1.34373       -0.109086         -3.0575
LJ          0.707421         4.50843         5.84677
LJ           5.41717       -0.229313        -1.72452
LJ           1.87683       -0.084131         2.69642
LJ          -1.25284         5.12321        -5.41469
LJ           -6.2342      -0.0228403        -1.26938
LJ           5.91125        -3.42344        -2.17313
