108
#Comment!
LJ          -2.11754        -4.39913        -4.80171
LJ          -1.40894        -3.54351        -5.26872
LJ          -4.42128         2.13535        -3.85675
LJ          -2.70088        -3.29737        -3.77611
LJ           -1.0638        -5.89497        -4.11418
LJ         -0.955873        -2.34941        -3.67121
LJ           1.12932        -2.25291         4.26529
LJ          -6.35427        -2.91087         5.80365
LJ          -6.10073        -2.41212        -5.65409
LJ           5.63354        -1.60498         1.50282
LJ          -4.62986         4.39384        -4.60636
LJ          -1.41968         2.51922        -2.15094
LJ           5.91841          6.0333         3.03638
LJ         -0.139904        -2.94137        -3.88478
LJ          -2.19759        -6.33519        -4.90811
LJ           -2.6373        -5.57455        -2.69472
LJ          -0.80321        0.113671        -5.96894
LJ           1.62481         6.30849          3.9304
LJ          -1.91069        -5.22449         -4.2126
LJ          -3.33978         -3.6824         6.22525
LJ          -1.15925        -4.37059        -4.13168
LJ           5.39159        -2.43229         2.75781
LJ          -1.02987        -5.27272        -4.88714
LJ           1.94336         5.10931        -1.00241
LJ          -1.73378         6.39137        0.378609
LJ          0.118119         0.11451        -1.76079
LJ          -3.81578        -4.38344        -4.73094
LJ          -2.55553        -4.59325         6.01857
LJ           1.20909         5.34716         4.91912
LJ           5.29555         4.87822         5.79737
LJ         -0.320337        -3.55014          3.3128
LJ          0.258984        -2.57152        -2.81442
LJ          -3.24534         1.99662         2.63999
LJ          -2.53548        -2.22832        -4.57764
LJ           5.52914         3.41646         6.04222
LJ          -3.54529        -4.89128         1.61544
LJ          -3.45403         5.92261        -6.06999
LJ           4.78959        -5.59297        -1.07036
LJ            -4.047        -3.50065        -5.65708
LJ          -2.64961        -3.84328        -5.79235
LJ        -0.0350784        0.671899        -3.00217
LJ           -3.8184        -5.62881        -4.78934
LJ          -2.25035        -5.57407         5.47707
LJ          -4.51998        -4.94016         5.67915
LJ          -2.80041         -4.3479        -3.92945
LJ           5.96448         2.50565        -4.87555
LJ          -3.15718        -2.81673        -5.49357
LJ          -1.64485        -4.19064        -6.45913
LJ           2.01375       -0.858329         4.95567
LJ           1.41602        -1.31899          2.4323
LJ           2.22396         1.44427       -0.839555
LJ          -5.02863          -3.519        -5.09466
LJ         -0.406343         1.85736        -2.29497
LJ          -2.45755         2.67879         2.40188
LJ           -3.8585         -5.7117         6.37723
LJ           5.56192         5.20382         1.41943
LJ           4.48792        -2.91632        -2.08088
LJ          -3.13585        -5.47032        -3.59181
LJ           1.01681         5.47335        -1.55825
LJ          -1.12399        -5.46868         4.82757
LJ         0.0131193         3.79635         4.21469
LJ          -2.55371         0.12357        -3.80075
LJ          -3.23192        -5.97365         -5.6914
LJ         -0.415504         2.09064        -3.50764
LJ          0.929831        0.841518         5.91958
LJ         -0.469385        -3.44139        -4.79529
LJ           3.06546         6.08095       -0.560136
LJ           4.63266        -3.21308         2.41213
LJ          -2.28361        -5.08416         -5.8765
LJ          -2.90605         -4.9641        -5.02802
LJ          -1.78875         1.12218        -3.82288
LJ           5.64761        0.815485         5.26565
LJ          -1.43851        -1.94124          -4.576
LJ          -0.39802       -0.598869        -1.33377
LJ           -1.1153        0.189603        -3.17837
LJ           0.22589        -2.76989        -6.07877
LJ          -2.18244        -3.05563        -6.42725
LJ           5.06758        -1.27681         5.84296
LJ           3.51324         1.76588         -2.3749
LJ          -3.23155        -4.76284        -6.14129
LJ           2.97973       -0.999593        -3.12773
LJ           0.85288         4.50561       -0.984254
LJ          -1.89643        -4.41835        -3.45738
LJ          -5.27244        -6.27824         5.78385
LJ           2.10946        -5.81632         5.60132
LJ          0.234457         5.29652         5.43804
LJ         -0.996781        0.411309        -2.09949
LJ          -3.15282        -3.39602         4.88415
LJ         0.0705881        -4.71027        -4.92954
LJ          0.668796        -3.80995         -4.8765
LJ           3.11783         6.11305          3.2769
LJ           3.64349        -2.02194        -3.99323
LJ           4.94726        -2.29526        0.591419
LJ          -2.31627        -3.37415        -4.79826
LJ          -3.31777        -5.50228         5.36221
LJ         -0.679958        -2.71708        -1.60617
LJ          -1.82103        -4.38019         5.25715
LJ         -0.137091        -1.82225         -4.2743
LJ          -3.12744        -6.37646         5.95208
LJ         -0.758833        -3.67874        -3.21701
LJ         -0.660463        -4.52528        -2.58617
LJ          -6.16973        -1.20429         3.98288
LJ           -1.4576        -3.26174         -3.8828
LJ          -2.00914        -2.69715        -5.47589
LJ        -0.0195733        -4.11104        -3.74158
LJ           6.26033         4.39205         6.40053
LJ          -4.36958         6.14038        -2.08629
LJ          -0.96891       0.0372653       -0.548178
