108
#Comment!
LJ         -0.766217         6.23847         6.06672
LJ          -1.84232         5.24859        -5.14548
LJ          -3.71307        -1.00469        -2.07995
LJ          -3.25127         4.90284        -4.47084
LJ           3.87087         3.96539         -2.6594
LJ          -3.55549        0.111589         6.12441
LJ           6.00985         4.32628        0.862881
LJ          -3.36298         0.99485         5.63192
LJ         -0.464984        -5.10376         -4.9058
LJ           1.02693        -1.39902         5.81127
LJ         -0.820638        -2.67132        -3.93133
LJ           3.74025        -6.29154         3.76434
LJ          -4.80359         5.42351         3.78386
LJ           6.36065         4.63892         5.93782
LJ          -5.29503         2.36428        -5.08769
LJ           3.55654         -0.5503        -1.38906
LJ           3.73579        -1.91759         4.30406
LJ           2.67316        -5.26166        -3.80314
LJ            5.5039        -1.80084        0.398148
LJ          -2.55278         0.15607        -4.23051
LJ         -0.328424        -3.14814        -3.03046
LJ           1.07067         6.31079        -5.57192
LJ           1.21902        -6.40393         1.50672
LJ          -2.20037        -1.07693         -2.6957
LJ           1.80135         3.65687        -0.96208
LJ          0.777846        -2.35626         4.00504
LJ          0.323214        -1.87015         4.89514
LJ          -2.41771         3.91219        -3.92937
LJ         -0.584368        -2.69475        -2.15702
LJ           6.45157        -2.39526       -0.468214
LJ           -2.2141       -0.409472        -1.67015
LJ           4.91661       -0.372789        0.945168
LJ          0.441497         -2.9551         4.82685
LJ          -4.14347        -3.76629         5.58788
LJ           4.26988         -2.5001        -3.70595
LJ           5.44244         4.01725         5.70368
LJ          -1.45428        -2.67552        -2.81829
LJ           3.41744         2.36333         4.92896
LJ           5.17185        0.591753         0.78855
LJ           5.47652        -2.96585        -2.35487
LJ           6.12128       -0.846675         5.28902
LJ           5.29854        -5.44207         3.97384
LJ           2.79791          3.7736       -0.314813
LJ           4.84544        -1.45129         4.32502
LJ          0.460534         5.97419        -4.06333
LJ           2.10667         3.40471         4.61697
LJ          0.111854        -6.02652         -6.0553
LJ           3.23341         3.56316         1.94806
LJ           6.28149         5.44839         0.46087
LJ          -1.66006        -6.26128         1.51932
LJ          -5.39773        -2.90454         5.47838
LJ           1.70922         5.60809        -3.92264
LJ          -4.61727         2.04507        0.925963
LJ          -4.00681        -1.57545         -3.0944
LJ          0.289471        -4.84661        -5.67223
LJ           6.09802       -0.556382         1.44749
LJ          0.430352         5.97983         6.22906
LJ           3.99596      -0.0667539        -3.11245
LJ           2.61151         3.29255        -2.04346
LJ           5.30658        -6.26323         2.58172
LJ          0.433436        0.947897        -1.38701
LJ           2.28314        -2.14781        -2.26703
LJ        -0.0607216         6.42469        -4.99972
LJ          -5.48783         2.74105        0.605755
LJ           2.40432        -1.75368         1.33607
LJ          0.130919         6.22146        -2.89354
LJ          -4.18555        -2.39722        -3.79518
LJ          -3.25313       -0.893117         4.24887
LJ          -4.77117        -1.89029         1.19607
LJ           3.66196          6.1618         2.68862
LJ           3.71254        -5.39241         5.00413
LJ          -5.76597        -3.64151         4.74448
LJ          -4.50614        0.873247        -6.06863
LJ          -3.80869          2.8864        0.963236
LJ            5.3399        -2.87447       0.0862368
LJ          -3.50951        -3.35717         0.63818
LJ          -2.38866          3.7697         5.43954
LJ          -2.92027         1.09368         4.12448
LJ          -3.43774         1.04198        -3.76177
LJ           2.81559         3.81721        -2.90299
LJ          -1.90457       -0.725134        -3.73602
LJ          -1.70781          2.1336         4.20184
LJ           3.32437        -3.60457           1.598
LJ           3.51818         3.99564        -1.44789
LJ           4.80748       -0.802497        -1.28411
LJ          0.395185        -4.05128         -4.7045
LJ           5.74201        0.300139         -2.5477
LJ          -6.33064          3.1862         6.41972
LJ          -1.09902         1.44676         3.64839
LJ          -5.89707        0.912473        -4.59167
LJ          0.441178       -0.390575         5.71525
LJ          -2.97072          3.0936        -4.23848
LJ          0.202799        -5.56979         -4.2724
LJ           6.18478         5.93856         1.46482
LJ         -0.157854         5.47128         3.30626
LJ           6.40973         3.65138         5.11441
LJ           3.31011       -0.757189        -2.47427
LJ           2.62944        -5.38713         5.13446
LJ           1.23553         4.91072        -5.81698
LJ         -0.619567         1.90281         2.68633
LJ          -3.46451        0.614534        -5.83017
LJ          -1.87548       -0.140457          3.4432
LJ          0.437342         4.71612         3.69606
LJ            2.8174        -1.55655         -1.5462
LJ         -0.218852        -2.27518       -0.861657
LJ           1.40359         5.55656         6.11179
LJ           5.76702        -1.79051         1.82879
LJ           2.52677       -0.574951        -1.02386
