108
#Comment!
LJ          -1.80256         6.12047        -4.18648
LJ         -0.279632        -5.38184        -5.66923
LJ          -1.47901        -2.04603        -5.66022
LJ          -2.17016         1.68494        -4.13556
LJ          0.948855          6.3463        -5.43077
LJ          -3.42714        0.521404        -5.72982
LJ           4.03228         3.45446        -2.05881
LJ          -4.46833      0.00207761         -5.7832
LJ          -2.53139        -2.75668        -5.84645
LJ          -2.69777        0.295114         6.13402
LJ         -0.882163        0.451271        -3.95251
LJ           2.74627        -5.90568         2.27836
LJ           6.38489          -5.728         4.20587
LJ          -4.18403        0.863078        -3.30114
LJ           -2.3516         -3.8122        -4.74464
LJ          -6.30417        0.718542       -0.400837
LJ          0.632778       -0.634626        -3.27763
LJ           6.06324         5.11858        -6.21125
LJ           5.84475         -2.9797        -1.42841
LJ          -3.88016         1.69825        -4.90719
LJ         -0.835369        -2.61309        -3.27166
LJ          -1.04397         5.27781        -3.96531
LJ            1.8504         4.59946         5.23091
LJ           2.61739        -5.57853         3.85073
LJ           1.65606         1.24129          1.8906
LJ           6.34743         1.53612         1.35047
LJ           -1.9589       -0.931386        -3.02986
LJ          -3.04555        -5.23614         -3.4544
LJ          -2.60926        -6.03379        -4.09335
LJ           -5.6699        -1.34541        -1.43882
LJ          -4.69359        -1.27538        -5.77479
LJ          -5.33695        -3.30538        -2.08208
LJ          -2.20664        -0.80406        -5.94564
LJ          -3.46404        -4.22786        -5.61272
LJ          0.287647         5.03266        -6.43966
LJ          -1.73262         2.58922        -4.69186
LJ          -1.85466        -2.08067        -3.26202
LJ          0.980499         4.46157         4.14121
LJ          -6.09603        -2.14593        -1.91252
LJ          -5.09875        -2.30049        -1.36158
LJ           3.53455        -6.40449         3.44208
LJ            -5.464         -3.8089        -5.15942
LJ           1.46535         5.28497        -2.91291
LJ          -5.00537        -5.53721         3.02276
LJ         -0.832497        -6.36188        -4.03516
LJ          -0.33755         4.78476         4.14424
LJ          -0.35119          5.8563        -4.72445
LJ           0.47676         2.78555         6.14488
LJ          -4.31285        -3.43962        -5.32533
LJ           3.25279         5.21035         1.93925
LJ           5.98691        -1.00076         1.92009
LJ           5.65392         1.06049        0.348578
LJ           6.12541         4.62572        0.642824
LJ          -3.82625         1.34071        -2.35214
LJ         -0.937178        -6.15494        -5.14308
LJ          -6.27629       -0.515752        -4.07449
LJ            1.3184         6.22903         6.34969
LJ           6.26037           0.384        -3.73234
LJ          -5.91752       -0.637607         5.59239
LJ          -5.07139        -4.90548        -5.75291
LJ         -0.706512         1.80517        -3.95303
LJ          -6.15617        -6.18846        -4.76433
LJ          -1.86793         4.63333        -4.52069
LJ          -6.10574         3.91807         1.52344
LJ           6.06309       -0.597542        -3.06584
LJ           0.94508        -1.41621        -2.01423
LJ          -1.55025         -4.3966        -5.35937
LJ          -2.16277        0.990646        -5.92819
LJ           4.69146        -2.40166        -5.13637
LJ           2.21758        -4.05546       -0.690931
LJ           4.77738        -5.79717         2.45493
LJ          -6.06375        -4.93129        -6.20481
LJ          -3.86203         2.05689        -3.23674
LJ          -6.07208         3.82793        0.437447
LJ           5.35035        -5.09818         3.36685
LJ          -1.55803        -3.29152         -5.2662
LJ          -4.71654     -0.00151395        -2.96143
LJ         -0.726275       -0.133877         4.81752
LJ         -0.976323        -2.98444        -6.42111
LJ            4.8741         3.43063        -2.79722
LJ           1.12493        -3.89002        -6.11675
LJ          -2.94459         2.37393        -4.79868
LJ          0.105038        -4.70565         5.58236
LJ          0.160653         5.10659        -3.62414
LJ           4.46527        0.350378        -2.48303
LJ           2.85202        -4.90378       -0.608151
LJ           3.69956         6.39682         1.62475
LJ          -5.78685       -0.745484        -2.94434
LJ          -3.19262       -0.648085        -5.49275
LJ          -2.61958        0.872774        -4.83832
LJ          -3.49327        -2.80126        -6.31393
LJ          -4.60817       -0.508192        -4.77153
LJ          -1.54176         -2.4236        -4.50934
LJ          -4.57967        -2.39805         -5.3621
LJ          -1.03465          5.1971        -5.99853
LJ         -0.875837         2.36522         3.25358
LJ          -4.90336       -0.734186        -1.01978
LJ           4.23911         5.49864         1.89292
LJ          0.900589         5.38855         5.22181
LJ         -0.868207         4.17153        -4.51288
LJ          -3.92036        0.406054        -4.67388
LJ           1.02321        -1.70023        -3.23404
LJ           1.29511         4.24224         6.15553
LJ          -6.16839       -0.141082        -2.29469
LJ           2.24633        0.237997         3.14473
LJ            -1.247         5.44801        -5.02408
LJ          -6.08696       -0.591116       -0.609241
LJ          -5.61528        -4.30874        -1.57054
