108
#Comment!
LJ         -0.290949        -5.88228          5.8073
LJ          -2.26528         5.42734        -5.28225
LJ          -3.45649       -0.858415        -1.80733
LJ          -3.19683         4.73743        -4.30976
LJ           3.35522         4.15755        -2.15148
LJ          -3.48232        -0.13177         6.36585
LJ           5.98432         3.90981         1.18745
LJ          -4.09442        0.570861          4.5482
LJ         -0.471046        -5.36512        -5.04655
LJ           1.27187        -1.69133         5.56439
LJ         -0.644556        -2.05788        -3.38229
LJ           4.04669        -6.14201         3.93698
LJ          -4.71313         5.46014         3.75706
LJ          -6.41034          4.4422         5.84096
LJ          -5.27715          2.5615         -4.8349
LJ           2.87053       -0.313482        -1.26579
LJ           4.06759        -1.84293         4.28908
LJ           2.85183        -5.19156         -3.7344
LJ           6.12568        -2.38754        0.509024
LJ          -2.03738        0.380366        -4.69123
LJ         -0.247561        -3.25613        -3.12628
LJ          0.897669         5.77609        -5.39048
LJ           1.24445        -6.36816         1.43761
LJ          -2.01776       -0.828624        -2.50187
LJ           2.35891         4.09086        -1.22724
LJ           1.57872        -2.09888         4.38427
LJ          0.289192        -1.80254         4.90986
LJ          -2.17264         4.29219        -3.52146
LJ         -0.458567        -2.76907        -2.21159
LJ           6.42526        -2.76692       -0.822429
LJ           -2.4658       -0.194586        -1.09497
LJ           4.68484       -0.826864         1.38173
LJ          0.496662        -2.73558         3.99348
LJ          -4.19924        -3.84011         5.52305
LJ           4.28242        -2.54269        -3.92255
LJ           5.47052         3.83056         5.65011
LJ          -1.50359        -2.94753        -2.70127
LJ            3.4324         2.26345          4.9108
LJ           5.43562        0.855374        0.987503
LJ           5.65737        -3.06323        -2.27292
LJ           5.91477       -0.843198         5.19019
LJ           5.12685        -5.45259         3.62334
LJ            3.0534         4.15373       -0.234599
LJ           4.97301        -1.40893         4.62094
LJ          0.721067         6.23601        -4.45344
LJ           2.13123         3.32506         4.57189
LJ          -0.71979        -5.65991        -6.05967
LJ           3.43536         2.98555         1.59669
LJ           5.67345         5.38511     -0.00897768
LJ          -1.71853         -6.2306         1.47319
LJ          -5.41761        -2.87275         5.56183
LJ           1.95177          5.0808        -4.68282
LJ          -4.54323         1.98753        0.959234
LJ          -4.29435        -1.72057        -3.31446
LJ          0.375824        -5.15457        -5.65458
LJ           6.38319        -1.12705         1.37602
LJ        -0.0845776         6.15187         -6.3106
LJ           3.94946       -0.653281         -3.0283
LJ           2.91681         2.77294        -2.16705
LJ            5.4301         6.45441           2.866
LJ          0.777001        0.726723        -1.39689
LJ             3.365        -1.53099         -3.2751
LJ         0.0762611        -6.33831        -5.32837
LJ          -5.28142         2.73923        0.526096
LJ            1.8372        -2.08507         2.16144
LJ        -0.0148275        -6.18903         -2.8099
LJ          -4.21807        -2.57964        -3.90552
LJ          -2.89589        -1.10215         4.04234
LJ           -4.5535        -1.61783        0.856397
LJ           3.98344        -6.43096         2.92369
LJ           3.13615        -5.80511         4.47673
LJ          -5.64017        -3.71713         4.77409
LJ          -4.66933          1.0498        -6.37333
LJ          -3.87509         2.89127        0.912399
LJ           5.26617        -2.59742       -0.205187
LJ          -4.01189        -2.89362         1.23966
LJ          -2.51583         3.88271         5.50472
LJ          -2.58502         1.15579         4.02631
LJ          -3.28546        0.691859         -4.1015
LJ           2.65937         3.42241         -3.5268
LJ          -2.13347       -0.169542        -3.66414
LJ          -1.45005         2.47641         4.29699
LJ           2.73647        -3.35257         1.92664
LJ           4.01905          4.4188       -0.662003
LJ           4.74081      -0.0303535        -1.29741
LJ         -0.130817        -4.25047        -4.45314
LJ           4.93587       -0.196259        -2.47312
LJ           6.28771          3.4227        -6.30672
LJ          -1.34098         1.43815         3.93582
LJ          -6.10639        0.705219         -4.5073
LJ          0.144132       -0.688604         5.27236
LJ          -3.07625         2.86307         -4.4095
LJ         0.0664355        -5.79944        -4.34241
LJ           5.92149         5.91714        0.951034
LJ         -0.234171          5.5063         3.29801
LJ           6.34956         3.92757         4.93651
LJ           3.09617       -0.873753        -2.28049
LJ            2.6505        -5.08717         5.62714
LJ           2.29518         4.50318        -5.77157
LJ         -0.437553         1.93753         2.31689
LJ          -3.81957        0.559218        -5.56866
LJ          -2.19198       -0.514666         3.43614
LJ          0.436237         4.69745         3.66654
LJ           2.68537        -1.44293        -1.47663
LJ         -0.260218        -2.52293        -1.20336
LJ           1.49736         5.16522        -6.13507
LJ           5.65913       -0.792918           2.491
LJ           2.52133       -0.212222        -0.19863
