108
#Comment!
LJ          -2.14539        -6.02194        -5.99594
LJ          -2.62517        -3.45218         6.24113
LJ          -2.61928        -2.91533        -3.80214
LJ          -2.33761        -2.29267        -2.31207
LJ         -0.982727         -2.5459        -2.79989
LJ           -4.4885        -1.74657        -5.44574
LJ           3.98625          3.4099        -2.13226
LJ          -6.13577        -3.97267        -6.06697
LJ           -2.6746        -3.40361         4.96933
LJ          -4.54884       -0.812381        -3.42167
LJ         -0.616809          6.3844         5.95019
LJ           1.72435        -5.90606        -1.04998
LJ           4.70273         6.40152         1.26427
LJ          -2.23267        -1.18083        -2.02354
LJ          -3.42441        -4.94756        -5.81713
LJ           5.18223         2.46645        -2.51277
LJ          -1.93024        -1.65269        -3.02545
LJ          -3.95948         1.86894        -4.64175
LJ          -3.79923        -1.68802         -2.5196
LJ           3.42512       -0.414039        -3.68928
LJ          -3.61594        -3.07371        -4.16314
LJ          -1.16513         4.88538        -3.11376
LJ          -2.44925         4.48653         3.70286
LJ           4.05048        -5.78291        0.741725
LJ          -3.09443         1.66128        -5.45473
LJ           3.93152         1.91722        -1.26364
LJ          -2.71365        -3.08611        -4.91047
LJ         -0.455681         6.37509        -5.38071
LJ          -0.41857         5.44932        -4.00445
LJ          -5.16388        -1.64564        -3.50925
LJ          -4.41919        -2.89832        -5.73242
LJ          -4.57827        -3.70175        -2.42202
LJ          -1.37409       -0.718989        -3.25863
LJ            -1.183        -2.93424        -6.33024
LJ          -2.53183          5.7862        -5.78937
LJ           -6.3853         4.35537         1.66869
LJ          -2.24958        -1.18793        -3.92366
LJ          -1.33418         5.63401         4.45268
LJ          -3.42044       -0.846669        -4.03199
LJ          -2.25084         1.85695       -0.661125
LJ           5.54222         -5.7936        0.959941
LJ          -5.70487        -2.76038        -6.37962
LJ           1.53405       -0.529976       -0.238351
LJ          -4.47345         3.32034         3.29921
LJ          -1.24028         5.24165         5.70381
LJ           4.42141         1.46418         1.60741
LJ         -0.949175        -5.96889        -6.09365
LJ         -0.948909         6.19567         3.70261
LJ          -3.58878        0.633057        -5.06355
LJ           2.59001      0.00968828         3.83884
LJ           4.29478        0.789762        -1.01652
LJ           4.46008         3.38544        -3.29816
LJ           4.86403         5.19383        0.365638
LJ          -4.50597       -0.954264        -2.12966
LJ          -3.51539        -3.75168          -5.688
LJ          -4.74973        -2.74197        -3.65031
LJ          0.640417        -4.90509         4.05334
LJ          -2.84656       -0.545713        -5.05141
LJ          -3.44804         2.94893       -0.121874
LJ          -3.85158        -3.14436         5.56016
LJ           0.12401        -5.97535         -6.2304
LJ           3.03088         6.40418        0.114863
LJ          -1.80527        -6.03776         -5.0257
LJ           4.89347         4.46196         1.20917
LJ           5.65348        -1.08343         6.15265
LJ          0.818647        -5.07348        -1.07069
LJ          -3.34862         3.91075       -0.879441
LJ           4.63799         3.62802         3.29068
LJ          -2.39989        -1.60228         -5.1173
LJ           4.13685         -3.0527        -3.96266
LJ           2.07756        -6.14467         1.28988
LJ          -4.99467        -4.94641         2.99988
LJ           2.07025        -0.40865        -3.34105
LJ           4.20923        -4.00644       -0.879031
LJ           3.86935        -6.21526         1.80743
LJ          -3.63974        -2.27627        -5.07944
LJ          -4.01405        -1.82977         -3.6118
LJ          -1.22304        -4.95885        -1.10002
LJ          -3.45067        -4.19913         6.06775
LJ           5.30585          3.8656         -2.5876
LJ          -4.21676        0.148871        -3.91051
LJ          -1.07514        -1.13277        -2.25271
LJ           6.16206         6.41895        -1.70236
LJ          -2.17916         6.04187         6.08384
LJ          -3.37602         3.11512        -4.58738
LJ           1.66794         5.85118         1.66766
LJ           5.40654        -5.76488      -0.0919797
LJ         -0.895787        -5.15293        -5.42188
LJ          -3.09943        0.067672        -3.70984
LJ          -1.87086     -0.00249167        -2.24108
LJ        -0.0268509        -2.68334        -1.13286
LJ          0.689069        -1.49492        -3.76996
LJ          -4.14757        -2.75318        -2.43812
LJ           5.98511        -1.33311        -5.68426
LJ          -1.53146         5.78522        -4.45206
LJ          0.750245         4.35172        -2.90756
LJ           -2.9583        -2.01214        -4.33037
LJ          -3.44988        -2.75491        -6.42031
LJ          -1.29499         5.16006        -5.36838
LJ          -2.17898        -5.04511        -5.46201
LJ          -3.10374        -1.40349        -6.11889
LJ          -3.05381        -4.22914        -4.73376
LJ         -0.272199         5.15722        -5.67861
LJ           3.02027        0.675437         4.68497
LJ           2.31898         1.33805        -4.27128
LJ          -1.46697         6.07238        -5.92932
LJ          -6.32576        -2.84781        -5.38938
LJ          -1.65408       -0.546601          3.0139
