108
#Comment!
LJ          -1.15186        -6.26703        -5.75105
LJ          -0.18218        -6.22264        -3.90093
LJ          -2.24395       -0.587499        -5.00193
LJ          -2.18459        0.687853         -4.6412
LJ           1.60644         5.34098        -3.20825
LJ          -2.56956       -0.781156         5.58853
LJ           4.20432         4.48104        -2.08285
LJ          -2.56694       0.0373668         6.11882
LJ          -1.89207        -2.78992        -5.35086
LJ          -2.13977        -1.66216         5.86414
LJ          -1.08096        -1.24349        -3.58398
LJ           2.98802        -6.35133         2.43654
LJ          -6.07351        -5.86864         3.60019
LJ           -4.3507         3.31098        -2.40319
LJ          -2.45245         -5.6336        -1.14479
LJ          -5.09072       -0.632241       0.0896016
LJ            1.8053        -1.49082        -5.98037
LJ           4.01322        -6.40091        -6.14815
LJ            6.1757        -2.84192        -2.16778
LJ          -4.08916         1.68511        -4.80424
LJ           -2.0792        -2.80577        -2.33499
LJ          0.513295         5.48676        -5.39859
LJ           1.67862         6.09884          4.4211
LJ          0.828626          4.9466        -6.35371
LJ           5.08254         1.84341        -0.99834
LJ            4.0557        0.776336         3.86816
LJ           -2.4112        -3.33676        -4.31303
LJ          -1.88668        -5.32147        -4.37509
LJ          -3.10178        -5.65205        -3.76128
LJ          -5.91589        -1.27165        -1.93025
LJ          -2.69404        -1.59889        -4.35032
LJ            5.5259        -2.28618        -2.62273
LJ          -2.74547        -2.20901        -6.18848
LJ          -6.21199        -4.83301         4.65196
LJ           1.24599        0.538922         6.12653
LJ          -3.12087         1.95827        -4.38119
LJ          -1.25699        -2.56253        -3.43559
LJ          0.149273         4.14825         3.96741
LJ           -6.1276        -2.16795        -1.21417
LJ           6.05146        -1.74625        -1.83859
LJ             4.765        -6.17025         3.66895
LJ          -5.61644        -4.03645         6.37582
LJ           2.57451         5.86112         -3.0319
LJ          -5.49246        -3.79506         2.83593
LJ         -0.621181         5.73635        -4.50157
LJ           1.13832         3.50716         3.85948
LJ          -0.31448        -6.16074        -5.02779
LJ           0.60466         3.76181         5.13127
LJ          -4.39642        -3.94617         6.18074
LJ           1.95794         5.51963         3.03421
LJ           6.45406        -1.37659         3.21051
LJ          -6.20403       -0.497996        0.373745
LJ           6.40516         3.63187        0.552554
LJ          -4.60576         3.62118        -3.51174
LJ          -1.07102        -5.29416        -4.94818
LJ          -6.28846       -0.748271        -3.17974
LJ          0.875317         6.29081         -6.1088
LJ           5.37445        -1.22867        -2.97744
LJ           3.72051      -0.0664102         -6.0532
LJ          -4.69517        -5.07285        -6.25498
LJ         -0.434734         1.88609        -2.60118
LJ          -6.05515        -6.39495         5.87397
LJ        -0.0359737         4.73485        -4.86898
LJ          -5.79927         3.54808         1.77556
LJ           6.05788       -0.565566        -2.01939
LJ           1.75458       -0.422323        -3.80194
LJ          -1.35629        -2.28332           5.296
LJ          -1.81569        -1.00846        -6.23011
LJ           3.66752         -3.8036        -3.34144
LJ           2.49173        -4.88925       -0.192855
LJ           4.05604        -6.36454         1.44063
LJ          -6.09672        -5.93228        -5.90166
LJ          -4.25937         2.52287        -3.16026
LJ          -5.47115         3.40052        0.750321
LJ           4.61747        -5.18636         3.10816
LJ           -1.3147          -1.893         -5.9648
LJ          -4.30587       -0.718139         -4.5013
LJ          -1.50454         1.79523        -5.62868
LJ          -1.19005        -1.21823        -4.92464
LJ            4.2483         3.30553        -2.40153
LJ          -1.06173         0.16326        -5.24904
LJ          -3.96429         2.89068        -4.34194
LJ           2.73153        -2.92319        -4.91849
LJ           1.27019         4.42301        -3.46491
LJ           3.17997         -0.2603        -1.11512
LJ           1.39753         -4.1498         0.80944
LJ           6.09805         5.88198        0.881248
LJ          -2.93202       0.0550416        -4.81636
LJ          -2.77081       -0.657071        -5.97871
LJ          -3.05237         1.10979        -5.31162
LJ          -3.01688        -2.84493        -5.17092
LJ          -3.30178        0.312109        -5.99103
LJ          -2.12268        -1.81382        -5.21097
LJ          -3.72727        -3.41408        -5.98147
LJ          0.320754         5.97294         6.06804
LJ           -3.2216         2.92097         4.82934
LJ          -4.96142        -1.44804        -0.93882
LJ           3.93644         -6.3873         3.06443
LJ          0.872073         5.56303        -4.07177
LJ         -0.145448          4.0454        -6.19042
LJ          -2.17921        0.463529        -5.86155
LJ           1.39968        0.321094        -2.97779
LJ        -0.0312134         4.79582         5.82712
LJ           5.20434        0.626792        -1.47191
LJ           1.67418       -0.246244         2.42606
LJ         -0.443995         5.75979        -5.58285
LJ           6.42955      -0.0650194         -0.8595
LJ           5.05246        -3.16389        -2.31048
