108
#Comment!
LJ          -1.61489        -5.04823        -4.81894
LJ          0.190147         4.90831         -4.6909
LJ           -1.5961        -1.07349        -4.28781
LJ          -3.31146         1.17726        -4.68863
LJ            2.5832         4.61447        -2.65916
LJ           -1.3592        -1.78679         4.76591
LJ           4.27407         4.38084        -2.63961
LJ          -3.00167         2.11591          6.1259
LJ         -0.980115        -4.25484        -4.34496
LJ          -1.54669        -0.79489          6.3515
LJ         -0.514526        -3.38029        -3.59698
LJ           3.75381         5.34426          2.8501
LJ           6.25138         6.12319         3.30416
LJ          -4.46498         3.81248        -5.73967
LJ          -3.16848         4.88719         1.99575
LJ               4.9        -2.66879        -2.34776
LJ           2.71888        -1.81292          5.4879
LJ           1.62803         6.17102        -6.08949
LJ           6.41729        -2.48799        -2.11384
LJ          -5.73588         1.72903        -4.63426
LJ          -2.64433        -3.16515        -4.97651
LJ           1.38138         5.52702        -4.53791
LJ           3.14306        -5.72007         3.69741
LJ          -2.81991        -6.09536        -3.77596
LJ           -4.0124         1.52676        -3.31367
LJ         -0.729563        -0.59775        -5.83849
LJ          -1.80111        -3.00622        -6.00913
LJ          -1.49609        -6.31374        -4.77809
LJ          -2.67195        -2.91054        -3.55104
LJ          -5.95384       -0.318773        -1.99855
LJ          -1.90651        -2.08011        -3.94518
LJ            3.0939         -0.5191        -1.35102
LJ         -0.284424        -1.42775         5.74064
LJ           6.00621          -4.241         3.78221
LJ           3.26743        -2.49313        -4.17682
LJ          -4.24342         1.85843        -5.25445
LJ          -1.69782        -3.19318        -3.91374
LJ           2.69438          4.2532          4.6947
LJ           6.29568        -3.04795        -1.18442
LJ           5.15681        -1.52118         -1.4638
LJ           5.40804        -3.33284         3.66861
LJ           -5.9772        -5.32882         5.34031
LJ           3.43348          5.5064        -1.59458
LJ          -6.45653        -2.05545         2.90777
LJ         -0.194786        -5.68741        -5.66302
LJ           1.47296         4.11899          4.4535
LJ         -0.299456         6.36199         -4.6729
LJ          0.673823         2.87231         4.32466
LJ          -4.36856        -4.80573         5.00485
LJ          0.110373          5.9015         2.75623
LJ          -5.71872        -2.09346         4.60433
LJ          -3.27995        -2.79716       0.0111958
LJ            -5.967         2.74211        0.669616
LJ           -4.4529         2.05562        -4.23726
LJ         -0.932013        -5.35295         6.25576
LJ           6.42474        -1.48457        -1.63833
LJ           1.81433        -6.19325         -4.7445
LJ           4.65818       -0.205472        -1.90946
LJ          0.653516        0.860867        -3.61092
LJ          -4.89227         -5.7926          5.4567
LJ         -0.486115         1.67967        -1.51533
LJ          -4.68523        -5.05152         4.03829
LJ          0.756426         6.27698         -5.1823
LJ          -5.82057         3.36166         1.70442
LJ           5.81412       -0.392599        -1.84701
LJ           1.75033         1.84157        -5.14672
LJ          -2.87012        -1.49004         4.28436
LJ          -1.75272        -1.88981         6.17739
LJ           3.78543        -4.09124       -0.841698
LJ          0.878353        -4.43243         2.17258
LJ           4.11817         6.20521         3.17495
LJ          -5.31396        -4.36891         4.79094
LJ          -3.17221         3.53628        -4.67106
LJ          -4.86256         3.00374        0.971065
LJ           4.55144        -4.10709         3.56492
LJ         0.0180159        -4.38623        -4.07553
LJ          -3.52288         1.20732         5.54031
LJ          -3.00148         2.27234        -4.87978
LJ         -0.652171       -0.586729        -3.42543
LJ           3.59776         4.26245        -1.19722
LJ          -1.87829       -0.675377        -3.00406
LJ          -4.51422         0.38822        -5.31319
LJ           5.44801        0.520279        -2.27547
LJ           3.04539         3.68819        -2.56776
LJ            2.9862        -1.07317       -0.228211
LJ           1.92839        -5.00061        0.983213
LJ          -5.03561         4.12545        -1.04859
LJ          -4.42578         1.82032        -6.35135
LJ          -3.59688          1.4506        -5.95018
LJ          -2.16919         1.19969        -4.21184
LJ          -1.09214        -2.04806        -5.59827
LJ          -3.68074         2.95212        -5.42672
LJ          -1.19391        -2.78849        -4.75108
LJ          -4.31188        -5.53421        -6.29575
LJ          0.170305         4.17717         4.70037
LJ          -5.38321         3.07635        -6.37136
LJ          -5.71799        -1.32423        -2.27353
LJ           3.25567         6.38688         2.55585
LJ          0.664163         6.13294        -4.04278
LJ          -1.04139         3.22338          4.5073
LJ          -2.93235         2.80908        -3.93183
LJ          0.663571       0.0837625        -5.74901
LJ           0.35464         5.39378          3.9274
LJ           5.54911        -1.15184        -2.79996
LJ           1.05496       -0.771061         1.53498
LJ           2.28482          5.8182        -5.04177
LJ           5.89278        -1.79861       -0.307935
LJ           3.91867         -1.2283        -1.63971
