108
#Comment!
LJ          -1.51282         6.10808        -4.94617
LJ         -0.851949           5.253        -5.39923
LJ          -1.95063       -0.344482        -2.31613
LJ          -2.73628         3.45224        -5.03885
LJ           3.10746         4.38633        -2.12098
LJ          -2.69842       -0.160799         5.52091
LJ           5.80967         5.30601        0.389514
LJ          -1.63415         3.93133         6.23199
LJ          0.234037        -4.57909        -5.03615
LJ         -0.239028        -1.09625         5.29348
LJ          -1.02799        -4.16377        -4.31574
LJ           3.20694        -6.20765         3.34063
LJ           -5.5084         5.31931         3.70429
LJ          -5.85125         3.69482         5.54501
LJ          -4.02733         1.59806         5.93352
LJ           4.72794       -0.343959        -2.77948
LJ           3.55309        -1.77535         4.57766
LJ            1.6862        -5.90396        -5.12004
LJ           5.92088        -1.75973        -1.91265
LJ          -4.81878        0.159912        -2.10719
LJ          -1.59771        -2.59246        -2.76626
LJ          0.783683        -5.46282        -4.56798
LJ           1.10996         6.07284         2.32836
LJ          -2.44185        -1.95254        -2.99442
LJ         -0.416317         2.22918        -2.28318
LJ         -0.175193        -1.98954        -5.94904
LJ         -0.309085        -2.39226         4.92468
LJ          -2.06304         4.52589        -4.36315
LJ          -1.45819        -1.48105        -2.97902
LJ           5.54859       -0.472823       -0.347187
LJ          -2.27546        -1.08235        -3.54204
LJ           3.49615        0.481286        0.103362
LJ          0.322455        -2.38304         5.87345
LJ          -4.73174        -3.32415         5.40376
LJ           4.44955        -3.41635        -2.94956
LJ           6.35783         2.74268         5.77906
LJ         -0.966937        -3.79934        -3.32011
LJ           3.26417         2.96861         4.91662
LJ           4.28333        -1.51726     -0.00525475
LJ           5.33478        -1.63853       -0.765534
LJ           5.79724        -1.67622         4.67353
LJ           5.66118        -5.62236         3.79172
LJ           2.73642         3.39578         -2.1156
LJ           4.81323        -1.51998         3.93297
LJ          0.484727         6.11575        -4.50669
LJ           1.74935         4.03303         4.42207
LJ           0.13443        -6.26196        -6.04434
LJ           2.24047         4.03762         2.97566
LJ          -5.60497         6.43109         3.53845
LJ          -1.25049        -6.45725         1.81712
LJ          -5.39796        -2.38759         5.46519
LJ           0.15286        -5.52564        -1.50559
LJ          -5.07129         2.19654        0.878311
LJ          -4.77362        0.142126        -3.28448
LJ         -0.565636        -5.40842        -5.76491
LJ            5.0385        -1.32682         1.00659
LJ            1.3201        -5.88413         6.23003
LJ           4.35314         -0.6347        -1.19319
LJ           0.57706         2.55982       -0.969388
LJ           6.03908        -6.25726         2.97024
LJ         -0.183542         1.26549        -1.44678
LJ          -1.08006        -3.69806        0.665006
LJ        -0.0303319        -6.12143        -4.98686
LJ          -5.63984         3.05789         1.12923
LJ           6.30548       -0.941357       -0.985216
LJ          0.789641         3.72169        -3.70145
LJ          -3.15367        -1.46886         -4.4174
LJ          -3.18473       0.0297342         4.54718
LJ           5.53164        -2.25475         0.87838
LJ            2.5844        -5.92549         2.55701
LJ           4.69778        -5.80041         4.04141
LJ          -5.67004         -3.8673         4.64892
LJ          -3.75906         1.45021        -5.50882
LJ          -4.29014         2.89934        0.879534
LJ           5.29544        -3.23179         2.27679
LJ          -2.25778        -4.24291        -1.23096
LJ          -1.94698         2.59157         6.16986
LJ          -2.90156         1.78831         5.46376
LJ          -3.13042       -0.506462        -2.62154
LJ           4.13174         5.06664        -2.53469
LJ          -1.71731         -2.0841        -3.79706
LJ          -2.25623         1.82729         3.79047
LJ           5.36965        -3.52041        0.340734
LJ           3.63763         3.80176        -1.39546
LJ           3.75866        -1.84075        -1.58488
LJ           2.19829        -5.38322         4.95507
LJ           -4.9926         1.84299        -2.43931
LJ          -6.07715         3.42617        -6.33531
LJ          -1.64596         1.87214         4.93522
LJ          -4.40104        0.542385        -4.63803
LJ          0.939085        -1.17524          5.8467
LJ          -3.83381         3.08992        -4.97274
LJ          0.882875        -5.67001        -5.58142
LJ          -5.76169         6.00031         2.42144
LJ          0.510916         5.40165         3.17547
LJ           6.12133         4.24409         6.05351
LJ           4.51632        -1.41104        -3.48023
LJ           3.13452        -5.94713         4.57827
LJ         -0.562561         5.80651        -4.37895
LJ          -1.10357         2.24584         3.08322
LJ           -4.7172          1.0504         -5.6405
LJ           -2.7226       -0.822038         3.78441
LJ          0.865081         4.75401         3.92379
LJ           3.90414        -1.55136        -2.62227
LJ          0.430725        -1.48531        0.221909
LJ           1.88742         5.98475        -5.64859
LJ           6.20907        -1.74246       -0.183728
LJ           3.29657        -0.79858        -2.03046
