108
#Comment!
LJ           -2.2763        -6.14583        -5.72197
LJ          -2.97519        -3.78795        -6.37733
LJ          -2.75072        -2.95467         -4.2441
LJ          -2.64479        -2.83537        -2.67483
LJ         -0.184944         -2.6393        -3.01687
LJ          -4.43518        -1.60114        -5.36271
LJ           3.54182         3.35915        -1.62424
LJ          -5.40557        -2.82265        -5.92925
LJ          -2.59418         -3.5039         4.74653
LJ          -4.40084       -0.270323        -2.79103
LJ          -0.41118         5.71219        -6.45771
LJ           1.48797        -5.77335        -1.04478
LJ           4.57354          6.3366         1.01636
LJ            -2.408       -0.923532         -2.3308
LJ          -2.48701        -4.19986        -4.90295
LJ           5.44578         2.29261        -2.21041
LJ          -1.62786        -1.87937          -2.573
LJ          -4.54357         1.12868        -5.19005
LJ          -4.30299          -1.387        -3.22516
LJ           1.95941        0.495535        -3.48991
LJ          -3.99421        -3.12043        -4.29438
LJ         -0.636451         4.47222        -2.97071
LJ           -2.0834         4.32124         3.17947
LJ           4.28092        -5.91759        0.263606
LJ          -3.30089         1.55966        -5.56302
LJ           4.56193         2.44852        -1.58514
LJ          -1.88975        -2.47526        -4.99569
LJ         -0.401272         5.87593        -4.67173
LJ         -0.881637         5.86843        -3.61126
LJ          -5.38195        -1.29851        -3.54997
LJ          -4.73078        -2.01176        -6.41744
LJ          -4.48148        -3.72526        -2.23483
LJ          -1.01629         -1.0536        -3.15052
LJ          -1.40548        -2.68382        -6.28679
LJ          -2.71332         5.08882        -5.51374
LJ          -6.21906         3.75639        0.798288
LJ          -1.88124        -1.71575        -4.25427
LJ          -1.52539         5.01976         4.63454
LJ          -3.22875        -1.24325        -3.82553
LJ          -2.49277         1.11383         -1.2826
LJ           5.58567         -5.3696         1.53876
LJ          -6.04426        -1.82652        -6.12518
LJ           1.32575        0.257331        -0.13676
LJ           -4.5215         3.68841         3.29163
LJ        -0.0639154         4.64798         6.04229
LJ           4.22856         1.43067         1.82372
LJ         -0.918403        -5.54559        -6.10916
LJ         -0.494805         5.67773         3.75482
LJ           -4.2703       -0.253479        -5.29072
LJ           2.59954        0.907468         3.16964
LJ           4.64367         1.22852        -1.43245
LJ           4.49783         3.10981        -2.34382
LJ           4.95835         4.63144        0.279049
LJ          -4.59208       -0.987658        -1.75542
LJ          -3.15749        -3.19609        -5.28918
LJ          -4.46772        -1.94484        -4.06489
LJ           0.83287        -5.05908         4.22073
LJ          -3.29148        -0.26923        -4.42252
LJ          -2.51909         2.16808       -0.730364
LJ          -3.42035         -2.9083         5.17283
LJ          0.189599        -5.85917        -6.40735
LJ           3.07731        -5.80863       0.0142862
LJ          -1.43166         6.46188        -5.12187
LJ           5.04049         4.85555         1.33337
LJ           6.02322        -1.46239         6.32573
LJ           0.83741        -5.00181       -0.349017
LJ          -2.50054          3.3957        -1.04445
LJ           5.40799         3.27141         2.64141
LJ          -2.53625        -1.08664        -4.86216
LJ           4.08449        -3.33381        -3.70272
LJ             2.879        -6.18258         1.95591
LJ          -5.05727        -4.83579         2.00439
LJ          0.856683       0.0148558        -3.88746
LJ           4.45486        -5.43219       -0.553293
LJ           3.88137        -5.94058         2.06519
LJ          -4.08617        -2.62815        -5.27948
LJ          -4.38423       -0.531771        -3.92143
LJ          -1.24984        -4.50029       -0.504661
LJ          -3.65686         -4.6165          6.2347
LJ           5.54386         3.38395        -3.01636
LJ          -3.90224        0.328268        -3.60758
LJ          -1.35039        -0.83342        -2.10557
LJ          -6.02839         6.43749        -1.02451
LJ          -2.13279         6.01275         6.10283
LJ          -3.59156         2.22444        -4.75348
LJ           1.67499         6.19132        0.645768
LJ           5.15829        -5.34279        0.520832
LJ          -1.33435          -3.924        -6.21359
LJ          -3.17872       -0.422841        -3.12167
LJ          -1.91494       -0.102339        -3.34647
LJ         -0.537855        -1.83891        -1.54487
LJ          0.519456        -1.51574        -4.11274
LJ          -3.67241        -3.02074        -2.73945
LJ           5.64339       -0.939628        -5.45045
LJ          -1.44209         5.47054        -4.40936
LJ          0.361181         4.06239        -2.65488
LJ          -3.51559        -2.17641        -4.12912
LJ          -4.24818        -3.11515         6.02837
LJ            -1.477         5.15335        -6.14937
LJ          -1.96459        -5.48272        -4.94626
LJ          -3.03419        -2.16739        -5.38776
LJ           -3.4094        -4.59433        -3.90592
LJ         -0.578742          5.2966        -5.55715
LJ           1.86143        0.480676         4.37039
LJ           2.28089         1.36369        -5.05192
LJ           -1.2517          6.2828        -6.09629
LJ          -6.37608         -2.5538        -5.01443
LJ          -1.93116        -1.02082         3.58377
