108
#Comment!
LJ         -0.110762        -5.31946         5.59531
LJ          -2.58283         5.63961        -5.43671
LJ          -3.56777       -0.756388         -1.5946
LJ          -3.27983         4.43071          -3.981
LJ           3.47805         4.06423         -2.5852
LJ          -3.39854       -0.276624         6.37365
LJ           5.97569         3.77533         1.36503
LJ          -4.97614       -0.542369         3.04326
LJ         -0.734213        -5.29028        -5.49452
LJ           1.33338        -1.58246         5.96972
LJ          -1.53387        -1.84211        -2.57845
LJ           3.51721        -5.97256          4.5353
LJ          -4.62638         5.48948         3.73881
LJ           6.38238         4.39961         5.84058
LJ           -5.2708         2.63492        -4.60614
LJ           2.38365       -0.113471       -0.998151
LJ           3.86954        -2.04078         3.93903
LJ           3.01791        -5.12178        -3.67175
LJ          -6.40075        -2.69034        0.342613
LJ          -1.92834        0.460561         -5.0418
LJ         -0.848649        -3.62069        -3.93839
LJ          0.915445         6.03182        -6.19767
LJ           1.26353        -6.33987         1.38187
LJ          -1.32946       -0.257298        -2.34648
LJ            1.7105         4.20322        -1.20253
LJ           2.04666        -2.50375           4.289
LJ         0.0645486        -2.17837         5.02537
LJ           -2.0563         4.46733        -3.28254
LJ         -0.361488        -2.35863        -2.04694
LJ           6.32591        -2.94363       -0.748249
LJ          -2.65376       -0.103971       -0.790653
LJ           4.95362       -0.463225         1.64896
LJ          0.171729        -2.39729         3.34197
LJ          -4.08398        -3.81234         5.66032
LJ           4.65644        -2.63864        -4.08821
LJ           5.44641         4.03753         5.35866
LJ         -0.265463        -2.51188        -3.14782
LJ           3.45502         2.16002         4.90176
LJ           5.53247        0.504221         1.48993
LJ            5.7581        -3.15519        -2.35439
LJ           6.20377       -0.528124         5.39011
LJ           5.17738        -5.02167         3.49254
LJ            3.2759         4.42208         0.18354
LJ           5.22415         -1.3832         4.90685
LJ           1.31237        -6.37454         -4.1992
LJ            2.1383         3.26865         4.49523
LJ          -1.50507        -5.40677         5.75688
LJ           3.89704         1.93973        0.631295
LJ           5.75383         5.36743       -0.694903
LJ            -1.767        -6.20531         1.43582
LJ          -5.39438        -2.98504          5.5426
LJ            1.9901         4.90381        -4.42591
LJ          -4.49757         1.93441        0.977715
LJ           -4.4279        -1.70612        -3.34236
LJ          0.890676        -5.75537         -6.1981
LJ           5.51248        -2.19895         2.07362
LJ         -0.816334         5.73672        -6.09278
LJ           3.83957      -0.0786659        -3.33523
LJ            3.1048         2.56108        -1.93881
LJ           5.93305         6.03847         2.91759
LJ          0.975681        0.598264        -1.51258
LJ           2.81726        -2.14117        -3.99833
LJ          0.153802        -5.57081        -4.86744
LJ          -5.20072         2.73383        0.419515
LJ           1.85114        -2.30144         2.67541
LJ         -0.194813        -6.37733         -1.9791
LJ          -4.21318        -2.76901        -4.01048
LJ           -3.0422        -1.57243          4.2802
LJ          -4.18004        -1.63474        0.409888
LJ           3.98405        -6.17444         2.98922
LJ           2.40471        -6.05132         4.31568
LJ          -5.74494        -3.73594         4.70519
LJ           -5.0304          1.3764          6.1537
LJ          -3.83875         2.93246        0.917302
LJ           6.21386        -1.59093        0.673449
LJ          -5.38153        -1.25153          2.1487
LJ          -2.62475         3.95335         5.54358
LJ          -2.86173        0.958136         3.82889
LJ          -3.32589        0.768865        -4.33003
LJ            2.7509         3.27701        -3.64062
LJ          -2.06363         0.25481        -3.26614
LJ          -1.34349         2.64719         4.32386
LJ           2.36422        -3.20881         1.89293
LJ           4.22446         4.45407       -0.430195
LJ           4.28875         1.16998       -0.172953
LJ         -0.716538        -4.91157        -4.40394
LJ           5.53736       -0.221351         -2.3845
LJ           6.29008          3.3642        -5.89561
LJ         -0.983552         1.56187         4.21161
LJ          -6.23111        0.588837        -4.47893
LJ         0.0749892       -0.435762          5.0429
LJ          -3.08049         2.91917        -4.55809
LJ          0.343168        -6.09948        -3.72294
LJ           5.69856         6.08712        0.931292
LJ         -0.334054         5.57485         3.27523
LJ           6.34364         3.93546         4.70371
LJ           3.11587        -1.06381        -2.56539
LJ           3.42648        -5.19525         5.44738
LJ            3.1209         4.09951        -6.07966
LJ         -0.339414          1.9614         2.08093
LJ          -3.89701        0.198691        -5.67525
LJ          -1.99626       -0.262135         3.09502
LJ          0.475169         4.64158         3.65909
LJ           2.49481        -1.35129        -1.27434
LJ         -0.174438        -2.73184       -0.311072
LJ           1.76168          4.3587        -6.17658
LJ          -6.22457        -1.01775         1.65422
LJ           2.38765       -0.129313        0.459747
