108
#Comment!
LJ          -1.80564         6.07911        -4.00362
LJ          -1.28228        -4.96905        -6.42967
LJ          -1.90979        -2.74285        -5.67252
LJ          -1.57903       -0.166152        -3.82753
LJ           0.10888        -4.51291        -4.48797
LJ          -3.78213       -0.817793        -5.69939
LJ           4.21034          2.8851        -2.27212
LJ          -5.04196        0.229793        -6.02634
LJ           -3.0054        -2.84265        -5.96966
LJ          -3.26255       0.0598544        -6.41154
LJ         -0.295063         1.77188        -4.86228
LJ           1.93466         -5.6967         1.89205
LJ           5.79061        -5.87056         4.44523
LJ          -4.13298        0.848914        -3.42397
LJ          -1.97958        -3.41104        -4.47766
LJ           5.48624         1.17176       -0.962596
LJ         -0.282501       -0.590232        -2.24659
LJ           -6.4045         4.26267        -6.17419
LJ           6.26756        -2.35005        -1.94312
LJ          -3.43455         1.19686        -4.36436
LJ          -1.07464        -2.01822        -4.94361
LJ          -1.41459         5.17327        -3.38677
LJ           1.58729         4.40728         4.94627
LJ           3.71393        -5.06865         1.88898
LJ          0.376439        0.689307         3.70519
LJ           5.91846         2.51378        0.860987
LJ          -1.91814        -1.68072         -2.9487
LJ          -2.66976        -5.13556        -3.30207
LJ          -2.08716        -4.66334        -4.34299
LJ          -6.29911        -1.21483        -2.54054
LJ          -5.22822       -0.754719        -5.49622
LJ           -4.4233        -2.52161        -1.51424
LJ          -2.63782        0.278439        -5.52325
LJ          -3.73576        -4.39082         6.20892
LJ         -0.853084          5.1967        -6.42994
LJ          -2.30255         3.08602        -4.37676
LJ          -1.70086        -1.59354        -4.02737
LJ           1.12892         4.59343         3.79611
LJ          -5.45117        -2.67807        -2.07046
LJ          -5.15374        -1.93938        -1.03432
LJ           3.26132         -6.0288          3.4851
LJ          -4.78317        -3.10957        -5.47617
LJ           1.29797         4.63914        -1.99232
LJ          -4.81158        -6.24649         3.06942
LJ         -0.786578         5.82877        -4.20432
LJ          0.274338         3.71142         4.43689
LJ          0.147593         5.29071        -4.62782
LJ          0.259501         3.43024         5.47513
LJ          -3.46703        -1.51609        -4.70955
LJ           2.92684         4.63567         1.97417
LJ           5.77609       -0.647336         1.13612
LJ            6.2583          1.6503        0.131763
LJ           6.05947         4.99548        0.745313
LJ          -3.76482       -0.117877        -2.50058
LJ         -0.896418        -6.39309        -5.19514
LJ          -5.66017       -0.142748        -3.68844
LJ           1.34725         6.25376         5.97299
LJ          -6.34112        0.569366        -4.12684
LJ          -4.05722       -0.922655         5.38735
LJ          -4.74406        -4.24108        -6.03978
LJ         -0.406276         2.76571        -5.12376
LJ          -6.20351        -5.71613        -4.15618
LJ          -2.04539         4.65638        -4.17407
LJ          -6.35969           4.066         1.46468
LJ          -6.25659        0.299137        -2.95674
LJ          0.992985         -2.4155         -1.5031
LJ           -1.0379        -4.22836        -4.42864
LJ          -3.27748         1.81992        -5.28302
LJ           5.31153        -1.66533        -5.97985
LJ           2.49461        -4.51722       -0.397179
LJ           5.41602         6.19255         3.21705
LJ          -5.70543        -5.18489        -4.91566
LJ          -3.08209        0.608581        -2.65739
LJ           6.36802         4.05484        0.233582
LJ           5.23857        -5.68219         3.22153
LJ          -1.18522        -3.53642        -5.63339
LJ          -5.47173       -0.408981        -2.62876
LJ         -0.858699        -1.02572         3.81713
LJ          -2.50179        -3.80337        -5.85499
LJ           4.94393         3.50313         -2.7444
LJ           1.45716        -6.23274        -5.94186
LJ          -2.81633          2.1268        -4.37808
LJ          -1.12666        -5.16216         4.70731
LJ         -0.233249         6.08732        -3.09689
LJ           5.51458        0.237722        -3.01301
LJ           3.21584        -4.44633         -1.7732
LJ            3.4226        -6.39889         2.12088
LJ          -4.54121        -1.79197        -3.78243
LJ          -3.03355       -0.788195         -3.9833
LJ          -2.66562        0.330221        -3.79152
LJ          -3.12804        -3.25172        -4.60694
LJ          -4.42513        -1.02496        -4.77921
LJ          -2.34198        -2.21801        -4.86062
LJ          -4.72354        -2.05932        -4.81827
LJ          -1.27207         4.39597        -5.53886
LJ          0.469489          1.9486         2.56036
LJ          -4.66315        -1.75939        -2.11164
LJ           4.59798        -5.58366         1.69766
LJ          0.147661         5.56559         4.83383
LJ          -1.01906         4.84534        -4.51428
LJ          -3.69926       -0.267349        -4.69702
LJ           -0.2289        -1.99614        -2.99038
LJ         0.0936683         4.47153         6.13015
LJ          -5.30839        0.253467        -1.41114
LJ           1.99819        0.861976         3.08844
LJ          -1.61403         5.72474        -5.05016
LJ          -5.28592        -1.02603        -1.78722
LJ          -4.71309        -3.39491       -0.823104
