108
#Comment!
LJ          -1.59858         6.40048        -5.49719
LJ         0.0426282        -5.96493        -4.05352
LJ          -1.88018        -0.83319        -5.39432
LJ            -2.171         1.46517        -4.05939
LJ           1.09555         5.92505        -3.51281
LJ          -2.66387       -0.624857          5.3919
LJ           4.11759         4.29362        -2.01922
LJ          -2.97127        0.225875         6.06688
LJ          -1.89255        -3.05522        -5.58548
LJ          -2.33633        -1.43778         6.28466
LJ          -1.05317       -0.790415        -3.41371
LJ           2.75277        -6.07887         2.55861
LJ          -6.05181        -5.89797         3.66175
LJ          -4.30568         2.59415        -2.20129
LJ          -2.31053        -5.14244        -1.80387
LJ           -5.3956      -0.0906702        0.533522
LJ           1.55963        -1.18326        -5.52284
LJ           4.77764         6.33913        -6.12656
LJ           6.39995        -3.61433        -1.43289
LJ          -3.83484         1.98191        -4.89858
LJ          -1.71697        -2.75547        -2.09945
LJ          0.148255         5.28774        -5.72344
LJ           1.43543         5.85439         4.53424
LJ           1.78894         5.52476          5.8921
LJ           4.23322         1.76154       -0.272133
LJ           4.85228         0.81236         3.03449
LJ          -2.33801         -2.9796        -4.01203
LJ          -2.45186        -5.14917        -4.13226
LJ          -3.15729        -6.01612        -3.83958
LJ          -5.56934        -1.30088        -1.98805
LJ          -2.65731        -1.06639        -4.81646
LJ           5.82413        -2.65433        -3.06677
LJ          -2.60056        -2.49423         6.44256
LJ          -5.82447        -4.85383         5.28443
LJ           1.09268         1.34597         5.78622
LJ          -2.84799         2.39287        -4.70304
LJ          -1.37632        -2.73015        -3.40389
LJ        -0.0124683         4.19573         4.18808
LJ           6.39116        -2.50931        -1.29377
LJ           5.99944         -1.4918        -1.90633
LJ           4.79292        -6.33284         3.63059
LJ          -5.78561        -4.03414        -6.25522
LJ           2.45259         5.91393        -3.32476
LJ          -5.40602        -4.18797         2.90169
LJ         -0.187926         5.95435        -4.07443
LJ          0.988777         3.92914         3.73547
LJ         -0.458583         6.22288        -5.19655
LJ          0.528613         3.44529         5.77788
LJ          -4.36902        -3.98049        -6.42142
LJ           2.54684         5.82675         2.44273
LJ           6.34311        -1.32171         2.92408
LJ          -6.31819      -0.0836722       0.0296818
LJ           6.27608         3.87748         0.42785
LJ          -4.23781         3.47683        -3.39706
LJ         -0.796627        -5.22953        -4.94898
LJ          -6.19514       -0.524616        -3.65926
LJ           1.29126         6.21704        -5.51283
LJ           5.48469       -0.738145        -2.78787
LJ           4.50375       -0.200591        -6.37005
LJ          -4.67221        -5.02576        -5.99758
LJ         -0.417985         1.89639        -2.87124
LJ           -6.1327         6.32291         6.25307
LJ         -0.280101         4.88381        -4.55446
LJ          -5.74616         3.60335         1.80718
LJ           6.31791       -0.495242        -2.21462
LJ           1.62213        -1.04276         -3.1866
LJ          -1.14994        -2.83865         6.03368
LJ          -2.13924       -0.280106         -6.3572
LJ           3.87302        -3.48576        -3.79389
LJ           2.51856        -4.58004       -0.647007
LJ            3.5933        -6.32568         1.72983
LJ          -6.19272        -5.57995        -5.89376
LJ          -4.66727         2.42529        -3.19146
LJ          -5.65492         3.52145        0.727275
LJ           4.67297        -5.38658         2.96084
LJ          -1.27308        -2.33821        -5.97799
LJ          -4.20909        -0.67136        -3.52146
LJ         -0.960487          1.1349        -6.25219
LJ         -0.737447        -1.78732        -5.13902
LJ           4.44482         3.28392        -2.56315
LJ         -0.909149        -0.58734        -5.94123
LJ          -3.51172         2.92494        -4.08399
LJ           2.12959        -3.42543        -5.55662
LJ          0.538011         4.64027        -3.99357
LJ           3.36733       -0.109315         -1.4231
LJ           1.63153        -4.41933        0.778169
LJ           5.70514         6.12639         1.33789
LJ          -4.06672       -0.291906        -4.58928
LJ          -3.06916       -0.833914        -6.10426
LJ          -3.27511         1.03759        -4.68205
LJ          -3.02645        -2.44931        -5.24187
LJ          -3.79838      -0.0793467        -5.62436
LJ          -2.14035        -1.95048        -5.25615
LJ          -4.10178         -3.0267        -6.11963
LJ          0.123259         5.57173          6.0238
LJ          -2.67327          2.7894         4.43497
LJ          -5.06649       -0.965234       -0.664579
LJ           4.11574         6.04417         2.71864
LJ           0.89104         5.49108        -4.78357
LJ         -0.203789         4.33139        -5.67865
LJ          -2.52218        0.616448        -5.78673
LJ           1.33581         0.16497        -3.01673
LJ           0.33575         4.55054         5.91746
LJ           5.37998        0.138741        -1.45734
LJ           1.80859       -0.138584         2.60594
LJ          -1.09503         5.37921        -5.33775
LJ           6.43465       0.0367106         -1.0058
LJ           5.59031         -3.3269        -2.13117
