108
#Comment!
LJ          -2.37851        -4.57376         -5.0956
LJ          -2.03215        -3.12924        -5.80115
LJ          -5.19926        0.782968        -2.00929
LJ          -2.53947         -3.7362        -3.79809
LJ          -2.27619        -5.84647        -3.56195
LJ           -1.8737        -2.21254        -4.36394
LJ           1.14988        0.418287         4.22109
LJ          -4.70489        -3.05798          5.3363
LJ          -5.13245         -2.9922        -5.79833
LJ           4.32758        -2.52463       -0.198167
LJ          -4.78218         4.65606        -5.74125
LJ         -0.402486         2.88431        -1.48584
LJ           5.12911         5.91198         2.00781
LJ         -0.844868        -3.12807        -4.48351
LJ           -1.7451        -5.01002        -6.19255
LJ           -3.6622        -5.34944        -1.86188
LJ          -2.82459         -2.7554        -3.81648
LJ          0.853352         5.83267         3.29211
LJ          -3.55103        -6.00353         -3.5713
LJ          -1.50623        -2.74678         4.42058
LJ          -1.53011        -5.30885        -4.63939
LJ           5.17725        -1.67941        -1.88794
LJ         -0.809848         -5.2592        -5.71253
LJ           4.31777        -6.00826        0.796289
LJ          -1.31291        -5.37199        0.920131
LJ          0.312384         1.22162       -0.730309
LJ          -3.43855        -3.88251        -5.88072
LJ          -2.19125        -3.39081          6.0476
LJ         -0.382661         5.61504          3.4827
LJ           4.54503         2.37908         4.68766
LJ         -0.986604        -4.12828         4.58509
LJ         -0.356176        -4.53477        -2.49108
LJ          -2.67901       -0.971192        0.479642
LJ          -3.91407        -1.73711        -5.92751
LJ           3.10177          2.5436         3.84377
LJ          -2.97127         5.38154       -0.582788
LJ           -4.0588        -6.05696          6.3641
LJ           5.47915        -5.89862        -1.58238
LJ          -3.79467        -3.04136         6.10353
LJ          -2.54865        -4.29286        -6.36675
LJ         -0.729663         2.84765        -2.64505
LJ           -3.0575        -5.42766        -4.73318
LJ           -2.8269          6.2158        -5.52942
LJ          -3.43622        -3.28375         4.87295
LJ          -3.45339        -4.41927        -4.39782
LJ           6.04425          2.3517        -3.96108
LJ          -4.03738        -2.44682        -5.05852
LJ          -1.78868        -4.54667         5.77724
LJ           3.16162        -1.63436         -6.0415
LJ           1.09048         -1.8004        0.417895
LJ           2.81748         3.27614         -2.8232
LJ          -5.34344        -4.00459        -3.31848
LJ          -1.32901         3.60451        -1.86013
LJ          -3.01323         1.44053         5.21298
LJ          -3.74831        -6.03202        -5.45042
LJ           -6.0266         6.01054         3.54806
LJ           5.82729        -6.12954        -3.15104
LJ          -3.27507        -5.72868       -0.529294
LJ           2.57382         6.04343        -2.24113
LJ         -0.445296        -4.76536        -3.47999
LJ         -0.312065         5.12145         2.49655
LJ          0.397797         1.54255        -2.96898
LJ          -3.38333         6.41615        -4.40384
LJ          0.912559          3.1295        -3.05474
LJ          0.465323       -0.647797         4.11887
LJ          -0.79974        -3.85138        -3.49209
LJ           3.57971         6.12093        0.698571
LJ           4.24113        -3.54284         1.69905
LJ          -2.68787        -5.48378         6.21913
LJ          -3.93614        -4.75244        -5.44921
LJ          -0.83051         1.76022        -3.14116
LJ           5.98993         3.54466         4.10894
LJ          -2.02185        -3.23477          -4.622
LJ          -1.12796       -0.594644       -0.982613
LJ           1.18814        0.770639        -3.66668
LJ          -1.12292        -4.32491        -5.09109
LJ          -2.92262        -2.69338        -6.13157
LJ          -5.98551       -0.188858          5.6001
LJ           5.37369         3.45445        -1.58723
LJ          -3.69421        -4.84478        -6.46264
LJ           2.10742        -3.04219        -1.91525
LJ           2.10921        -6.38098        -1.29176
LJ          -2.97005        -5.16334        -3.11137
LJ          -4.40235        -5.48409         5.32393
LJ           1.49979        -6.13503         6.37945
LJ          0.429368           -6.25         4.44918
LJ        -0.0977916         1.28557        -1.94893
LJ          -2.19485        -3.84861         4.91737
LJ        -0.0423064        -4.07794        -4.45199
LJ         -0.275664        -2.41608        -5.08414
LJ           2.14324         5.89066         3.08462
LJ           2.11521        -1.53317        -1.83615
LJ           5.56555        -3.90353        0.687993
LJ          -3.01445        -3.36773        -5.00654
LJ          -3.65551        -4.12061         5.70734
LJ          0.185096        -4.56994       -0.713715
LJ           -1.0634         -3.7423          5.6693
LJ          -1.36594        -2.45697         -5.1918
LJ          -2.92642         6.40315          6.2943
LJ         -0.767708        -4.87787        -1.10103
LJ          -1.71265        -4.89182        -3.28109
LJ          -3.65592        -2.04802         4.79739
LJ          -1.69244        -4.18673        -4.25051
LJ          -2.42163        -1.98629        -5.36725
LJ          0.221705        -3.77492        -3.48207
LJ          -6.40632        -4.87743         5.16931
LJ          -4.65007         3.18195        -1.11007
LJ          -0.30188       -0.405788        -1.78998
