108
#Comment!
LJ          -1.97978        -4.21559        -5.48221
LJ         -0.654582        -3.58629         -5.9831
LJ          -3.94587         5.48355        -4.80657
LJ           6.26413        -3.70038         -3.4051
LJ          -1.25391        -5.77746        -2.61031
LJ          -1.88632         -2.6135        -3.82135
LJ         -0.869499         6.45735         3.62537
LJ           4.30141        -1.55692         4.79265
LJ           5.50406        -2.13752         -4.7278
LJ            1.8163       -0.653762         2.31774
LJ          -3.68192          3.7413        -5.09179
LJ          -3.62431       -0.120659        -4.90873
LJ          -5.34223         5.27773         3.53996
LJ         -0.803058        -2.83302        -3.55673
LJ         -0.374927        -4.76874        -5.95586
LJ         -0.934735        -5.29498        -3.80258
LJ           2.39413         4.44434         2.03154
LJ           3.10544         5.96455         5.82699
LJ          -2.15976        -5.07615        -4.64935
LJ          -3.40626        -3.74523        -5.10111
LJ          -1.43925        -4.34688        -4.21164
LJ           -5.5959        -2.51257         6.39003
LJ         -0.205829        -5.20167         -4.9291
LJ          0.154102         3.24541       -0.722144
LJ          -1.51273         3.86982        0.329584
LJ         -0.516101        -2.04167        -2.85973
LJ          -2.49867         6.24967        -4.18366
LJ          -1.10367        -4.23863         5.45808
LJ           3.43413         5.63557        -6.04001
LJ          -2.87164        -6.35092        -2.88145
LJ         -0.180191        -2.45912         2.35054
LJ           -1.9618        -2.63725         -2.1296
LJ          -3.67148        -6.02295         5.90067
LJ         -0.380869        -2.24722        -6.11664
LJ           4.02874        -2.25427        -6.46124
LJ          -2.80248        -1.30924         4.25116
LJ          -2.83287        -5.99603        -5.31956
LJ            3.4645        -5.13986       -0.474897
LJ          -3.46481        -4.47465        -3.99997
LJ           -2.4334        -2.49102         6.39166
LJ          -1.58625        -1.52615        -2.54124
LJ          -2.96878        -4.68981        -5.05864
LJ          -3.96402        -5.25486         3.95441
LJ           5.76689        -6.26956         6.16585
LJ          -2.79309        -5.30966        -3.29948
LJ           5.69458          2.7593         6.15126
LJ          -2.51256        -3.26391        -4.52035
LJ            -1.852        -3.26339         5.80123
LJ           2.71641         1.50699          3.9369
LJ            1.9481        -1.89693         3.20768
LJ           1.51432        -1.29441         1.17021
LJ          -4.24813        -3.60939         -4.2453
LJ         -0.468407       -0.694282        -2.45541
LJ           -3.3971         4.21929        -1.25093
LJ          -2.36516        -5.08907         -6.0109
LJ           2.94669         5.02968       -0.651425
LJ           2.30766         1.80406       -0.237533
LJ          -1.42866         -5.1561        -1.41295
LJ         -0.485224         3.70845       0.0450515
LJ          -4.72874        -0.94656       0.0860068
LJ         -0.139949        0.991329         5.18249
LJ          -4.43822       -0.630013        -4.62417
LJ          -1.62113        -4.32317        -6.41913
LJ          0.347344         2.67505        -5.47242
LJ           1.91997         2.52477        -4.79543
LJ          0.917479         -4.4218         5.72042
LJ          0.405355         4.30798        -5.13015
LJ           6.33116        -2.92179         3.38428
LJ          -1.92648        -3.19641        -5.66858
LJ          -3.12247        -5.60286        -4.23486
LJ          -3.95006       0.0396629        -3.77166
LJ           4.99051          -2.394        -5.68537
LJ           1.04327        -2.47534        -5.17706
LJ          -2.28102       -0.575294        -2.07143
LJ          -2.52266        -1.73425        -1.39937
LJ           2.08376        -1.26296         6.33117
LJ          -2.96742        -2.80931        -5.58161
LJ           3.70244        -2.74452         5.56188
LJ        -0.0798168         -1.1719        -3.33698
LJ          -2.57733        -3.80258        -6.31125
LJ           5.65207        -2.05695         6.24506
LJ         -0.312156         4.08557        -1.23765
LJ           -1.5054        -4.52065        -2.74122
LJ          -4.88914         5.92547        -6.27657
LJ           2.90175        -6.37341         4.56653
LJ           2.49599         6.26661        -6.02986
LJ         -0.250082        -1.69325        -4.58194
LJ          -2.98698        -5.27603         5.80068
LJ          0.550611        -4.38315        -4.26939
LJ          0.586016        -4.24856        -6.28191
LJ           1.73309        -6.18378         5.55505
LJ           4.67978       0.0976996         -5.7809
LJ           3.78804        0.842195         2.74489
LJ          -1.15115        -2.20244          -4.816
LJ          -2.57746        -6.18075        -6.41158
LJ         -0.841178         -2.1056        -1.89466
LJ         -0.417739        -4.94212         5.88434
LJ          0.194054        -3.14899        -5.42103
LJ          -1.20402        -5.57048        -6.33864
LJ          -1.81183        -3.64927        -3.58556
LJ         -0.401629        -3.89954         -3.6831
LJ           3.50863        -0.51977         5.10307
LJ          -1.38847        -3.35008        -4.67503
LJ          -0.12835        -3.86162         5.94464
LJ         -0.423112        -4.14625        -4.71007
LJ          -3.78387        -5.65546        -2.71942
LJ          -2.28861        -5.25157        -2.19578
LJ          -1.26136        -1.23507         -1.1589
