108
#Comment!
LJ          -2.87431        -5.82222        -6.41204
LJ          -2.26354        -2.88179         5.78458
LJ          -2.17747         -2.4967        -3.64229
LJ          -3.19502        -2.63961        -2.41158
LJ          -2.09525        -2.58069        -2.31542
LJ          -4.14014        -2.78587        -5.40275
LJ           2.40223         3.05422        -3.15172
LJ            6.2051        -4.33539        -6.15718
LJ          -3.21003        -2.97657         5.12918
LJ           -4.1286         -1.7506        -4.41409
LJ          -0.96568         5.82683          6.1379
LJ           1.63429        -5.61757        -1.09131
LJ           5.10983        -6.11867         1.94056
LJ          -2.86066        -1.74372        -2.90775
LJ          -2.43692         -5.6339          5.1831
LJ           5.62584         3.25908        -3.28342
LJ          -3.14378       -0.810103        -3.82326
LJ           -2.9965         3.34119        -4.12501
LJ          -3.67795        -0.92776        -2.67245
LJ           5.68777        -2.25229        -3.79505
LJ          -2.44188        -3.25328        -4.19605
LJ          -2.71196         5.57807        -3.35896
LJ          -2.55424         5.15542         5.27947
LJ           4.36876         5.97924        0.883846
LJ           -3.1394         2.22226        -4.13392
LJ           2.94631          1.0489        -1.14355
LJ          -1.56692        -2.91283        -5.55774
LJ          -1.37215        -5.57288        -5.75035
LJ          -0.20602         5.47382        -6.28155
LJ          -3.99118        -3.31318        -2.78029
LJ          -3.57194        -3.08849        -4.41239
LJ          -4.73244        -4.99827        -1.43999
LJ          -2.48482        0.248574        -2.77605
LJ          -2.06149        -4.10655        -6.18726
LJ          -2.98007        -6.06803        -5.25241
LJ           5.57581         5.78264         3.28974
LJ         -0.684347        -1.05095        -4.34486
LJ          -3.00951         6.27468         5.77697
LJ          -3.46789        -1.43165        -5.17519
LJ          -2.19258         3.96998        0.849595
LJ            4.7444        -6.33365       -0.389119
LJ           -3.6227         -5.2519        -6.41128
LJ           1.99236        -2.23582       -0.504085
LJ           -4.3325         2.57824         3.30506
LJ          -1.74758         4.45088         6.08837
LJ           4.81077         1.55567         1.09318
LJ          -1.89337        -5.39659         6.18893
LJ          -1.16034        -4.53511         2.51841
LJ          -2.89349        0.513624        -4.57209
LJ           3.77569       -0.436109         6.34106
LJ           3.43178          0.3391       -0.275898
LJ           4.98341         4.07125        -3.67811
LJ           5.26729         5.52072        0.321091
LJ          -4.17056          -2.044        -2.53876
LJ          -4.47368        -3.78892        -4.89099
LJ          -5.13365        -2.86622        -4.67322
LJ         0.0169037        -4.72996           3.668
LJ          -1.85645        -1.33123        -5.11692
LJ          -4.99937         4.31878        0.741706
LJ          -4.44398        -3.44435         6.35146
LJ         -0.844874        -5.83522         6.09514
LJ           3.59078         6.27522       -0.462122
LJ          -2.32489        -5.15758        -5.65723
LJ           4.91077         4.11089        0.437546
LJ           5.41369       -0.925894        -6.41778
LJ           1.36375        -5.80621        -2.26942
LJ          -5.14825         4.73675       -0.320913
LJ           3.01461         4.44831         4.53124
LJ          -1.56931        -1.56585        -3.83827
LJ           4.17945        -2.24791        -4.49662
LJ          0.855789         5.93664         2.41224
LJ          -4.80283        -5.16625         5.22936
LJ           5.33502        -1.59053        -2.70641
LJ           3.78008        -1.20931         -1.3159
LJ           2.83575         6.33069         0.82876
LJ          -3.16423        -2.51454        -5.20206
LJ          -3.43429         -2.2917        -3.78649
LJ         -0.989531        -5.88922        -1.99879
LJ          -3.09066        -4.29455        -6.02796
LJ           5.39998         4.10089        -2.53901
LJ          -2.73388       -0.522927        -4.91589
LJ          -1.73592       -0.816792         -3.1426
LJ           4.37001         6.41558        -2.45595
LJ          -1.23888        -4.77493         5.48283
LJ          -2.46582         4.71318        -4.33217
LJ           1.80313        -6.46093         2.62994
LJ           4.85955         5.50787       -0.893242
LJ         -0.768408        -5.84936        -3.48492
LJ          -3.45421        0.259567        -3.50774
LJ          -1.57179        -0.53353        -2.16747
LJ          0.838023        -4.49298       -0.717342
LJ          0.947667        -1.21472        -2.78629
LJ          -5.00996        -1.52615        -2.05991
LJ          -6.19441        -2.53068          6.1308
LJ          -1.27124        -6.27458        -4.85687
LJ           1.34003         5.13759        -3.64798
LJ          -2.77672        -1.72739        -4.44505
LJ          -2.95063        -3.27618        -5.90129
LJ         -0.817721         5.64923        -5.22038
LJ          -2.49662        -4.57268         5.76437
LJ          -4.34654        -1.65639        -5.99968
LJ          -2.15937        -3.84569        -5.04258
LJ          -1.29688         5.09693        -6.02605
LJ           4.34841       -0.389021         4.29806
LJ           2.49873         1.02215        -2.33804
LJ           -2.0183          6.2777        -5.60474
LJ          -5.55901        -3.62024        -6.06069
LJ          -1.06261        0.464671         1.79715
