108
#Comment!
LJ          -2.02177         6.22216        -5.56228
LJ          -2.92698        -3.72442         -5.9796
LJ          -2.67729         -2.8864        -4.30012
LJ          -2.51049        -2.37839        -3.36384
LJ         0.0982217        -1.76914        -3.13651
LJ          -3.60825        -1.96608        -4.82447
LJ           3.83982           2.695       -0.901849
LJ          -4.81549        -1.66463        -5.51841
LJ          -2.65683        -3.62755         5.03193
LJ          -4.64481        0.304249        -3.37609
LJ         -0.428274         5.28939         6.20824
LJ          0.912314         -5.3055       -0.878293
LJ           4.53199          5.6968         2.29502
LJ           -2.1385        -1.20294        -2.67493
LJ          -1.61593        -3.68068        -4.23432
LJ           5.78031         2.43866        -1.96875
LJ          -1.79942        -2.04821        -1.88883
LJ          -4.58376        0.553719        -5.74213
LJ          -4.50934       -0.932912        -3.24358
LJ         -0.133352         1.50357        -3.58382
LJ           -4.5222        -4.05144        -4.58532
LJ          -1.02744         4.79892        -3.19976
LJ          -1.44529         4.31527         2.90529
LJ           4.09623        -5.94313        0.855917
LJ           -3.5913        0.935061        -5.74406
LJ           4.94369         3.15595        -1.08936
LJ          -1.66334        -2.78579        -4.74409
LJ         0.0206276         6.11445        -3.58495
LJ          -1.06832         6.31764        -3.25243
LJ          -5.54662       -0.943892        -3.15861
LJ          -4.42547        -1.42871         6.02617
LJ          -3.83734        -3.25563        -2.55611
LJ          -1.30315        -1.51334        -3.57817
LJ          -2.20581        -2.21072         5.84582
LJ           -2.4696         4.89133        -6.45938
LJ           -6.2568         3.07767       -0.283199
LJ          -1.95051        -1.61416        -4.38929
LJ          -1.61686         4.58445         4.33698
LJ          -3.50918        -1.20123        -3.02084
LJ          -3.00163        0.642109        -1.82862
LJ           5.10243        -5.05182         1.76945
LJ          -5.57746       -0.755876        -5.75554
LJ           1.05448         1.26855      -0.0157538
LJ          -4.56837         4.16968         3.27414
LJ            0.7858         4.89323        -5.64869
LJ           3.92683         1.41478         2.15629
LJ          -1.27083        -6.02709        -5.91507
LJ         -0.251899         4.68506         4.28828
LJ          -4.44409        -0.77134        -4.89651
LJ           2.39019         1.96369         2.97305
LJ            4.9079         1.34474        -2.03326
LJ           4.82208         3.73933        -2.45774
LJ           5.16031         4.09063        0.698963
LJ          -4.28568          -1.034        -2.13947
LJ          -2.62367        -3.81747        -4.76783
LJ          -5.05286         -1.6644        -4.34332
LJ           1.05367        -5.29127         4.46226
LJ          -3.47125       -0.114131        -3.42112
LJ          -1.40589         1.02978        -1.87909
LJ          -3.75102        -2.95686         5.56595
LJ         -0.448779        -6.09513         6.37443
LJ           3.74736         -5.1298       -0.431736
LJ         -0.730716         5.94701        -4.86805
LJ           5.37506         5.23648        0.994459
LJ           5.20968          -1.278         6.26435
LJ           1.09799        -5.24888        0.380128
LJ          -1.40571         2.20507        -1.20547
LJ           6.38922         2.87458         1.66965
LJ           -3.5486       -0.423732        -5.69238
LJ           4.02754        -3.68958        -3.37237
LJ           3.32578        -6.46216         2.92563
LJ          -5.17448        -4.70968        0.713045
LJ         -0.622056        0.285752        -4.41316
LJ           5.06158        -6.26378       -0.991462
LJ            4.3309        -6.08715         1.88772
LJ          -3.58153        -3.26997        -4.63233
LJ           -5.0719       -0.315925        -4.17264
LJ          -1.21381        -3.91146        0.244625
LJ          -3.77966        -4.33692        -6.22396
LJ           5.34448         2.47188        -2.92418
LJ          -2.68358        0.500557        -3.08809
LJ           -1.8934        0.174221        -2.25621
LJ          -5.13347        -6.44549       -0.105936
LJ          -1.91988         6.38798         6.30146
LJ          -4.13466         1.04256        -4.78748
LJ           2.39125        -5.87163       -0.485019
LJ           4.30766        -4.85386        0.395946
LJ          -2.80529        -3.06879         5.98408
LJ          -2.95915       -0.459141        -2.44658
LJ          -2.53109       -0.753573          -3.657
LJ         -0.816784         -1.8538        -2.41269
LJ        -0.0501439        -1.26645        -4.10039
LJ          -3.25726        -3.24866        -3.56678
LJ            5.8002       -0.893286        -5.44931
LJ          -1.55028         5.52775        -4.25103
LJ          0.838078         3.36243        -2.10449
LJ          -3.71951        -2.25287        -3.70183
LJ          -4.78938        -3.37752         5.24768
LJ          -1.70289          5.2924         5.83226
LJ          -1.46607        -6.36814        -4.20535
LJ          -2.28103        -2.01157        -5.47824
LJ           -3.5474        -4.26581        -3.69475
LJ          -1.40411         5.14117        -5.46164
LJ          0.668316        0.337192         3.24577
LJ           2.18996         1.25939        -5.88326
LJ          -0.93872         5.91378        -5.96241
LJ          -5.80519        -1.84394        -5.13679
LJ           -2.3006        -1.66331         4.35083
