108
#Comment!
LJ          -1.76489         5.40062        -4.54616
LJ          -2.84012        -4.21537        -5.17624
LJ          -1.86838        -2.52769        -5.71447
LJ          -1.71776        -1.39343        -3.13325
LJ         -0.466308        -2.13302        -3.21779
LJ          -3.08836      -0.0778878        -5.68035
LJ           4.98898         2.11327        -2.11451
LJ          -4.72332          -1.332        -5.57958
LJ          -4.40567        -2.65973        -5.44639
LJ          -4.56472         1.32494        -4.36421
LJ          0.305522         3.77622        -6.38162
LJ           1.55461         -5.2332         1.18454
LJ           4.54662         6.21221         3.32488
LJ           -2.5976       -0.480057        -1.65165
LJ          -1.77788        -3.75668        -5.10625
LJ             4.954          2.7301         -1.2429
LJ          -1.27512       -0.862471        -1.87708
LJ          -5.66669         2.93044        -6.09048
LJ          -5.01273        -2.17793          -2.564
LJ          -4.24378        0.429804        -4.87153
LJ          -3.70883        -2.85484         6.09026
LJ          -1.71864         5.23743        -3.49483
LJ          0.341159          4.8689         4.90765
LJ           3.16352        -5.53723        0.982397
LJ         -0.786532        0.346304         6.13034
LJ           5.43717         3.41012       -0.519108
LJ          -2.05097        -1.79398        -4.31982
LJ          -1.81467        -5.50158        -3.20322
LJ          -1.31103        -4.60187        -3.82988
LJ          -6.32973       -0.632061        -3.38589
LJ          -5.47729       -0.593228         -5.5602
LJ          -2.97234        -1.62258        -1.88667
LJ          -2.45671        0.207401        -4.83486
LJ          -2.76907        -3.62368         6.00319
LJ          -2.25128         4.19644         5.99328
LJ          -4.33251         3.22152        -3.09624
LJ          -1.58957        -1.13374        -5.05645
LJ         -0.583127         4.36475         3.54239
LJ          -3.63486        -1.73181        -2.93502
LJ          -4.22942        -1.43121        -1.83224
LJ           3.53839        -4.84591         3.11179
LJ          -4.53742        -1.94374         -6.4241
LJ          0.802768         3.71716       -0.744021
LJ          -4.68404         5.57362         3.18041
LJ          0.037224          5.9462        -3.71231
LJ           2.03682         2.36715         3.38514
LJ         -0.491991         4.53448        -5.07617
LJ         -0.787875         3.75988         6.05586
LJ          -3.88241        -1.65795        -4.94046
LJ           2.60503         3.90888         2.24251
LJ           5.49448       0.0397452       -0.240322
LJ           6.26969         2.80654       -0.824159
LJ           6.07993         4.92996         1.49934
LJ          -4.90893       -0.330575        -2.04883
LJ          -1.54541        -5.49214        -4.86091
LJ          -4.23834       -0.599466        -3.09922
LJ           1.48501        -6.17006         5.24243
LJ          -4.61828        0.491462        -3.71147
LJ          -1.11102       -0.324578        -5.67289
LJ          -3.30603        -3.46552        -5.83864
LJ         -0.831859         4.42543        -6.10283
LJ           6.35871        -5.32451        -2.66223
LJ         -0.606047         5.05433        -3.98903
LJ           5.64153         3.92742        0.662203
LJ           6.39601        -0.45076        -4.57469
LJ          0.863357        -4.17961        -1.01237
LJ          0.680268        -2.69564        -3.40308
LJ          -4.49204         2.35868        -2.53243
LJ          -6.32436       -0.483191         5.79593
LJ           3.88761        -4.86901        -2.02211
LJ            5.5433         5.74532          4.2114
LJ          -5.19385        -4.90186         -3.1636
LJ          -2.10651       -0.444552        -2.56391
LJ              5.58         4.72176       -0.556254
LJ           4.57143        -6.33142         2.27773
LJ          -2.35745        -4.59122        -4.28868
LJ          -5.44715       0.0490604        -2.88723
LJ         -0.986849        -2.26634         2.29296
LJ           -3.5962        -4.07879        -4.46856
LJ           4.83729          3.1444        -2.33447
LJ          0.793559         3.29674        -4.55597
LJ          -3.47596        0.256327        -3.30906
LJ          -2.79756        -5.71876         2.61211
LJ          -1.59821        -6.38742        -4.11505
LJ          -6.20517        0.714733        -4.01391
LJ           2.71481        -4.08707        -1.27871
LJ           4.03158        -5.07272         1.64983
LJ          -3.01259        -2.07497        -4.15944
LJ          -3.49373       -0.759547        -2.30359
LJ          -2.81705        -1.08256        -3.46302
LJ          -2.85698        -3.54537        -4.11594
LJ          -3.98782       -0.661985        -4.78479
LJ          -3.87712        -2.85993        -3.40453
LJ           -5.5279        -1.75847         5.70244
LJ          -1.56498         4.36583        -4.60883
LJ           1.28859         1.82057        0.371069
LJ           -4.0874        -1.90726        -3.93101
LJ           6.38919        -4.32647         2.97463
LJ        0.00503527         5.79581         4.47462
LJ         -0.254832          5.9507        -4.87065
LJ           -2.9863       -0.879311        -4.75208
LJ          -2.30669        -2.30313        -3.43597
LJ          -1.21793         4.66084         5.37697
LJ          -2.55413       0.0897293       -0.207224
LJ           1.88135         0.95638         4.67432
LJ          -1.47379         5.07794        -5.56945
LJ          -5.13222          -1.146        -2.75495
LJ           -3.6684        -2.72235         1.64021
