108
#Comment!
LJ          -2.77181        -5.08576        -4.34515
LJ          -1.54763        -4.41088         5.75064
LJ         -0.469273        -2.61186        -3.57079
LJ          -2.87925        -2.71367        -3.53248
LJ          -3.44254        -2.80988        -2.32687
LJ          -4.05224        -3.57862        -3.22968
LJ         -0.545565         2.61451        -4.68146
LJ           6.42155        -2.44007         5.40826
LJ          -4.35496        -4.97318         6.00942
LJ          -2.59276         -1.4346        -6.13318
LJ          -3.84842        -5.85543         6.21058
LJ           2.54351        -6.23818        -0.69723
LJ           4.09052         5.41277        0.868362
LJ          -2.87611        -1.84877        -2.44747
LJ         -0.948283        -3.41439         4.87241
LJ          -6.35197         4.63026        -3.95608
LJ          -3.68441        -1.74617        -4.70515
LJ          -2.51285         3.21418        -2.49495
LJ          -3.23983        -1.68868        -3.77312
LJ          -4.52234        -5.04473        -4.41464
LJ          -2.27926        -3.42819        -5.54602
LJ          -3.10701         5.17699        -5.14129
LJ          -2.59591        -5.95095        -6.03081
LJ            4.7748         4.46379         1.00549
LJ          -2.41237         4.33278        -2.36249
LJ           1.02572        0.428193       -0.462534
LJ         -0.745082        -3.77316        -5.05777
LJ           -1.7923        -5.26417         6.43325
LJ         -0.722426         4.68008          4.7761
LJ          -1.44264        -3.48077        -1.68664
LJ          -2.74973        -3.63001        -4.57498
LJ            -4.216         6.42669        0.597664
LJ          -3.19092       -0.747215        -4.32851
LJ           -2.9262         -3.5508        -6.39356
LJ          -3.37031        -5.05299        -3.47134
LJ            3.6759        -4.43742         4.87874
LJ          0.944095        -1.65908        -4.57113
LJ          -3.77558        -5.47138        -5.50291
LJ          -1.64316        -2.42702        -5.94248
LJ          -2.23553        -5.54908         3.24572
LJ           3.44701         5.66374        -1.88031
LJ          -4.88745        -6.00034        -6.22601
LJ           2.72177        -5.15074        -1.10012
LJ          -4.09778         1.45301         3.29268
LJ          -2.03602         5.27668        -5.22832
LJ           5.25329         1.67842       0.0808734
LJ          -2.64974        -4.61912         6.28779
LJ         -0.613437        -2.52321         2.56469
LJ          -4.23722       -0.589706        -4.63601
LJ             5.673       -0.813624        -2.87023
LJ           3.25761        -1.67785         1.86805
LJ           5.36411         5.19862        -3.65471
LJ           4.04148         4.50791        -1.08484
LJ          -3.83043       -0.554519        -2.64976
LJ           -3.5937        -4.39566        -6.30675
LJ           5.66798        -2.86028         5.95073
LJ          -2.14696        -3.40043         2.08021
LJ          -1.49178        -1.58582        -5.48096
LJ           5.60545         6.13338         1.82133
LJ          -4.87588        -4.66514        -5.98438
LJ          -2.93224        -6.45375         5.95811
LJ           1.57179         5.28225        -1.78937
LJ          -2.85984         -5.0109         -5.6261
LJ           5.36242         5.43923         0.60228
LJ            6.1657        -2.76561        -5.60297
LJ           1.30731         5.33398        -4.69196
LJ          -6.01464         5.28037        0.540845
LJ           1.72605         6.09194         5.96523
LJ          -2.43758        -2.80685         -2.5247
LJ           5.45975       -0.297195         -5.4872
LJ           1.67636         6.26166         4.87983
LJ          -5.80125        -2.96278         6.43142
LJ          -3.72898        -4.50662        -2.46798
LJ           3.35292         3.83257        -1.47807
LJ           2.64766         5.45845        0.196761
LJ          -3.45332        -3.13057        -5.44922
LJ          -3.01531        -2.62115         -4.5736
LJ          -0.79084         5.77545        0.432326
LJ          -3.49331        -4.37266        -5.10998
LJ            5.9089         4.34964        -3.03304
LJ           -1.0657       0.0545266        -5.52552
LJ          -2.19112        -1.35835        -3.71554
LJ            3.6185        -6.05851        -2.15046
LJ          -0.57817        -4.48452         6.43954
LJ           -1.7132        -4.09759        -3.64242
LJ         -0.167267         5.85475         3.52403
LJ           4.52049         5.21218       -0.534945
LJ          0.238673        -6.23906         6.22137
LJ          -4.24132        -1.27944        -3.41237
LJ           -2.2953       -0.573566        -1.88513
LJ           1.34716        -6.03549       -0.568435
LJ           1.21235       -0.641425        -1.39554
LJ          -5.20181       -0.387958         -3.0761
LJ          -5.93674        -3.97565         6.07982
LJ          -1.19708        -4.68202        -5.21375
LJ           1.83016         6.23336        -5.12451
LJ          -1.96304        -2.56361        -4.73278
LJ          -2.79591        -2.52103        -6.04511
LJ         -0.851333        -5.77258         6.06565
LJ          -1.74506        -4.93948         4.69844
LJ           -3.7876        -3.37736        -4.38934
LJ          -1.61181        -3.93346        -6.21894
LJ          -1.74889         -6.3457         6.05149
LJ           5.71152        -2.83305         4.58869
LJ           1.65873        0.655379        -1.46817
LJ          -1.57498         5.46768         5.98109
LJ          -4.22829        -3.60873        -5.91463
LJ         -0.120242         2.03864       -0.131642
