108
#Comment!
LJ          -1.98692        -4.47023         -5.0831
LJ          -2.16764        -3.54859        -5.60158
LJ          -4.99815          1.1243        -2.48009
LJ          -2.73503        -3.70524        -3.68758
LJ          -1.84273        -6.24449        -3.51106
LJ          -1.19535        -2.06308        -3.93723
LJ           1.45715       -0.252833         4.13263
LJ          -4.76679        -2.64138          5.8888
LJ          -4.86818        -3.07368        -5.92492
LJ           5.05309        -2.38771        0.428297
LJ          -4.76862         4.53681        -5.42988
LJ         -0.802681          2.8985        -1.19558
LJ           5.18114         6.01189         2.26872
LJ         -0.504718        -2.85328        -4.10035
LJ          -1.78931        -5.64019        -5.37461
LJ          -3.64108        -5.54172        -2.17899
LJ          -2.64199        -2.62958        -3.90678
LJ          0.986259         5.65961         3.15304
LJ          -3.28766        -5.68436        -3.29793
LJ          -2.19275        -2.65161         4.67371
LJ          -1.14083        -4.84366        -4.55853
LJ           4.85983        -1.62831       -0.883615
LJ         -0.775968        -4.99423        -5.85122
LJ           3.93491        -6.25713      -0.0366481
LJ           -1.7807        -5.58829        0.168363
LJ          0.315125         1.01768       -0.920339
LJ           -3.4651        -3.83417        -5.61722
LJ           -3.1191        -3.58464         5.94434
LJ         -0.181863         5.83691         3.69707
LJ           4.98529         3.17149         4.97573
LJ         -0.570616         -4.0749         4.00271
LJ         -0.267986        -4.05999        -2.70926
LJ          -2.84421        -0.23654         1.01808
LJ          -4.28209        -2.24801        -6.25814
LJ           3.52679         2.70303          4.3504
LJ          -3.22283         5.96425       0.0365472
LJ          -4.23066          6.3314         6.43564
LJ           5.32976        -5.85286        -1.37469
LJ          -3.84488        -3.17473        -6.41055
LJ          -2.60282        -4.31706        -5.97891
LJ          -0.39044           2.282         -2.4452
LJ           -3.4573        -5.40987        -4.34021
LJ          -2.59702        -6.37898        -5.77252
LJ           -3.9975        -3.56897         5.42335
LJ          -3.38669        -4.22522        -4.49511
LJ           6.02057         2.38964        -4.20125
LJ          -3.20329        -2.74687        -5.67626
LJ          -1.68471        -4.57738         6.11601
LJ           2.82633        -1.49505         6.34267
LJ           1.17565        -1.67709        0.934647
LJ           2.65182         2.80585        -2.30142
LJ          -5.44411        -3.77944        -3.80492
LJ          -1.19042         3.50611        -2.20068
LJ          -2.85661          1.7858          4.5124
LJ          -3.56066        -5.91198        -5.78673
LJ          -6.19963         5.73018         3.01229
LJ           5.49027        -5.26658        -2.98279
LJ          -2.50254        -5.56079       -0.689052
LJ           2.17487         5.91555        -2.20993
LJ         -0.130138         -5.5773        -4.64017
LJ          0.210023         4.86742         3.02136
LJ        -0.0952412         1.39541        -3.22472
LJ          -3.40142         6.43067         -4.9076
LJ          0.454622         2.36797        -3.34373
LJ          0.318667       -0.214524         4.72994
LJ         -0.696729        -3.84792        -3.67317
LJ           3.27768         5.89638        0.803362
LJ           4.27577        -3.51118         1.99669
LJ          -2.71103        -5.26446        -6.31473
LJ          -3.65639        -4.79297        -5.26927
LJ          -1.21399         1.61659        -3.43809
LJ           5.84426         2.80972         4.45063
LJ          -1.64758        -3.03943        -4.40357
LJ          -1.05461       -0.893235       -0.845365
LJ          0.810441        0.613142        -3.69032
LJ          -1.15192        -3.99231         -5.3689
LJ          -2.55344        -2.77368         6.39324
LJ           6.44525        -0.45816          5.6652
LJ           4.93478         3.02729        -1.79079
LJ          -3.77132        -5.07411        -6.37438
LJ           2.22471        -2.71155        -2.06896
LJ            1.6877         5.98797        -1.11979
LJ          -2.72829        -4.70732        -3.26996
LJ          -4.55775        -4.93658         5.40846
LJ           1.70912        -6.03754         6.20427
LJ          0.285677         6.17874         5.01078
LJ         -0.456357         1.21069        -2.06489
LJ          -2.07705        -3.78687         4.59097
LJ         0.0551701        -4.03654        -4.72139
LJ          -0.13079        -2.36147        -5.15759
LJ           2.29482         5.96204         3.15794
LJ           2.63908        -1.45597        -2.54368
LJ           5.46281        -3.57316        0.553159
LJ           -2.7149        -3.33714        -4.66939
LJ          -3.45703        -4.63371         5.52856
LJ         0.0200254        -4.04994       -0.875954
LJ          -1.25109        -3.59218         5.36105
LJ          -1.26803        -2.18387        -5.02444
LJ          -3.10007        -6.41842         6.06365
LJ          -1.02386         -4.3289        -1.66169
LJ          -1.64105        -5.19399        -3.45007
LJ          -4.28872        -1.69166         4.45803
LJ          -1.88808        -4.20144         -4.0248
LJ          -2.11946        -2.27535        -5.51015
LJ          0.376935        -3.69218        -3.62578
LJ            6.4214        -5.87479         5.48968
LJ          -4.58585         3.93105        -1.35628
LJ         -0.451812       -0.348103         -1.7076
