108
#Comment!
LJ          -3.68075        -5.02722        -5.61205
LJ          -3.97788        -4.09898        -6.13995
LJ           6.24875        -1.13695        0.547617
LJ          -3.72659        -3.09177           -3.49
LJ           -2.8541        -4.68449        -3.05292
LJ          -2.67119        -4.02079        -4.36331
LJ          -1.39893         1.92805         4.29431
LJ          -4.27429        -2.93792         5.20479
LJ          -3.74027        -2.96348        -5.52432
LJ           1.69788        -2.21531        -2.80239
LJ          -4.21273        -6.38959        -6.29243
LJ          0.759088         3.39711        -1.54816
LJ           4.41033         6.23608         1.62215
LJ           -1.6013        -4.23964        -4.88769
LJ          -2.39384        -5.17844         5.94751
LJ          -4.43669         6.29307        -1.93581
LJ          -3.77561        -3.77115        -4.79853
LJ        -0.0165358         5.24768         2.18579
LJ          -3.80541        -4.63975        -3.69966
LJ          -0.94601        -5.34357         5.76118
LJ          -2.52709        -5.23503        -5.73381
LJ          -6.24486        -2.14368          5.9542
LJ          -2.05669         6.42172        -3.59626
LJ           5.46809         5.59389         2.10383
LJ          -1.11877        -4.86158         2.66078
LJ          0.388673         2.09758       -0.699471
LJ          -3.27765        -3.29734         5.49817
LJ          -1.52328         -3.4922         5.90246
LJ          -1.23611         5.54757         1.33404
LJ           1.01013        0.205744          2.0029
LJ          0.322205        -5.24764        -6.41933
LJ          0.671494         6.37446            1.87
LJ          -1.76317         -2.4594        -3.09602
LJ          -3.98288        -1.94952        -5.76811
LJ           2.17425        0.172758         2.34332
LJ          -1.26996         2.41993        -3.77806
LJ          -4.25529        -3.98197         5.61296
LJ          -5.99931         5.93532        -4.03194
LJ          -3.17507        -2.18672        -6.21112
LJ          -2.51294        -4.15207          6.3734
LJ         0.0496849         3.01186        -2.44132
LJ          -3.06529        -6.03308        -4.56826
LJ          -4.55052        -6.03572        -3.20532
LJ          -3.60845        -1.71425         3.30196
LJ           -4.2388        -5.48856        -4.21146
LJ            6.2715         2.37214        -2.55961
LJ           -3.7739        -2.97575         6.38129
LJ         -0.611507        -3.24032         4.99583
LJ           5.11553        -2.36931        -3.13677
LJ          -1.68448        -2.34536         1.33986
LJ           3.06982          5.7285        -5.41627
LJ          -4.76467         -5.1924        -2.33045
LJ         -0.695147         3.30452        -1.61579
LJ           -3.9974       -0.933354          -4.306
LJ          -2.98999        -6.04233        -6.24917
LJ          -4.27158        -5.39258         6.39152
LJ          -5.88008         3.03509        -2.17181
LJ          -5.59053        -4.62234        -3.34264
LJ           4.36513        -5.10948        -1.80478
LJ           -2.2115        -5.53056         -4.2385
LJ          -1.67205         6.46226         2.12546
LJ           1.97138         3.73382        -1.69437
LJ          -3.28059        -5.67719        -3.43242
LJ           1.70484          4.1991       -0.750106
LJ           2.36767        -1.14965         1.08926
LJ          -1.22297        -5.82893      0.00810447
LJ           5.41343        -6.39922         1.16886
LJ           5.01298        -4.11703       -0.260542
LJ          -1.67966        -4.43352        -5.96044
LJ          -4.49452         5.01793        -5.62496
LJ          0.561246         3.61492        -4.67278
LJ           6.39306        -5.63864           3.243
LJ          -1.75789        -4.45442         -3.8195
LJ         -0.605093         1.28445        -2.03017
LJ            2.9422         2.03303        -2.92493
LJ          -2.60425        -4.33551        -5.34821
LJ          -2.82687        -3.31216        -5.96126
LJ          -3.09132         1.07113          5.4603
LJ          -5.21172         5.78245       -0.993081
LJ          -4.52274        -5.72866        -5.19684
LJ          0.747822         6.17559        -2.59781
LJ            4.5441        -4.32633        -2.66042
LJ          -5.34925        -4.28132        -2.35059
LJ          -3.39933         -5.4102         5.67133
LJ         -0.368432         -6.2443        -5.73255
LJ           2.87604        -2.46545         3.46193
LJ           1.70446         3.21877       -0.206117
LJ          -1.79785          -2.383         5.42675
LJ          -1.24854        -3.10287        -5.15963
LJ          -2.71743        -2.83586        -4.85913
LJ           0.47258         5.87604          2.9378
LJ             1.169        -1.69659        -1.01336
LJ           6.07402        -2.27446         1.64289
LJ          -4.76394        -4.79778        -5.88437
LJ          -1.66404        -4.59499         5.72673
LJ         -0.516805        -5.42284        0.763521
LJ          -1.02978         -2.5245         6.26367
LJ          -2.16768        -2.48445        -5.74244
LJ          -2.80709         -4.5058         5.17831
LJ          0.337041        -6.09876        0.891729
LJ          -3.14035        -5.01753        -4.67419
LJ          -2.36866         -2.8543         6.19832
LJ          -1.37763        -5.36609        -4.94337
LJ          -2.90303        -1.77448        -5.13696
LJ          -1.81365        -5.72295        -1.39103
LJ          -5.06672        0.386465         3.68951
LJ          -4.59755       -0.637337        0.100079
LJ          0.412622        0.980488        -1.52593
