108
#Comment!
LJ          -2.18528        -4.44401        -5.16829
LJ          -1.98574        -3.62593        -5.63884
LJ           -4.8184         1.43526        -2.90473
LJ          -2.88439        -3.54213        -3.38508
LJ          -1.75477        -6.27397        -3.62021
LJ          -1.07278         -1.9325        -3.42177
LJ           1.47908       -0.849333         4.19109
LJ          -5.22752         -2.8934         5.92783
LJ          -5.27745        -2.96125         -5.9409
LJ           5.69679        -2.10456        0.898204
LJ           -4.7389         4.46561        -5.15963
LJ          -1.14432         2.86742        -1.28334
LJ           5.32107         6.07718         2.52797
LJ          0.230308        -2.59342        -3.90426
LJ          -1.89529        -5.47649        -4.88676
LJ          -3.62105        -5.68225        -2.25608
LJ          -2.12889        -1.75158        -4.41775
LJ            1.3521         6.02418         3.32494
LJ          -2.77484        -5.67724        -3.50521
LJ          -2.72745        -2.88973          5.1752
LJ          -1.09763        -4.59489        -4.60884
LJ           4.62297        -1.69505        0.192308
LJ          -1.10617        -4.87204        -5.68777
LJ            3.3912         6.19112       -0.524212
LJ          -1.75368        -5.87266          0.1662
LJ          0.293664        0.776758        -1.18289
LJ          -3.60016        -3.77654        -5.21437
LJ          -2.79943        -3.97641         5.88827
LJ            0.4385         5.73904         3.84315
LJ           5.10871         3.86458         5.26357
LJ         -0.437256        -3.91686         3.74243
LJ          0.120551        -3.63014        -2.66053
LJ          -2.98731        0.424101         1.49772
LJ          -3.81026         -2.0283        -5.37634
LJ           4.04915         2.89025          4.8633
LJ          -3.39179        -6.33703        0.554094
LJ          -3.95304         5.86574        -6.45353
LJ           5.18065         -5.7886        -1.26288
LJ          -3.72014        -3.39589        -6.20007
LJ          -2.78805        -4.47873        -6.06027
LJ         -0.115165         1.92437        -2.41368
LJ          -3.78289        -5.71288         -4.2276
LJ          -2.44005        -6.39797        -5.87821
LJ          -4.54029        -3.77266         5.55977
LJ          -3.09792        -4.36684        -4.24079
LJ            6.0002         2.42447        -4.41218
LJ          -2.83863        -3.06135        -5.75428
LJ          -1.82551        -4.41593        -6.32653
LJ           2.51984        -1.36777         5.85132
LJ           1.25043         -1.5657         1.39494
LJ           2.49647          2.3812        -1.83421
LJ          -5.47882         -3.5868        -4.28018
LJ         -0.909551         3.15763        -2.34272
LJ          -2.71567         2.09547         3.88176
LJ          -3.80237        -5.84202        -6.12519
LJ           6.46138         5.50772         2.49598
LJ           5.17989        -4.51648        -2.73161
LJ          -2.35175        -5.39018        -1.60962
LJ           1.76664         5.79701        -2.06094
LJ         -0.107922        -5.82891        -5.81398
LJ          0.108455          4.5417         3.56878
LJ          -0.89829        0.770996        -3.13116
LJ          -3.13103        -6.13868        -5.06125
LJ           0.14482         1.99724        -3.58024
LJ          0.442791        0.163307         5.14639
LJ         -0.830715        -3.65135        -4.15505
LJ           3.22875         5.95519        0.621724
LJ           4.35772        -3.47308          2.1939
LJ          -2.53653        -5.53382         6.44908
LJ            -3.043        -5.16522        -5.05155
LJ          -1.51022         1.75537        -3.76804
LJ           5.84648         2.12677         4.67212
LJ          -1.78302        -2.84217        -4.37447
LJ         -0.892564        -1.02193       -0.874554
LJ          0.354939        0.590378         -3.6556
LJ         -0.948254        -3.70708        -5.30101
LJ          -1.98697        -3.12764         6.36414
LJ           6.00654       -0.706853         5.72363
LJ           4.52932         2.64117        -1.98008
LJ           -3.8611        -4.52576         -6.4071
LJ            2.4133        -2.13105        -2.31944
LJ           1.36902         5.49291        -1.07415
LJ          -2.44714        -4.60604        -3.53922
LJ          -4.64758        -5.01348         5.33875
LJ           1.86224        -5.95843         6.02698
LJ          0.116277          5.6645         5.23584
LJ         -0.638164        0.809684        -2.05317
LJ          -2.32695        -3.85709         4.25806
LJ         0.0192261         -4.1613        -4.80752
LJ           0.36046         -2.8277        -4.98578
LJ           2.37942         5.99245         3.20318
LJ           3.01191        -1.67356           -3.07
LJ           5.27235        -3.34105        0.417684
LJ          -2.75956         -3.3015        -4.66135
LJ          -3.39916        -5.04352         5.61957
LJ         -0.393546        -3.65088          -1.345
LJ          -1.54748        -3.63751         5.51838
LJ         -0.938062        -2.21859        -4.55519
LJ          -3.36426        -6.30831          5.8513
LJ         -0.976801        -3.74765        -2.20351
LJ          -1.28936        -5.07277        -3.61833
LJ          -4.86897        -1.51811         4.28164
LJ          -1.91742        -3.91671        -4.32416
LJ          -1.83395         -2.0876        -5.81253
LJ          0.269624          -3.791        -3.81441
LJ           6.36661         6.15979         5.78034
LJ          -4.52594         4.60674        -1.57843
LJ         -0.604971       -0.116017        -1.50911
