108
#Comment!
LJ          -2.65711        -4.49874        -5.29501
LJ          -3.12019        -3.79713        -6.13296
LJ           -5.7086      -0.0400042       -0.605364
LJ          -3.57744         -4.1348        -4.03859
LJ          -2.65585        -5.00952        -2.82049
LJ           -2.9634        -3.36124        -3.84467
LJ          -0.24987         1.31353         4.29272
LJ          -3.98744        -2.07258         5.15103
LJ          -4.76801        -3.08825        -5.25966
LJ           2.65307        -2.69565        -1.89496
LJ          -4.55835         5.37905         6.35562
LJ          0.163891          3.2216        -1.87523
LJ           4.74005         5.77813         1.07685
LJ          -1.95018        -3.71656        -4.64382
LJ          -2.13574        -5.25282        -6.11564
LJ          -3.26625        -5.21042         -1.7862
LJ          -3.36907         -3.5399        -5.00685
LJ          0.205812         5.59911         2.99542
LJ           -3.8937        -5.05645        -3.34829
LJ         -0.775834        -4.35075          5.1828
LJ           -2.1893        -5.33696        -4.75366
LJ            6.0323        -1.90685        -4.67213
LJ         -0.723365        -5.24027        -5.05923
LJ            4.7941        -6.27701         2.34494
LJ         -0.450609        -4.87546         2.59765
LJ          0.282853         1.77118       -0.179209
LJ          -3.97782        -3.14984         5.18437
LJ          -2.08116        -3.34155        -6.18752
LJ         -0.853848         5.13966         2.50743
LJ           2.82884        0.489979         3.35081
LJ          0.186707        -5.00725         5.55141
LJ          0.128615        -4.80551        0.774723
LJ          -2.07974        -3.11564        -1.18962
LJ          -3.40948        -1.79285        -5.58531
LJ           2.49043           1.818         2.79812
LJ          -2.07488         3.85157        -2.45285
LJ          -3.62691        -4.61807         6.10665
LJ           6.11178        -6.36898        -2.88589
LJ          -3.84249        -1.78253         6.21606
LJ           -2.9443        -3.72109         5.49773
LJ         -0.858612         3.43845        -2.48342
LJ          -2.88999        -5.98765        -5.16841
LJ          -3.94619         6.12536        -4.20513
LJ          -3.56348        -2.63661          3.7149
LJ          -3.76698        -5.22308        -4.43481
LJ           6.11408         2.25462        -3.23253
LJ          -4.44015        -2.21892        -5.80076
LJ          -1.06907        -3.74648         6.22406
LJ            4.1473         -2.0366        -4.45544
LJ         -0.188477        -2.09137        0.519918
LJ           3.00539         4.62299        -4.27761
LJ           -4.3996        -4.90547        -2.09411
LJ           -0.9493         3.32107        -1.45364
LJ            -3.515        0.391782        -5.70077
LJ          -3.72574         6.33523        -5.85982
LJ          -5.21322        -6.06266         5.18932
LJ          -6.32716         4.62561         -2.8494
LJ          -5.08581         -5.6551        -1.70417
LJ           3.59052        -6.21599         -2.0336
LJ           -1.8464        -5.22642         -3.5076
LJ          -1.43921         6.02427         1.95772
LJ           1.61287           2.951        -2.24001
LJ          -3.22829        -5.97825        -3.95109
LJ           1.28837          3.8625         -1.9038
LJ           1.40817       -0.855026         2.53184
LJ          -1.35218        -4.11263        -1.43185
LJ           5.18413        -5.68558         1.36739
LJ           4.48159        -3.71829        0.395868
LJ          -2.08534        -4.26294         6.11391
LJ          -4.05127        -6.03611        -4.98849
LJ         0.0565889          2.6919        -3.86445
LJ           6.22568         5.58867         3.19547
LJ          -2.03557        -4.18649        -3.27036
LJ           -1.0123        0.377189        -1.55778
LJ           2.26865         1.31247        -3.39981
LJ          -1.68179        -4.16112        -5.74595
LJ          -2.98342        -2.65057        -5.93413
LJ          -4.46944        0.555207         5.44821
LJ          -6.27438           4.713        -1.06468
LJ          -3.43976        -5.15184        -5.77553
LJ           1.63264        -4.35179        -1.95427
LJ           3.46535        -5.02143        -2.03333
LJ          -3.44691        -4.06732        -2.86806
LJ          -4.19086        -6.25264         4.93733
LJ          0.713834        -6.35927        -6.08159
LJ            1.0271        -4.31796         3.19369
LJ           1.13878         1.90575        -1.14565
LJ          -1.80124        -3.34905         5.42566
LJ         -0.772411         -4.3103        -5.30164
LJ          -1.16266        -3.18386        -5.57407
LJ           1.70494         5.86385         2.98802
LJ           1.32913        -1.91462        -1.05792
LJ           5.56416        -4.20839         1.39192
LJ          -4.15611        -4.41659         -5.6016
LJ          -2.78338        -4.81334         5.64151
LJ          0.194632        -5.26755       -0.591715
LJ         -0.990558        -2.50453         5.56888
LJ          -1.44177        -2.09802        -6.09676
LJ          -3.30035        -5.76135         6.02552
LJ         -0.311227        -6.24804       -0.215553
LJ          -2.76867        -4.89406        -4.02995
LJ          -3.09304        -2.60691          5.8092
LJ          -1.37639        -4.62557        -4.49314
LJ          -1.86289         -2.5171          -5.196
LJ           -1.7316        -4.56863        -2.39013
LJ          -5.84014        -1.97854         4.29958
LJ          -4.91778        0.865176       -0.450489
LJ          0.101939        0.129799         -1.7696
