108
#Comment!
LJ          -1.33888         6.19269        -6.32202
LJ          -1.50447         5.11338        -5.04186
LJ          -3.82793       -0.857821        -1.85107
LJ          -3.30587         4.73299        -4.55381
LJ           4.17456         3.87655        -2.57948
LJ          -3.47808        -0.13925         5.84132
LJ           5.90634         4.48871         0.72161
LJ          -2.83319         1.80116         6.20129
LJ         -0.217163        -5.29541        -5.30107
LJ          0.673067        -1.23607         5.85548
LJ          -0.72355        -3.11293        -4.26662
LJ           3.53396         -6.2052         3.74305
LJ          -4.89329         5.38622         3.81081
LJ          -6.42236         4.26985         5.96907
LJ          -5.27511         2.08427          -5.474
LJ           3.98813        -0.52064        -1.56866
LJ           3.56388        -1.92354         4.37469
LJ           2.44183         -5.3629        -3.88393
LJ           5.21605        -1.65606        0.110167
LJ          -3.28711        0.316418        -3.96994
LJ         -0.593193        -3.01367        -2.97857
LJ           1.28955         6.30108        -4.95944
LJ           1.19228        -6.44704         1.58839
LJ          -2.27669        -1.50357        -2.84425
LJ           1.65191         3.19921       -0.741434
LJ       -0.00629028        -2.65616         4.19733
LJ          0.487793        -1.87788         4.82696
LJ          -2.13578         4.30104        -4.16119
LJ         -0.734652        -2.39157        -2.09068
LJ           6.45412        -1.65327       -0.100827
LJ          -2.18546       -0.723661        -2.16612
LJ           4.49069        -0.63659        0.537191
LJ          0.650205        -2.98186         5.20065
LJ           -4.2136         -3.7618         5.52297
LJ           4.31234        -2.43028        -3.32033
LJ           5.39838         3.93393         5.82342
LJ          -1.65446        -2.31421        -2.94429
LJ           3.13734         2.67458         4.87814
LJ           5.26352         0.70613        0.630471
LJ           5.22289        -2.77646         -2.4325
LJ           6.10262       -0.958189         5.20358
LJ           5.21733        -5.56011         3.99671
LJ           2.57634         3.57595        -1.14001
LJ           4.85361        -1.45595         4.16738
LJ          0.596364         6.09119        -4.14281
LJ             2.332         3.28856         4.70434
LJ         -0.283098        -5.92461        -6.19773
LJ           3.07116         4.03846          2.1857
LJ          -6.08759         5.88265         1.01896
LJ          -1.59626        -6.29407         1.56944
LJ          -5.47072        -2.77409         5.46733
LJ           1.27285         6.06192        -2.86985
LJ           -4.6956         2.02154        0.910884
LJ          -3.42506        -1.43341        -3.15775
LJ          0.314937        -4.86225        -6.37095
LJ           5.69462        -1.02101         1.28267
LJ          0.506056         6.44729         5.97846
LJ           3.83023       0.0106275        -2.74759
LJ           1.50634         2.96784        -1.84104
LJ           5.47413        -6.26735         2.41899
LJ          0.189135         1.10375        -1.37797
LJ           1.43792        -2.62386         -1.5243
LJ          0.145168        -6.41636        -5.11405
LJ          -5.43102          2.8342        0.731743
LJ           2.91994        -1.57178        0.681709
LJ          0.334447          5.3354        -2.76741
LJ          -4.23813        -2.40762        -3.85714
LJ          -3.34205       -0.455066          4.4208
LJ          -4.94674        -2.20506         1.42918
LJ           3.38594         6.10556         2.87411
LJ           3.95385        -5.35963          4.9711
LJ          -5.68714        -3.65504         4.77278
LJ          -4.33127        0.989699         -5.8101
LJ          -4.01319         2.90198        0.944491
LJ            5.3062        -2.58017        0.703913
LJ           -3.2031        -3.59674        0.182539
LJ          -2.26708         3.62613         5.36287
LJ          -2.71921        0.786146         4.16119
LJ          -3.29063         1.16848        -3.09522
LJ           3.07954         4.43512        -2.69603
LJ          -1.69601        -1.33393        -3.76383
LJ          -2.00095         1.92651         4.16703
LJ           3.75636        -3.70072         1.33381
LJ           3.67331         4.06707        -1.58931
LJ           4.91511        -1.38166         -1.3756
LJ          0.716057        -4.81097         -5.2509
LJ           6.37004        0.645418        -2.49382
LJ          -6.19248         3.36673        -6.37478
LJ          -1.24125         1.24263         3.92981
LJ          -5.60526         1.11094        -4.67569
LJ          0.614438       -0.188823         6.04259
LJ          -3.28009         2.85952        -4.30379
LJ          0.751558        -5.51547        -4.48416
LJ           6.15952         5.92987         1.90069
LJ         -0.116946         5.49119         3.28806
LJ           6.37632         3.76743         4.99081
LJ            3.4257       -0.881206        -2.46085
LJ           3.02676        -5.73864          4.5818
LJ          0.374539         5.70906        -5.62432
LJ         -0.588307         2.06443         2.57253
LJ          -3.46872        0.325428        -6.10986
LJ          -2.04694        0.231339         3.64956
LJ          0.498046         4.68214         3.76696
LJ           3.24509        -1.76515        -1.91932
LJ         -0.127988        -2.11069       -0.587777
LJ           1.67535         5.76373         6.17696
LJ           6.17426        -2.00145         1.06238
LJ           2.64103       -0.515297        -1.69756
