108
#Comment!
LJ          -2.22322        -5.70589         -4.7261
LJ           0.13441         5.40938        -5.02976
LJ          -1.78988        -0.90599        -4.05045
LJ          -3.04593         1.05634        -4.91981
LJ            2.4614         4.66538        -2.30255
LJ          -1.00472         -1.0358         4.22177
LJ           4.73438         5.04578         -1.8168
LJ          -3.19953         2.59119         5.54374
LJ            -1.014        -4.25037        -4.38395
LJ           -1.0429         -1.0312         5.58863
LJ         -0.921063        -3.62841        -3.51745
LJ           3.43337         5.14106         3.00105
LJ           5.93602         5.79158         3.29824
LJ          -4.93388         3.42474        -6.15762
LJ          -3.42524         4.08949         2.99996
LJ           4.50902        -1.95028        -2.93038
LJ             2.953        -1.78099         5.25051
LJ           2.18336         6.13528        -5.92317
LJ           5.94208        -2.01848        -2.12476
LJ          -5.59207         1.08256        -3.74319
LJ          -2.01377        -4.04097        -4.67239
LJ           1.40152         5.61553        -4.50325
LJ           2.89049        -5.56022         2.94121
LJ          -2.71164        -4.80608        -3.46093
LJ          -3.19951         1.76516        -2.65199
LJ         -0.711473        -1.89351          -5.397
LJ          -1.07194        -2.67402        -6.05642
LJ          -1.76757         6.40547        -5.36581
LJ          -2.52688         -2.2446        -4.01343
LJ          -6.21572      -0.0791709        -2.08565
LJ         -0.994139        -1.48618        -3.52347
LJ           3.19644        0.108657        -1.17243
LJ         -0.208482        -1.14443         6.33636
LJ           6.30618        -3.50913         4.27376
LJ           4.17356        -3.09299        -3.15245
LJ          -4.95944         2.39286        -6.19934
LJ          -1.59543        -2.81709        -3.59443
LJ           2.86709         3.83633         4.78528
LJ           5.19202        -3.00925        -1.13271
LJ           5.04497        -2.07762        -1.59211
LJ           5.55613        -2.92795         3.71679
LJ          -5.52102        -5.49165         4.20211
LJ           3.59052         5.11183        -2.15842
LJ           5.95691        -1.91784         3.25373
LJ         -0.141855        -5.34439        -5.32694
LJ           1.96303         4.35085         4.81466
LJ         -0.604441         6.33028        -5.46761
LJ          0.735374         3.55738         3.80874
LJ          -4.95694        -4.98166          5.1411
LJ          -0.32279         6.09971         2.40902
LJ          -5.56974        -2.53043         4.93098
LJ          -2.36345        -3.51076       -0.217928
LJ          -5.69458         2.62349        0.743461
LJ           -4.4271         1.60808        -4.26625
LJ          -1.15628        -5.83692        -6.07279
LJ           5.91308        -1.87312        -0.81122
LJ           1.65385        -6.21574        -4.95314
LJ           3.85921        0.511131        -1.84453
LJ          0.781944         1.26744        -3.04331
LJ          -5.53224        -5.88509         5.26138
LJ         -0.498045         1.56244        -1.25583
LJ          -4.30598         -4.9206         3.22964
LJ           0.50974        -6.42001        -4.88605
LJ          -5.97082         3.31279         1.63867
LJ           5.81173       -0.847564         -1.9067
LJ           1.53975         2.31184        -4.87267
LJ          -2.75698        -1.77534         5.62982
LJ          -1.73652        -1.81431         5.12957
LJ           3.97773         -3.9576      -0.0557582
LJ          0.759533        -4.22759         2.10923
LJ           4.86814         6.32297         3.38202
LJ          -5.24867        -3.88094         5.00549
LJ          -2.65843         2.73638        -4.61976
LJ          -4.59029         2.89907        0.884355
LJ           4.88472        -3.89896         3.30998
LJ         -0.449929        -4.69533        -3.67281
LJ          -3.80065         1.80289         6.13986
LJ          -3.52528          2.1751        -4.76817
LJ          -1.28034       -0.417465         -3.0219
LJ           3.85159         3.97403         -1.3664
LJ          -1.94745         -1.4446        -2.83472
LJ          -3.45706        0.973806        -6.24587
LJ           6.04205        0.101625       -0.651234
LJ             2.987         3.54057        -2.21061
LJ           3.34222        -1.31133       -0.409117
LJ           1.80137        -5.42183         1.94921
LJ          -4.47355         3.37589        -1.51374
LJ          -4.62624         2.74948         5.59617
LJ          -2.68213         2.43475        -6.28218
LJ           -3.0441         1.77402        -3.99042
LJ          -1.22852        -1.85375           6.232
LJ          -3.78709         2.98439        -5.47802
LJ          -1.07205         -3.4067        -4.99193
LJ          -4.33889        -5.90759         5.15065
LJ         -0.101326         4.32688         4.18923
LJ          -5.66642         3.01177         6.08936
LJ           6.43386        -1.21877        -3.18088
LJ           3.75137          6.3686         3.48685
LJ          0.611027         6.01407        -3.82186
LJ          -1.19009         2.74718         4.01849
LJ          -3.83974         2.38266        -3.65197
LJ         -0.898415       0.0311458         6.29108
LJ           0.92013         4.80295         3.97528
LJ           5.42613        -1.51256        -3.63384
LJ          0.884544       -0.947721         1.21924
LJ           2.69113          5.9077        -4.94401
LJ           -6.1479        -2.15288        0.414081
LJ           3.92869       -0.886985        -1.13407
