108
#Comment!
LJ          -1.42643         5.72897        -4.38535
LJ           0.18079        -5.37732        -5.12299
LJ          -1.57544        -1.91011         -5.5034
LJ          -2.70955         1.78614        -4.04101
LJ          0.972571         6.24929        -4.90398
LJ          -3.05574        0.568374        -6.33545
LJ           3.99631         3.72762        -1.98914
LJ          -4.33579        0.101869        -6.05368
LJ           -2.5147        -2.62479        -5.76768
LJ          -2.67198       -0.444006         5.95654
LJ           -1.2536       -0.300099        -3.58598
LJ           2.92353        -5.80232         2.57688
LJ          -6.25792        -5.70383         4.00377
LJ          -4.30569          1.2748        -2.88836
LJ          -2.17607        -4.09508        -3.69775
LJ          -5.89648        0.343199         0.21622
LJ          0.847833       -0.600293        -4.27012
LJ           5.87352         5.52414        -6.21024
LJ           6.15333         -3.5059        -1.34066
LJ          -3.49841         1.92657        -4.60959
LJ          -1.03351        -2.70542        -2.59357
LJ         -0.525921         5.11502        -4.35987
LJ           1.52111         4.88685         4.91341
LJ           2.39561        -5.97831         4.51514
LJ            2.3983         1.41062         1.24589
LJ           6.42306        0.985049         1.31272
LJ          -1.94002         -1.2185        -3.44477
LJ          -3.22975        -5.07474         -3.5346
LJ          -2.91593        -6.31127        -4.12883
LJ          -5.36982       -0.949895        -1.23912
LJ          -4.06833        -1.18305        -5.52915
LJ          -6.26887        -3.21494        -2.39393
LJ          -2.15636        -1.21097        -6.17369
LJ          -3.91366        -4.84041        -6.23544
LJ          0.342126         3.74337         5.77612
LJ          -2.17321         2.24551        -4.91062
LJ           -1.5678        -2.19582        -3.44924
LJ          0.705821         4.25908         4.63236
LJ           6.32433         -2.2722        -1.59717
LJ          -5.45677        -2.12804        -1.69038
LJ           3.84946          6.4177         3.33905
LJ          -5.83306        -3.87993        -5.30892
LJ             1.389         5.56246        -3.41946
LJ          -5.18151        -5.23623         3.05899
LJ          -0.80592         6.44256        -3.75337
LJ         0.0785456         4.81831         3.87529
LJ        -0.0593808         6.19686        -4.54777
LJ          0.389295         2.66779        -6.41652
LJ          -4.86231        -4.05711        -5.82069
LJ           2.89708         5.23839         1.96513
LJ           6.08602        -1.12832         2.23567
LJ           5.85639        0.798686        0.172236
LJ           6.24694         4.34362        0.767626
LJ          -3.68347          2.1515        -2.41414
LJ         -0.771343        -6.17533         -5.0381
LJ           6.45684       -0.474429        -4.07592
LJ           1.53941         6.32561        -6.21178
LJ           5.89181        0.341399        -3.60694
LJ           6.26687       -0.509381         5.85618
LJ          -5.04988        -5.12556         -5.6079
LJ         -0.516328         1.85725         -3.5874
LJ          -6.05747        -6.22887        -5.23113
LJ          -1.77324         4.74648        -4.26057
LJ          -6.13487         3.94533         1.52906
LJ           6.18263       -0.618474        -2.99517
LJ           1.12363        -1.43017        -1.98877
LJ          -1.38513        -4.07215        -5.85472
LJ          -1.88407        0.586017        -6.02347
LJ           4.43937        -2.71916        -4.75562
LJ           2.26896        -3.96707       -0.961121
LJ           4.17051        -5.45027         2.29963
LJ          -5.94317        -4.76895        -6.38684
LJ          -4.49676         2.37952        -3.29008
LJ          -5.87354         3.68954        0.403579
LJ           5.10721        -5.22575         2.99094
LJ          -1.38762         -3.1377        -5.32396
LJ           -4.2625       -0.277412        -2.88167
LJ          -0.68905        0.267085         5.28331
LJ          -0.55742        -2.38074        -6.00917
LJ           4.80763          3.3637        -2.79107
LJ          0.828968         -3.0147        -6.33473
LJ          -3.02243         2.92009        -4.41418
LJ          0.712742        -4.46378         5.98941
LJ          0.388185         5.49283        -3.91937
LJ           4.05447        0.235236        -2.16364
LJ           2.52116        -4.99446       0.0565615
LJ           4.39754         6.32906         1.58142
LJ          -5.24653        -0.93366        -3.47218
LJ          -3.15315       -0.602615        -6.02098
LJ          -2.62035         1.14394        -5.00604
LJ          -3.52111        -2.73645        -6.16064
LJ          -4.75181       -0.279449         -4.9503
LJ          -1.43321        -2.48103        -4.53779
LJ          -4.56739         -2.4682        -5.70112
LJ         -0.429402          5.2826          6.2106
LJ          -1.40756         2.48469         3.58355
LJ          -5.20183       -0.152493       -0.285824
LJ           4.42454         5.29987         2.22168
LJ          0.814885         5.36753         6.25457
LJ          -1.05406         4.19257        -5.02406
LJ          -3.59152        0.495786        -5.31916
LJ           1.28954        -1.20214        -3.17363
LJ           1.36921         4.50837         5.93117
LJ           6.01861       -0.130558        -1.93644
LJ           2.11926        0.111697         3.01012
LJ          -1.39918         5.23264        -5.41153
LJ          -6.26426       -0.348637       -0.795292
LJ          -6.04514        -4.33138        -1.87895
