108
#Comment!
LJ          -1.94326         5.84841        -4.30431
LJ          -1.62564        -4.67909        -6.21784
LJ          -2.15322        -3.12643        -5.37597
LJ          -1.75077       -0.529732        -3.66111
LJ          0.146194        -3.88721        -4.02098
LJ          -3.89585        -1.09035        -5.47541
LJ            4.2613         2.66879         -2.3289
LJ          -4.80654      -0.0950508        -6.15137
LJ          -3.28089        -3.06543         -5.4504
LJ          -3.76887        0.113372        -5.99651
LJ         -0.217907         2.02163        -5.08147
LJ           2.00931        -5.71724         1.83402
LJ            5.4826        -6.03409         4.16931
LJ          -3.73421        0.460691        -3.22883
LJ          -1.82362        -2.80604        -4.25703
LJ           5.22903         1.34422        -1.00114
LJ         -0.628035       -0.809818        -2.15334
LJ          -6.25661          3.9927        -6.16039
LJ          -6.29445        -2.34792        -2.12874
LJ          -3.39541        0.805895        -4.22426
LJ          -1.79306        -1.98613          -5.499
LJ          -1.24923         5.48409        -3.29274
LJ           1.47514         4.71134         4.91004
LJ            3.6121        -4.87919         1.52055
LJ          0.119044        0.614238         4.22512
LJ           5.87413         2.82901        0.482498
LJ          -1.79572        -1.95834        -3.34311
LJ          -2.47659        -5.08433        -3.37381
LJ           -2.1722        -4.00213        -4.52696
LJ          -6.41258        -1.30686        -2.56366
LJ           -5.5817       -0.641593        -5.34133
LJ          -4.20893        -2.37335        -1.48575
LJ          -2.58039        0.412604        -5.60041
LJ          -3.74759        -4.28354         6.01147
LJ          -1.24653         4.88806        -6.28178
LJ          -2.49369         3.36376        -4.39968
LJ          -1.64294         -1.7527        -4.30365
LJ          0.744792         4.52428         3.73786
LJ          -5.19016        -2.28959        -1.99547
LJ          -5.21644        -1.69621       -0.991416
LJ           3.20822        -5.79375          3.3676
LJ          -4.29493        -3.04703        -5.60383
LJ           1.20043         4.44709        -1.72996
LJ          -4.77324         6.45295         3.09135
LJ         -0.639094         5.71883        -4.13305
LJ          0.704466         3.39154         4.09977
LJ          0.162597          5.1212        -4.51364
LJ        -0.0408176         3.43876          5.6956
LJ          -3.37888         -1.4468         -4.5731
LJ           2.86387         4.47042         2.01909
LJ           5.71363       -0.518426         0.86796
LJ           6.38715         1.93719       0.0245553
LJ           6.06055         5.14252        0.875947
LJ          -3.76522       -0.823687        -2.59226
LJ         -0.854718        -6.25744        -4.78609
LJ          -5.06907      -0.0902933        -3.70532
LJ           1.38705         6.32627         5.78116
LJ           -6.0286        0.368205        -4.23889
LJ          -3.40965        -0.94402         5.56884
LJ          -4.53101        -4.03451        -6.20111
LJ         -0.376849         3.37183        -5.52212
LJ           -6.3903        -5.69211        -3.76921
LJ          -1.86161          4.7231        -4.06529
LJ            6.4182         4.02783         1.30213
LJ          -6.19461        0.734497         -3.2057
LJ          0.952865        -2.77412        -1.38323
LJ          -0.94761        -4.01864        -4.59423
LJ          -3.58152         2.05888        -4.95403
LJ           5.53015        -1.42425        -6.24083
LJ           2.78648        -4.73952       -0.548226
LJ           5.55395         5.92193         3.53948
LJ           -5.3986        -5.07806        -4.68255
LJ          -2.83094        0.810059        -2.79887
LJ           6.17275         3.97295        0.238568
LJ           5.09443        -5.81528          3.1561
LJ          -1.33875        -3.86886        -5.65258
LJ          -6.01222       -0.348311        -2.75714
LJ         -0.889418        -1.29081         3.49877
LJ          -2.99281        -4.23788        -5.61342
LJ           4.98341         3.54533        -2.72939
LJ           1.54037         5.96193        -5.66455
LJ          -2.86591         2.01546        -4.06392
LJ          -1.46992        -5.27297         4.26117
LJ         -0.535519         6.24492        -3.18554
LJ           5.65351        0.127465        -3.02131
LJ           3.12834        -4.22705        -1.88799
LJ           3.26764        -6.26004         2.16695
LJ          -3.76669        -1.43541         -3.6626
LJ           -2.6861        -0.92185         -3.4269
LJ           -2.4734        0.369248        -3.75886
LJ          -3.06312        -3.17173         -4.4252
LJ          -4.60442        -1.16375        -4.72775
LJ          -2.49873        -2.23281        -4.66139
LJ          -4.44198        -1.85755        -5.70149
LJ          -1.57535         4.42212        -5.40824
LJ           1.00369         1.63614         2.44686
LJ           -4.4629        -1.86303        -2.91085
LJ           5.13486        -5.15021         1.79659
LJ         0.0622035           5.674         4.68748
LJ         -0.878389         4.80308        -4.67369
LJ          -3.56034       -0.523039        -4.17844
LJ         -0.865053        -1.82295        -2.82705
LJ         -0.292445         4.47991         6.13327
LJ          -4.73962        0.317829        -1.08562
LJ           1.64905         1.13601         3.03952
LJ          -1.71982         5.48014        -5.41226
LJ          -5.50646        -1.33331        -2.06743
LJ          -4.46005        -3.27418       -0.276769
