108
#Comment!
LJ          -3.61229        -5.14721        -5.67496
LJ          -3.93337        -4.22918        -6.17162
LJ           6.06764        -1.39642        0.798504
LJ          -3.51848         -2.8035         -3.3669
LJ          -2.62389        -4.58886        -3.09796
LJ           -2.7852        -4.22179          -4.195
LJ          -1.64388         2.05257         4.29834
LJ          -4.52816        -2.91122         5.42306
LJ          -3.76869        -2.93616        -5.69105
LJ           1.47839        -2.10105        -2.95096
LJ          -4.22392         6.32819        -6.19932
LJ          0.670275         3.32783        -1.48506
LJ           4.47484          6.2348         1.81184
LJ          -1.66348        -4.28922        -4.73757
LJ          -2.19677        -5.45221         6.07648
LJ          -4.91312         6.10985        -2.16771
LJ          -3.67825        -3.74083        -4.65262
LJ        -0.0934379         5.22348         1.96001
LJ          -3.70022        -4.36896        -3.68743
LJ         -0.868618        -5.57797          6.0443
LJ          -2.49919        -5.18563        -5.89418
LJ          -6.08251        -2.20354         5.47886
LJ          -2.51941         6.37411        -3.45805
LJ           5.59112         5.55949         1.86874
LJ          -1.25073        -4.91627         2.63637
LJ          0.333162         2.13774       -0.926401
LJ          -2.93813        -3.06457         5.38591
LJ          -1.68129         -3.5449         6.22406
LJ          -1.35929         5.78935         1.17764
LJ          0.888035        0.276206         1.83562
LJ           0.11947        -5.20076        -6.34818
LJ          0.695014         5.94219         1.86224
LJ          -1.72345        -2.17155        -3.55172
LJ          -4.42312        -2.05838        -5.53574
LJ           1.86069       -0.254718         2.16031
LJ          -1.06499         2.13934        -4.00025
LJ          -4.08677        -4.13292         5.71628
LJ          -5.77071         5.84783        -4.25417
LJ          -3.03699        -2.28605        -6.37644
LJ           -2.5462         -4.3795          6.3354
LJ          0.180394         2.87764        -2.43256
LJ          -3.27722        -6.08692        -4.53555
LJ          -4.38769        -6.21225        -3.05228
LJ          -3.62023        -1.53843          3.3003
LJ          -4.09791        -5.41055        -4.11757
LJ           6.17562         2.35721        -2.47973
LJ          -3.85657        -3.25068         6.23286
LJ         -0.747171        -3.17867         4.74405
LJ           5.31684        -2.45186        -2.85938
LJ          -1.99487        -2.40135         1.51107
LJ           3.08141         5.95892        -5.65229
LJ          -4.80243        -5.39984        -2.50202
LJ         -0.498512         3.27019        -1.69428
LJ          -4.04668        -1.35961        -4.12916
LJ          -3.28633        -6.21803         6.44422
LJ          -4.41152        -5.53488          6.3981
LJ          -5.65669         2.75701        -1.96016
LJ          -5.58684        -4.24573        -3.55772
LJ           4.54226        -4.83133        -1.77994
LJ          -2.32172        -5.40625        -4.15733
LJ          -1.59397         6.46245         2.05122
LJ           2.05293         3.97879        -1.62278
LJ          -3.17199        -5.49284         -3.6612
LJ           1.88822         4.45239        -0.58097
LJ           2.55549        -1.25992        0.760007
LJ          -1.16351        -6.22876        0.332667
LJ           5.25825         6.35827         0.92819
LJ           5.12954        -4.21082       -0.402498
LJ          -1.64526        -4.35306        -5.97844
LJ          -4.53015         4.67364        -5.66115
LJ          0.653055         3.80609        -4.80846
LJ          -6.41093         -5.3434         3.55626
LJ          -1.59454         -4.7231        -3.65264
LJ         -0.425357         1.51929         -2.0798
LJ           3.06778         2.19991        -2.80987
LJ           -2.6243        -4.23072        -5.28703
LJ          -2.63315        -3.40639        -5.95564
LJ          -2.79957          1.1731         5.46072
LJ          -4.93527          6.0438        -1.04642
LJ           -4.5604        -5.64703        -5.54119
LJ          0.559712         5.67343        -2.72823
LJ           4.76577        -4.20525        -2.74908
LJ          -5.91365         -4.3786        -2.29026
LJ           -3.3514        -4.71377         5.86488
LJ         -0.721252        -6.17435        -5.61386
LJ           3.25763        -2.07796         3.51441
LJ           1.87898         3.23949       0.0918074
LJ          -1.35011        -2.16019         5.42002
LJ          -1.24382        -3.32393        -4.94585
LJ           -2.9772        -2.78127        -4.59962
LJ          0.187547         5.94289         2.96737
LJ           1.15583         -1.6629        -1.04115
LJ           6.17464        -1.85154         1.65899
LJ          -5.04642        -4.71321        -5.95455
LJ          -1.49669        -4.67052         5.83987
LJ         -0.677117        -5.52315         1.12902
LJ          -1.33066        -2.49479        -6.33288
LJ          -2.10703        -2.32153        -5.72581
LJ          -2.33794        -4.63386         5.14598
LJ          0.519237        -6.01956         1.31055
LJ           -3.3773        -4.94064        -4.65747
LJ          -2.20512        -2.65927         6.04704
LJ          -1.65441        -5.25517        -5.39295
LJ          -3.23499        -1.72816        -5.34015
LJ           -1.7606        -6.07286        -1.30771
LJ          -4.89443        0.872274         3.56582
LJ          -4.55958       -0.949391         0.22519
LJ          0.419268         1.28198        -1.44324
