108
#Comment!
LJ          -2.60535         5.96238        -5.19794
LJ           -3.2558        -4.08729        -5.99557
LJ           2.58738         -1.9046         -1.7276
LJ          -1.61775        -2.54696        -3.73988
LJ          -1.42282        -3.51213        -3.69875
LJ          -3.53369         -3.7429        -3.58288
LJ           -3.4314         1.96383        -6.22409
LJ          -5.95124        -2.80104         5.58801
LJ          -4.80958        -4.41112         -5.9294
LJ          -2.15898        -1.20282        -4.36472
LJ          -4.26071         -5.5089        -6.02789
LJ           2.70602         5.08536       -0.615243
LJ           4.17225         5.19839        0.052985
LJ          -2.39099        -3.35002        -3.62913
LJ         -0.815057        -3.24728         -6.4591
LJ          -6.00449         6.17765        -3.96957
LJ          -3.77372        -3.61968          -4.692
LJ          -1.83937         5.44846       -0.656028
LJ          -3.24548        -1.15127        -5.29341
LJ          -2.35378        -5.56618        -5.98074
LJ          -2.50737        -4.87955        -5.08876
LJ          -2.80278          -6.243          4.6623
LJ          -4.21576         6.17067        -6.05473
LJ           4.79464          5.6411       -0.950099
LJ           -1.8292         4.31138        -1.01189
LJ         0.0304418         1.86758       -0.653576
LJ         -0.275632        -2.17219         5.85776
LJ         -0.783149        -3.92992         -5.4967
LJ          -2.33522         4.94837         3.51593
LJ          -1.97651        -2.29801        -0.89603
LJ          -1.87411        -4.90222        -3.85513
LJ          -2.41247         6.38399         2.48807
LJ          -4.37013          -1.641        -4.80051
LJ          -4.10304        -3.51345        -6.06149
LJ          -0.93605        -2.83342       -0.552654
LJ           1.88001        -1.69261           6.416
LJ           4.18761        -2.85856        -5.13945
LJ          -3.76893         6.33151        -5.09766
LJ          -2.63495        -3.35567         5.92079
LJ          -2.47015        -4.85898         6.02374
LJ           2.21575         4.12081         -1.2933
LJ          -4.70959        -5.61399        -4.93509
LJ           5.33571         6.31515        -2.28393
LJ          -3.86011        0.327695         3.27978
LJ           -3.3269        -5.77695        -4.27063
LJ           5.61548         1.89798       -0.986494
LJ          -3.34937        -4.38305         5.28868
LJ         -0.962996        -2.10499         3.12304
LJ          -3.09912        -1.35668        -4.22466
LJ          -5.58951        -1.70471       0.0885476
LJ            3.1996        -3.80584         4.02784
LJ            5.9933         6.13023        -3.39629
LJ           1.22727         4.08519        -2.40179
LJ          -3.17509        -2.79422        -4.16898
LJ          -3.52765        -4.82605         6.22942
LJ           5.91617        -4.22386         5.96153
LJ          -3.50375       -0.782943        0.548384
LJ           -3.7872        -2.77852        -5.39151
LJ           4.36494        -6.43325       -0.534288
LJ          -3.88283        -4.58563        -5.31481
LJ          -2.72088         5.88376         3.75987
LJ           1.51482          5.6388        -1.52809
LJ          -3.31515         -5.4785        -5.53174
LJ           5.03443         5.89925        0.994284
LJ           5.07117        -2.53321        -3.32884
LJ           1.01254         6.13554         4.01283
LJ           5.29109          4.6414         1.83946
LJ           4.25703        -5.74025        -4.28716
LJ         -0.556241        -2.97542         -3.9551
LJ          -4.93661         1.51174        -6.28054
LJ           1.32381        -6.39548        -6.32445
LJ           5.94634        -1.75627         5.48891
LJ          -2.73443        -5.46612        -3.04707
LJ          0.598618         2.69619        -2.67197
LJ           3.93201         4.86881       -0.910105
LJ          -2.87878        -4.01339        -4.52664
LJ          -2.55469        -2.11044         -6.2128
LJ         -0.547431         4.61365         2.96939
LJ          -3.16918        -4.74642        -3.86093
LJ          -6.43396         4.99773        -3.83385
LJ         -0.922257          1.4529        -5.46608
LJ          -3.03506        -1.53622        -1.65074
LJ           4.54365        -5.07157       -0.849743
LJ          -1.98375        -3.98242         -5.1888
LJ         -0.439687       0.0748596        -4.16505
LJ          -3.80551         2.86691         4.39411
LJ           4.37117         5.54064         2.03189
LJ          -1.72758        -3.97551          5.8851
LJ          -2.59121        -2.29696        -5.00057
LJ          -3.09182         -2.3247        -2.97985
LJ         -0.314718         5.84894        0.732532
LJ           1.24614        -1.20526         -1.5081
LJ          -5.23927        0.407856        -5.43784
LJ          -4.97149        -4.51523         5.26086
LJ          -1.07423        -4.13065        -4.55059
LJ           1.60535          6.0244         5.01801
LJ          -1.67746        -2.87151        -5.11319
LJ          -2.90287         -3.1873         -5.5874
LJ           -1.6515        -4.49876        -6.05609
LJ         -0.625285         5.74048         3.68971
LJ          -4.29054        -4.69041        -4.19548
LJ          -1.86807        -3.28233        -6.05042
LJ          -3.44524        -5.94467         6.35194
LJ          -5.04998        -2.18348         6.34476
LJ         -0.508715          1.5718        0.374927
LJ          -3.46389        -6.17673         3.81528
LJ          -3.78349        -4.73826         3.44353
LJ           1.07322         2.02261        -1.39254
