108
#Comment!
LJ          -2.73693        -6.02219        -6.44264
LJ          -2.28496        -2.92823         5.91582
LJ          -2.37029        -2.37652        -3.53501
LJ          -3.23427        -2.59416        -2.43858
LJ          -1.98778        -2.65336        -2.24833
LJ          -4.18788        -2.63239        -5.75564
LJ           2.59112         3.08271         -3.0513
LJ           6.16787        -4.39074        -6.15375
LJ          -3.27364        -2.83951         5.19177
LJ          -4.16795        -1.93412        -4.30809
LJ          -0.91347         5.84797         6.04445
LJ           1.66667        -5.67334        -1.08831
LJ           5.11233        -6.13591         1.93539
LJ          -2.68661        -1.68496        -2.80008
LJ          -2.69235        -5.71477         5.25702
LJ           5.55669         3.17045        -3.22133
LJ          -2.94373       -0.971725         -3.6853
LJ          -3.08094         3.31957        -4.13539
LJ          -3.53555        -1.03847        -2.67024
LJ           5.48298        -2.11817        -3.84732
LJ           -2.6468        -3.26696        -4.26818
LJ          -2.51835         5.58523        -3.39047
LJ          -2.62958         5.32912         5.17733
LJ           4.19657          6.1602        0.894267
LJ          -3.11357         2.15554        -4.35545
LJ           3.04514         1.14789        -1.13749
LJ            -1.797        -2.80848        -5.55579
LJ          -1.33973        -5.79812         -5.6406
LJ        -0.0522704          5.4227        -6.02517
LJ          -4.17262        -3.05212        -2.76258
LJ          -3.60868        -3.08456        -4.55238
LJ          -4.73001        -4.86575        -1.57662
LJ          -2.46127        0.193064        -2.77464
LJ          -1.79851        -3.91334        -6.13293
LJ          -2.80968        -6.14564        -5.23852
LJ           5.69029         5.62409         3.14961
LJ         -0.791477        -1.00314        -4.35622
LJ          -2.75271         6.26539         5.57815
LJ          -3.56553        -1.50294        -5.18875
LJ          -2.18933         3.75475        0.698172
LJ           4.77182        -6.38991       -0.218697
LJ          -3.87931        -5.07519        -6.43003
LJ           1.94104        -2.06442       -0.472371
LJ          -4.34727         2.65086         3.30524
LJ          -1.64173         4.57872         6.05659
LJ           4.77535          1.5475         1.15115
LJ          -1.84486        -5.49495         6.20798
LJ          -1.16396        -4.75684         2.60459
LJ          -2.97377        0.627219        -4.50425
LJ           3.59224       -0.435882         6.12318
LJ           3.52602        0.371121       -0.332748
LJ           4.98624         4.00763        -3.58116
LJ           5.18223         5.59032        0.237373
LJ           -4.0626        -1.95883        -2.61172
LJ          -4.34172        -3.66581        -4.83561
LJ          -5.01161        -2.95067        -4.49945
LJ          0.111432        -4.73603         3.72119
LJ          -1.97453        -1.33153        -5.18975
LJ          -4.84494         4.16971        0.695343
LJ          -4.38204        -3.22219         6.34937
LJ         -0.777509        -5.86901         6.18619
LJ           3.80474         6.29342        -0.37816
LJ          -2.32002        -5.25647        -5.79974
LJ           4.89933         4.12792        0.507601
LJ           5.41457       -0.906637         6.45093
LJ           1.30508        -5.72441        -2.16174
LJ          -4.97415          4.6702       -0.416849
LJ           3.17631         4.36473          4.4098
LJ          -1.77524        -1.60647        -4.05766
LJ           4.17436        -2.32724        -4.44999
LJ          0.840794         6.05643         2.19082
LJ          -4.84125        -5.14831         4.98247
LJ           4.99305        -1.42277        -2.71243
LJ           3.82297        -1.49806        -1.26054
LJ           2.92297         6.36674        0.967449
LJ          -3.08471        -2.44997        -5.33822
LJ          -3.40084        -2.35403        -3.58579
LJ         -0.985663         -5.8042        -2.19321
LJ           -2.8305        -4.48505        -6.05565
LJ           5.33721         4.09363         -2.5989
LJ          -2.86437       -0.429361        -5.00534
LJ          -1.68278       -0.942223        -3.04657
LJ           4.55541         6.43102        -2.44426
LJ          -1.33001        -4.88529          5.4226
LJ          -2.59694         4.48018        -4.36012
LJ            1.8892         6.35838         2.66739
LJ           4.88659         5.62542       -0.881023
LJ         -0.833515        -5.80883        -3.29569
LJ           -3.2917          0.3456        -3.53542
LJ          -1.61388       -0.354222        -2.07632
LJ          0.740275        -4.28921       -0.746388
LJ          0.932397        -1.24468        -2.88614
LJ          -5.07677         -1.6042        -1.94896
LJ          -6.26852         -2.4135         6.24623
LJ          -1.35777        -6.33078        -4.72183
LJ           1.29002         5.05437        -3.56542
LJ           -2.8296        -1.84127        -4.39629
LJ          -3.01885        -3.34523        -5.93375
LJ         -0.747259         5.46444        -4.98904
LJ          -2.49924         -4.6553         5.90109
LJ          -4.17245        -1.49552        -5.99301
LJ          -2.34435        -3.90819        -5.14118
LJ          -1.38932         5.11664        -5.94647
LJ           4.26936       -0.234908         4.30004
LJ           2.46387         1.04718        -2.56428
LJ          -1.96063         6.34132        -5.63543
LJ          -5.67959        -3.50532        -5.96692
LJ          -1.12165        0.363399         1.91902
