108
#Comment!
LJ          -2.16868        -4.63268        -5.02892
LJ          -1.85231        -3.43199        -5.20125
LJ          -4.65957          1.7138        -3.28389
LJ          -2.55917        -3.49287        -3.46496
LJ          -1.41855        -5.84135        -3.91615
LJ          -1.09835        -2.15859        -3.27316
LJ           1.44916        -1.34064         4.33642
LJ          -5.71388        -2.83924         5.97825
LJ          -5.62009        -2.89094        -5.66966
LJ           5.94923        -1.79704         1.12257
LJ          -4.69974         4.42776        -4.93408
LJ            -1.363         2.76105        -1.45014
LJ           5.56631         6.10315         2.80267
LJ          0.266907        -2.74557        -3.81438
LJ          -2.19687         -5.8884        -5.15488
LJ          -3.38143        -5.72604        -2.26427
LJ          -1.61828       -0.841965        -5.04476
LJ           1.42173         6.30648         3.45654
LJ          -2.48859         -5.3251        -4.15932
LJ          -2.91782        -3.43582         5.89047
LJ          -1.16994        -4.71506        -4.31699
LJ           4.68273        -1.91524         1.30111
LJ          -1.29907        -5.10488        -5.67982
LJ           2.83896         5.69049       -0.798588
LJ          -1.72366        -6.14176        0.246427
LJ          0.326153        0.489423        -1.41155
LJ          -3.80848        -4.04721        -5.13622
LJ          -2.81033        -4.46325         5.91453
LJ          0.763924         5.44123         4.25587
LJ           5.12195         4.28463         5.43842
LJ         -0.378495        -3.76922         3.55811
LJ          0.303441        -3.11007        -2.83791
LJ          -3.11302           1.013         1.92574
LJ           -3.1712         -2.2814        -4.76754
LJ           4.68556         3.18884         5.36792
LJ          -3.47482        -5.75543        0.988094
LJ          -3.41143          6.0705        -6.33716
LJ           5.03063        -5.71439        -1.18437
LJ          -3.72908        -3.18738        -6.29396
LJ          -3.06566        -4.34829        -5.91724
LJ         -0.154229         1.53717        -2.53189
LJ          -3.70733        -5.68546        -4.25926
LJ          -2.45333        -6.32251        -6.29158
LJ          -4.49816        -4.31759         5.54315
LJ          -2.89072         -4.3369        -4.33835
LJ           5.98397         2.45575        -4.59691
LJ          -2.79135        -2.87245        -5.66321
LJ          -1.79812        -4.22269        -6.30321
LJ           2.21819        -1.24585         5.37663
LJ           1.31645        -1.46618          1.8044
LJ           2.37245          2.0048         -1.4233
LJ          -5.44978        -3.39048         -4.8094
LJ         -0.568515         2.60606        -2.49262
LJ          -2.59056         2.36872         3.31869
LJ          -3.72319        -5.74469        -6.24897
LJ           6.09888         5.34241         1.99276
LJ           4.90466        -3.87238        -2.47614
LJ          -2.44615        -5.25005        -2.72041
LJ           1.42123         5.68177        -1.93065
LJ         -0.396417        -5.75128         6.12184
LJ         0.0656216         4.53524         4.16858
LJ          -1.49679        0.387819         -3.3706
LJ          -3.20463        -6.41896        -5.06425
LJ         -0.269322         1.78182        -3.58801
LJ          0.629498         0.44867         5.46073
LJ         -0.752441        -3.34611        -3.93448
LJ           3.24352         6.08415        0.280398
LJ           4.45318        -3.42609         2.32911
LJ          -2.32839        -5.22536        -6.23339
LJ          -3.04389        -5.15955        -5.10117
LJ          -1.39626         1.64942        -3.81056
LJ            5.7782         1.59017         4.90369
LJ          -1.65897        -2.53427        -4.70432
LJ         -0.684113        -1.02666        -1.01129
LJ         -0.445567        0.581102         -3.3442
LJ         -0.475351        -3.39432        -5.38647
LJ          -2.08522         -3.1282        -6.43388
LJ           5.62321       -0.932093         5.77372
LJ            4.1456         2.29489        -2.14813
LJ          -4.09626        -4.46954        -6.40984
LJ           2.53497        -1.64259        -2.49904
LJ           1.09652         5.07025        -1.01389
LJ          -2.04187        -4.56998        -3.45166
LJ          -4.47151        -5.39586         5.52277
LJ           1.97361        -5.89478         5.86547
LJ         0.0388437         5.20382         5.11948
LJ         -0.751663        0.699293        -2.25714
LJ          -2.53058        -3.69393         4.44217
LJ        -0.0954045        -4.38383        -4.86917
LJ          0.564656        -3.37214        -4.60919
LJ           2.82484         6.01412         3.20105
LJ           3.37582        -1.84385        -3.58372
LJ           5.12731        -3.04669        0.374871
LJ          -2.65487        -3.15772        -4.58928
LJ          -3.50448        -5.21422         5.75825
LJ         -0.567616        -3.27415         -1.7985
LJ           -1.9345        -4.04634         5.21591
LJ         -0.602142        -2.26781        -4.24463
LJ          -3.36651         -6.2766         5.56453
LJ          -1.01987        -3.28149        -3.04919
LJ         -0.807441        -4.86228        -3.00408
LJ          -5.38547        -1.38734         4.15351
LJ          -1.79106        -3.86563        -4.25212
LJ          -1.85946        -2.30579        -5.80079
LJ          0.226586        -3.82204        -3.76967
LJ           6.32527         5.36406          6.0372
LJ          -4.47001         5.21136        -1.77727
LJ          -0.74844        0.100723        -1.17783
