108
#Comment!
LJ          -2.46844        -4.33027        -4.76925
LJ          -2.50417        -3.60784         -5.8941
LJ          -5.45975        0.353098        -1.39515
LJ          -2.89038        -3.80401        -3.58814
LJ           -2.5028        -5.80281        -3.03554
LJ          -2.47648        -2.21814        -4.14999
LJ          0.524754        0.895472         4.28436
LJ          -4.04562         -2.6313         5.18078
LJ          -4.71394        -2.94993        -5.94224
LJ           3.42799        -2.76727        -1.01957
LJ           -4.7541         4.87951        -6.14177
LJ         -0.184877         2.76791        -2.10586
LJ           4.92543          5.9179         1.48966
LJ          -1.11902        -3.21537         -4.8076
LJ          -2.10537        -4.79391        -6.06994
LJ          -3.34849        -5.23343        -1.68524
LJ          -3.30504        -2.76028        -4.65966
LJ          0.529323         5.87625         3.35298
LJ          -3.63242         -5.3987        -3.54496
LJ         -0.925269        -3.32658         4.60175
LJ          -2.16354        -5.28574        -4.77036
LJ            5.5688        -1.77889        -3.13381
LJ         -0.811673         -5.6287         -5.6508
LJ           4.71846        -5.95978         1.90639
LJ         -0.728844         -5.0918         1.81599
LJ          0.256321         1.49364       -0.283334
LJ          -3.89802        -3.62735         5.87996
LJ          -2.32495        -2.88579         6.13555
LJ          -0.68072         5.31075         3.13894
LJ           3.87727         1.44211         4.16985
LJ         -0.639494        -4.55076         4.98156
LJ         -0.345487        -4.30578       -0.857735
LJ          -2.43732        -1.91738       -0.244768
LJ          -3.18495           -1.82         -5.0612
LJ           2.73082         2.30981         3.29314
LJ          -2.63775         4.72919        -1.41044
LJ          -3.83343         -5.1779          6.0603
LJ           5.72004        -6.00958        -2.07796
LJ          -4.25053        -2.28954         6.19023
LJ          -2.69951        -3.99217         5.97912
LJ         -0.950416         3.39141        -2.72375
LJ          -2.87189        -5.86812        -5.27476
LJ          -3.06035         5.71176        -5.22132
LJ          -3.39584        -3.01236         4.36615
LJ          -3.38275        -4.66944        -4.32874
LJ           6.07521         2.30498        -3.63918
LJ          -4.20939        -2.27597         -4.9871
LJ          -1.68848        -4.75854         5.64165
LJ           3.59503        -1.81518        -5.33565
LJ          0.888196        -1.94742       -0.137284
LJ           2.94563         3.88241        -3.49707
LJ          -5.12256        -4.32498        -2.72882
LJ          -1.05759         3.36964        -1.64146
LJ          -3.21972        0.986515         6.12454
LJ            -3.734         -6.4009         -5.6994
LJ          -5.81772         6.37989         4.24485
LJ           6.21477         5.73064        -3.12777
LJ          -4.26619        -5.87126       -0.779166
LJ           3.05038         6.27507        -2.19093
LJ          -1.20838        -4.87799        -3.57686
LJ         -0.904047         5.49556         2.08273
LJ          0.744314         2.28604        -2.52726
LJ           -3.3988         6.44292         -4.1189
LJ           1.21555         3.77709        -2.53016
LJ          0.881543        -0.81814         3.37769
LJ          -1.09276        -3.58745        -2.42013
LJ           4.22807        -6.33765        0.707597
LJ           4.41054        -3.65384         1.14505
LJ          -2.65199        -5.11599         5.96362
LJ          -3.97425        -5.20423        -5.26207
LJ          -0.36363         2.15474         -3.1735
LJ           6.09254         4.44361         3.69855
LJ          -2.19355        -3.17425        -4.37869
LJ          -1.13156       -0.169231        -1.22707
LJ           1.73323        0.950978        -3.61009
LJ          -1.12899        -4.59527        -5.49721
LJ          -3.57717        -2.89113        -5.87832
LJ          -5.32947        0.151901         5.51834
LJ           5.94462         4.00873        -1.33185
LJ                -3        -4.44137        -5.81825
LJ           1.92499        -3.03815        -1.65935
LJ           2.70219        -5.71636         -1.5895
LJ          -3.11609        -4.82712          -2.753
LJ          -4.30457        -6.02809         5.02354
LJ            1.1845         -6.2552        -6.34179
LJ          0.540502        -5.48621         3.64575
LJ          0.617805         1.36341        -1.55427
LJ          -1.80591        -3.57697         5.29576
LJ          -0.33991        -4.03994        -4.82957
LJ          -0.36254        -2.56411        -5.07972
LJ           2.12855         5.87037         3.00776
LJ           1.53226        -2.08685        -1.09709
LJ             5.424        -4.20787        0.962521
LJ           -3.5157        -3.77425        -5.19859
LJ          -3.22187        -4.50192         5.13775
LJ          0.391427        -5.14269       -0.648424
LJ          -1.21651        -3.25195         6.07879
LJ          -1.62882        -2.90094        -5.99844
LJ          -3.01252        -6.29112         6.41221
LJ         -0.525835        -5.64563       -0.726707
LJ          -2.28847        -4.67047        -3.35494
LJ          -3.06386        -2.49335         5.59618
LJ          -1.40418        -4.26655        -4.43075
LJ          -2.53777         -2.6801        -5.42129
LJ         -0.478839        -4.33328         -3.0124
LJ          -6.20281        -3.58109          4.7634
LJ          -4.73613         2.20143       -0.795891
LJ         -0.128443       -0.258656        -1.82404
