108
#Comment!
LJ          -3.06517        -5.63698         -4.4598
LJ          -1.92947        -4.98084         6.23898
LJ           1.03668        -2.24341        -3.14714
LJ          -2.46903        -2.44681        -3.92537
LJ          -3.00598        -3.42166        -2.91349
LJ          -3.80194         -3.8886        -3.33004
LJ           -1.7518         2.42851        -5.29935
LJ            6.4287        -2.26218         5.02157
LJ          -5.33716        -4.65736         6.40419
LJ           -1.3488        -1.89122        -6.35271
LJ          -4.45343        -5.46025        -6.29276
LJ           2.28352         5.26532       -0.329081
LJ           3.74595         4.95316        0.787204
LJ          -3.31002        -2.25106        -2.87723
LJ          -1.70358        -3.33818         5.18802
LJ          -6.22513         5.23659        -3.94944
LJ          -4.40426        -2.02355        -4.82796
LJ           -2.5007         3.95906        -1.32863
LJ          -2.88678       -0.813044        -4.27692
LJ          -3.46615         6.14634        -4.86955
LJ          -2.29004        -4.01642        -5.41468
LJ          -2.90478         5.40676        -6.31785
LJ          -3.72793         6.42285         -5.9903
LJ           5.21915          4.8387       -0.119388
LJ          -1.93042         4.47562        -2.23885
LJ          0.370756         1.20554      -0.0175561
LJ          -1.09809        -2.80177        -5.77034
LJ          -0.88367        -5.06087        -5.85615
LJ          -1.80045         4.33675         3.55558
LJ          -1.54388        -2.95823        -1.12215
LJ           -2.2764        -4.30879        -4.13298
LJ          -3.49393         6.42423         1.33231
LJ          -3.49797        -1.16253        -5.16426
LJ          -3.40243        -3.82134        -5.55353
LJ          -2.92791        -5.20153        -2.30745
LJ           2.93787        -3.32423         5.48639
LJ           1.99876        -2.25398        -4.52273
LJ          -3.66286        -5.41774        -5.43926
LJ          -1.99713        -3.11081        -6.31885
LJ          -1.97438        -4.12077         4.71183
LJ           2.34478         5.68197         -1.4943
LJ          -4.41595        -6.17425        -5.25875
LJ           3.20513        -5.89095         -1.6729
LJ          -4.00256        0.999103         3.28684
LJ          -2.25661        -5.77864        -5.45061
LJ           5.40245         1.75797       -0.350124
LJ          -2.69345        -4.11343         6.39411
LJ         -0.716907        -2.33976         2.79159
LJ          -4.43873         -1.1218         -4.3468
LJ           6.32388          -1.178        -1.66089
LJ           3.23483        -2.53699         2.73055
LJ           5.62338         5.58451        -3.60749
LJ           2.80214         4.34458        -1.22372
LJ          -3.91468       -0.934107        -2.79413
LJ          -3.58422        -4.78499         -6.4224
LJ           5.51823        -3.10962          5.8069
LJ          -2.73266         -2.3416         1.45272
LJ          -2.54234        -1.51191         -5.9825
LJ            5.1119         6.02789         1.62298
LJ          -4.21767        -4.52833        -5.66313
LJ          -3.59774         6.34875         5.69627
LJ            1.4379         5.12637        -2.04906
LJ          -2.75638        -5.12265        -5.91987
LJ           4.70149         5.89419        0.420514
LJ           5.92982        -3.02405        -4.90073
LJ           1.00026         5.26035         6.45297
LJ           5.63285         5.28618         1.26202
LJ           3.11729        -6.26397        -5.99555
LJ          -1.92844        -3.82206        -3.38322
LJ           6.45001        0.499741        -5.87316
LJ           1.54014        -6.13882         5.36149
LJ          -6.21556        -1.83101         6.22935
LJ          -2.86068        -4.52595        -3.32043
LJ           2.02416         4.07165        -1.99324
LJ           3.37483         4.99347       -0.433645
LJ          -2.94674        -3.17121        -4.79669
LJ          -3.22085        -2.12721        -4.71272
LJ         -0.647112         5.28793         1.40547
LJ          -3.10705        -4.61679        -4.91201
LJ           6.15357         4.56633        -3.33872
LJ         -0.920818        0.623819        -5.51654
LJ           -1.6902        -1.37069        -3.15921
LJ           4.28536        -5.71527        -1.41735
LJ         -0.741192        -3.99399        -5.39316
LJ          -1.28463        -2.79857        -4.31272
LJ          -1.17987         4.87774         4.50838
LJ            5.8745         6.04874        0.431511
LJ         -0.281645        -4.72198         5.86374
LJ          -3.78251        -1.94211         -3.9014
LJ          -2.98687        -1.00177        -2.13323
LJ           1.79526          6.2477       -0.949455
LJ           1.39132       -0.960331        -1.47287
LJ          -4.96348       0.0455883        -3.63926
LJ          -5.11416        -3.99651          5.4601
LJ          -1.30739        -4.67985        -4.57861
LJ           1.68252          5.9341        -5.85381
LJ          -1.99005        -2.64022        -5.14492
LJ           -2.8235        -2.55659        -5.94733
LJ          -1.16857        -6.05493           6.307
LJ          -1.06663        -5.87937         4.10423
LJ           -3.5227        -3.91063        -4.35293
LJ          -1.24406        -4.00913        -6.41965
LJ          -2.80154        -5.71756         6.08282
LJ          -6.20935        -3.60272         5.69903
LJ          0.867187        0.459086       -0.750675
LJ          -2.19105         6.26855         5.36466
LJ          -4.11908         -4.3828         5.76012
LJ          0.387786         2.43859       -0.911748
