108
#Comment!
LJ          -1.66996          5.4445        -4.51499
LJ          -2.71968        -4.17316        -5.24124
LJ          -2.33386        -2.53417        -5.34282
LJ          -2.66801        -1.81466        -3.75897
LJ         -0.704107        -1.86063        -3.26584
LJ          -3.06789       -0.572663        -5.12995
LJ           5.34958         1.95129        -1.72472
LJ            -4.891        -1.63368        -5.42433
LJ          -4.12844        -2.45869        -6.20856
LJ          -4.75246         1.35112        -3.87148
LJ          0.199473         4.29419         6.13519
LJ           1.17858        -5.03895         1.00931
LJ           4.50219         5.79831          3.3214
LJ          -2.43276        -1.05133        -1.66834
LJ          -1.66328        -3.96845        -5.06189
LJ           4.85774         2.91452        -1.39912
LJ          -1.30316        -1.07109        -1.53039
LJ          -5.46469         2.56904        -6.05083
LJ          -4.64038        -1.80156        -2.83978
LJ          -4.37778        0.581528        -4.67168
LJ          -3.85061        -3.59074        -6.21372
LJ          -1.55629         5.30402        -3.39973
LJ         -0.360151         4.45882         4.96703
LJ           3.43617        -5.76447         0.97823
LJ          -1.19228        0.279651        -6.37816
LJ           5.26911         3.57087        -0.56842
LJ          -1.78177        -1.99434        -4.43928
LJ          -1.25084         -6.1665        -2.92987
LJ          -1.10469          -5.485        -3.90014
LJ          -6.19952       -0.480947        -3.48703
LJ          -5.38916       -0.574707         -5.8496
LJ          -2.48052        -1.91233        -2.30459
LJ          -2.13276        -0.57405        -4.41366
LJ          -2.67113        -3.09452         6.25194
LJ           -2.3161         4.39905         5.86302
LJ          -5.01521         3.15182        -2.71035
LJ          -1.55274       -0.725426        -5.31925
LJ         -0.868426         4.33898          3.7438
LJ          -3.37895        -1.67397         -2.9922
LJ          -4.10008       -0.822402        -2.04256
LJ           3.78341         -4.6623         2.88569
LJ          -4.76722         -1.6678         5.91315
LJ          0.681973         3.45794       -0.418023
LJ           -4.6637         5.29638         3.20594
LJ        -0.0310614         5.97987         -3.6332
LJ           2.46384         2.02919         3.16995
LJ         -0.353868         4.96505        -5.23946
LJ         -0.694836         3.53106         5.35627
LJ          -3.80595        -1.79539        -5.48741
LJ           2.50441         3.69053         2.34904
LJ           5.43074        0.242586       -0.620151
LJ           6.13797         3.01949        -1.19511
LJ            5.9449         4.56835         1.44179
LJ          -5.17262       -0.393154        -1.97263
LJ          -1.92951        -5.02138        -4.89508
LJ           -4.6483       -0.755475        -3.39397
LJ           1.45237        -5.95768         5.09878
LJ          -4.20759        0.361899        -3.63997
LJ         -0.445573        0.200248        -4.99909
LJ          -3.29748        -2.72247        -5.40046
LJ         -0.764388         4.95044         -6.4081
LJ           6.11897        -5.23109        -2.32652
LJ         -0.626586         5.30983        -4.17592
LJ           5.54908         4.46683        0.475801
LJ           5.82588       -0.624347        -4.90834
LJ           0.94481        -4.63767       -0.916473
LJ          0.669701        -1.71129        -2.77181
LJ          -4.75107         2.31241        -1.42606
LJ          -5.74008       -0.480485         5.67954
LJ           3.94483        -4.62618        -2.40435
LJ           5.16707         5.94384         4.12341
LJ          -5.46476        -4.93226         -2.3439
LJ          -1.77116        -0.37764        -3.42613
LJ           5.47993          4.9492       -0.496445
LJ           4.35618        -6.04237         1.81606
LJ          -2.52562        -4.54704        -3.95359
LJ          -5.36476       0.0460127        -3.24528
LJ          -1.02399        -2.58039         1.90437
LJ          -3.98302        -3.78017        -4.60099
LJ           4.69377         3.07377        -2.68215
LJ         0.0865387         2.59088        -4.23021
LJ          -2.98721        0.409811        -3.00923
LJ          -3.23265        -5.86913         2.08826
LJ           -1.6211        -6.13359        -4.46886
LJ          -5.35792        0.509737        -4.45051
LJ           2.77136        -4.33076        -1.13189
LJ           4.21495        -5.04951          1.5387
LJ          -3.13391        -2.16791         -4.4726
LJ          -3.11994       -0.716719        -2.51586
LJ          -2.78139       -0.773513        -3.61447
LJ          -2.42797         -3.5195        -4.48281
LJ          -3.54156       0.0859021        -4.33913
LJ          -3.88572        -3.18071        -3.38774
LJ           -5.9549        -1.54266          6.0846
LJ          -1.60982         4.34094        -4.23816
LJ           1.37461         1.91252       -0.288963
LJ          -4.12027        -2.02356        -3.74616
LJ          -6.21258        -4.15091          3.3868
LJ         -0.140147         5.89976         4.51309
LJ         -0.366182         6.20177        -4.73573
LJ          -2.52105        -1.50395         -5.1681
LJ          -2.41027        -3.00189        -3.05517
LJ          -1.15944         4.47939         5.54481
LJ          -1.93335        0.154571         0.48967
LJ           1.94001         1.00337         5.14557
LJ          -1.57297         5.29043        -5.67765
LJ          -5.58327        -1.19482        -2.57657
LJ          -3.40752        -2.52744         2.23347
