108
#Comment!
LJ         -0.890833         6.38242        -5.26466
LJ         -0.961188         5.26049        -5.23777
LJ          -3.40765       -0.931444        -2.34789
LJ          -3.12562         4.48308        -4.72605
LJ           3.82806         3.92096        -2.44402
LJ          -3.29569      -0.0170834         5.81176
LJ           5.94042         4.88444        0.806035
LJ          -2.32098         2.73602         6.39242
LJ          0.185259        -4.78642        -5.68367
LJ          0.219972        -1.19108         5.61117
LJ         -0.720191        -3.60966        -4.35826
LJ           3.74039        -6.05459           3.693
LJ          -5.03003         5.33368         3.83976
LJ          -6.23963         4.07949         5.85894
LJ          -4.74456         1.83135        -6.26837
LJ           4.46285       -0.780777        -2.08357
LJ           3.59598        -1.84543         4.41026
LJ           1.63955        -5.73712        -4.18878
LJ           5.36801        -1.79189       -0.543975
LJ          -4.04012        0.513844        -3.33861
LJ          -0.35164        -3.01375        -2.75259
LJ           1.24191         6.04282        -4.68495
LJ             1.157         6.40131         1.73114
LJ          -2.48496        -1.85826        -2.72736
LJ           1.50909         2.64019        -1.33018
LJ         -0.416656        -2.59051         5.23755
LJ          0.287483        -1.97437         4.68359
LJ          -2.07815         4.42273        -4.32518
LJ          -1.02056        -2.07717        -2.51585
LJ           6.39118         -1.0054       -0.059341
LJ          -2.32555       -0.636047        -2.54923
LJ           3.97433       -0.178705        0.281959
LJ          0.853392        -2.82874         5.34407
LJ          -4.48452         -3.5443         5.47586
LJ           4.01567        -2.51341         -3.0219
LJ           5.78741         3.54122         5.92135
LJ          -1.54901        -2.78667         -3.2595
LJ           3.38096         2.62375          4.9373
LJ            5.0665      -0.0260584        0.451967
LJ           5.13075        -2.37157        -1.98413
LJ           5.83411        -1.22545         4.89928
LJ           5.37529        -5.81646         3.75286
LJ           2.69696         3.59412        -1.52315
LJ           4.91248        -1.45298         4.22941
LJ           1.10157         6.36062        -3.58339
LJ           2.00336         3.61978         4.65901
LJ         -0.210075         6.38188        -6.46234
LJ           2.88521         4.63471         2.49822
LJ          -5.72193          6.3674         1.87656
LJ          -1.49913         -6.3424         1.64368
LJ          -5.33308         -2.6305          5.5472
LJ           1.05535         -6.3467        -2.44138
LJ          -4.81982         2.06936        0.901747
LJ          -4.04117        -1.00643        -3.18253
LJ         -0.116447        -5.05896         6.26495
LJ           5.16563        -1.02963        0.415671
LJ          0.743919        -5.97002         5.82342
LJ           3.87956        0.171772        -1.79581
LJ          0.251279         2.48801        -1.39899
LJ           5.56347          -6.216         2.50121
LJ        -0.0209802         1.40741        -1.39119
LJ          0.441891         -2.9568       -0.611015
LJ         0.0125672        -6.08446        -5.08296
LJ          -5.43183         2.92073        0.887427
LJ           3.94844        -1.18813       -0.126525
LJ          0.419365         4.54333        -3.04459
LJ          -3.94181        -1.95658        -3.64354
LJ           -3.4377       -0.378779         4.43053
LJ          -5.51803        -2.47863         1.54928
LJ           3.03063         5.69667         2.59163
LJ           4.19196        -5.47363          4.6508
LJ           -5.6635        -3.83075         4.67303
LJ           -4.2012         1.19251        -5.50332
LJ          -4.18899         2.89709         0.90824
LJ           5.09597        -2.80679         1.35892
LJ          -2.86562        -3.85087       -0.334766
LJ            -2.154         3.22691         5.31591
LJ          -2.85075         1.29307         4.59712
LJ           -3.1815        0.992283        -2.68242
LJ           3.48595         4.99196        -2.90558
LJ          -1.47451        -1.73399         -3.9423
LJ          -2.13707         1.98828         4.25869
LJ           4.38503        -3.63692         1.00742
LJ           3.92455         3.95673        -1.27189
LJ           4.43188        -1.95697        -1.31945
LJ           1.13021         -5.4887        -5.94176
LJ          -5.86399         1.01088        -2.44538
LJ           -6.1063          3.2453        -6.04951
LJ          -1.21616         1.53145         4.08145
LJ          -5.08366        0.918367        -4.79703
LJ          0.789269       -0.353504         6.26229
LJ           -3.5402         2.82389         -4.3954
LJ          0.841223         -5.6349        -4.78815
LJ           6.19881         5.73412         2.05471
LJ        -0.0107796         5.48356         3.26932
LJ           6.12059         4.10186          4.9312
LJ           3.70786       -0.969187        -3.02887
LJ           2.98688        -5.75908         4.64223
LJ         0.0317194         5.74869        -5.61071
LJ         -0.753061         2.04136         2.83147
LJ          -4.01782        0.196105        -5.96467
LJ          -2.17448       -0.292489         3.53217
LJ          0.568109         4.68387         3.84601
LJ            3.6618        -1.88471        -2.12947
LJ          0.177472        -1.94801       -0.301715
LJ          0.882444        -6.39415        -6.10059
LJ          -6.37941        -1.97214        0.893389
LJ            3.1235        -0.67247        -2.11506
