108
#Comment!
LJ          -1.61135        -5.08661        -4.84771
LJ          0.197701         4.90285         -4.6759
LJ           -1.5884        -1.08437         -4.2898
LJ          -3.34074          1.1571        -4.76359
LJ           2.59739         4.63558        -2.66735
LJ          -1.41354         -1.8203         4.75694
LJ            4.2852         4.40127        -2.66464
LJ          -3.00876         2.07399         6.21658
LJ         -0.989424        -4.19529        -4.33792
LJ          -1.60653       -0.811508         6.32105
LJ         -0.552403        -3.36048        -3.64837
LJ           3.74217         5.34552         2.82113
LJ            6.2641         6.14089         3.30514
LJ          -4.47616         3.81654        -5.70916
LJ          -3.15554         4.92859         1.94269
LJ           4.92856        -2.69279        -2.28564
LJ           2.70633        -1.81465          5.5004
LJ           1.64356         6.18924        -6.08611
LJ            6.4401         -2.4933        -2.13872
LJ          -5.73055         1.76582        -4.67969
LJ          -2.61262        -3.09941        -4.96401
LJ           1.37635         5.52139        -4.47817
LJ           3.17295        -5.75702         3.71275
LJ          -2.81085        -6.15961         -3.8089
LJ          -4.06536         1.54946        -3.29647
LJ         -0.610607       -0.527159        -5.84796
LJ          -1.83337        -2.97933        -5.98023
LJ          -1.52659        -6.24766        -4.75781
LJ          -2.69493        -2.98472        -3.53474
LJ          -5.93782        -0.33432        -1.97964
LJ          -1.90236        -2.07243        -4.00266
LJ           3.11965       -0.568161        -1.34707
LJ         -0.304929        -1.43827         5.76729
LJ           6.02928        -4.26422         3.77181
LJ           3.22806        -2.45838        -4.22261
LJ          -4.15474         1.84758        -5.17894
LJ          -1.69533        -3.20756        -3.90996
LJ           2.67765         4.27746         4.68668
LJ            6.3212        -3.09144        -1.17377
LJ           5.22827        -1.52709        -1.43225
LJ           5.38779        -3.39665         3.65541
LJ          -5.95539        -5.31611         5.43536
LJ           3.42778         5.52113         -1.5945
LJ            -6.436        -2.07357         2.90146
LJ         -0.211554        -5.72109        -5.65887
LJ           1.42411          4.0936         4.43796
LJ         -0.223884         6.38864         -4.6732
LJ          0.663368         2.87671         4.36431
LJ          -4.32479        -4.80497         5.01655
LJ          0.139697         5.88188         2.79406
LJ          -5.72945        -2.07968         4.58178
LJ          -3.32828        -2.75952       0.0229875
LJ          -5.94823         2.77237        0.699474
LJ          -4.45761         2.07248        -4.26861
LJ          -0.91618        -5.33467         6.25224
LJ           6.38319        -1.46822        -1.65279
LJ           1.75692        -6.20062         -4.7767
LJ           4.74145       -0.231571        -1.90738
LJ          0.644291        0.837947        -3.64231
LJ          -4.87122        -5.74474         5.45994
LJ         -0.485123         1.68507        -1.53066
LJ          -4.70424        -5.04442         4.09624
LJ          0.736124         6.28377        -5.19092
LJ          -5.82429          3.3508         1.68567
LJ           5.76986       -0.412835        -1.85471
LJ           1.75947         1.81506         -5.1594
LJ          -2.85263         -1.4768          4.2227
LJ          -1.76182         -1.9338         6.22837
LJ            3.7765        -4.09652       -0.883814
LJ          0.894802        -4.45128         2.16818
LJ           4.07749         6.26346         3.17892
LJ          -5.34752         -4.4361         4.76203
LJ          -3.20146          3.5715        -4.65907
LJ          -4.89737         3.00038        0.962191
LJ           4.52673        -4.08662         3.57292
LJ         0.0782051        -4.35994        -4.09041
LJ          -3.51991         1.17959         5.53241
LJ          -2.97769         2.28895        -4.89101
LJ          -0.65498       -0.617382        -3.45958
LJ           3.58236         4.25058        -1.20527
LJ           -1.8709        -0.64984        -2.96856
LJ          -4.57267        0.380457         -5.2813
LJ           5.39455        0.519358        -2.38419
LJ           3.00341         3.65096        -2.57138
LJ           2.97944         -1.0385       -0.262979
LJ           1.92708        -4.97191        0.942744
LJ          -5.06554         4.16346        -1.02231
LJ          -4.44869         1.76502        -6.30247
LJ          -3.55385         1.40346        -5.92898
LJ          -2.13881         1.19241        -4.23893
LJ          -1.09489        -2.05753        -5.52527
LJ          -3.73812          2.9231        -5.45748
LJ          -1.22896        -2.78616        -4.74231
LJ          -4.33906        -5.51451        -6.26972
LJ          0.211484         4.15471         4.70561
LJ          -5.33136         3.09188        -6.34499
LJ          -5.63646        -1.31175        -2.26562
LJ           3.24571         6.36534         2.53812
LJ          0.675053         6.11613        -4.00378
LJ          -1.01685         3.25781         4.53466
LJ          -2.85655         2.79861        -3.94264
LJ          0.726188       0.0881262        -5.70366
LJ           0.31386         5.41259         3.91243
LJ           5.57035        -1.07435        -2.78418
LJ            1.0645        -0.76193         1.55114
LJ           2.27943         5.78895        -5.10504
LJ           5.84763        -1.74241       -0.330012
LJ           3.86138        -1.26419         -1.6497
