108
#Comment!
LJ          -2.24208        -4.47052        -5.14974
LJ          -1.98109        -3.59271        -5.61106
LJ          -4.83831         1.40057        -2.85747
LJ          -2.89861        -3.55993        -3.38091
LJ          -1.75195        -6.31004        -3.59546
LJ          -1.06897        -1.92695        -3.46896
LJ           1.48368       -0.786475         4.17875
LJ          -5.15125        -2.91183         5.89668
LJ          -5.22561        -2.97829        -5.94673
LJ           5.63878        -2.15032        0.857468
LJ          -4.74303         4.47177        -5.18871
LJ          -1.10749         2.87974        -1.28167
LJ           5.29252         6.07508         2.49731
LJ           0.18861        -2.62228        -3.92475
LJ          -1.81927        -5.46278        -4.82048
LJ          -3.62643        -5.66979        -2.26074
LJ          -2.17293        -1.90107        -4.34675
LJ           1.32146          5.9836          3.3129
LJ          -2.84151        -5.66853        -3.44591
LJ          -2.67878        -2.82764         5.10116
LJ          -1.06539        -4.62475        -4.70406
LJ           4.63921        -1.67884       0.0611753
LJ          -1.06931        -4.85435        -5.65378
LJ           3.45767          6.2523       -0.488846
LJ          -1.76207        -5.83924        0.155978
LJ          0.275121        0.815821        -1.17818
LJ          -3.63042        -3.77411        -5.26065
LJ          -2.84404        -3.93234         5.91244
LJ          0.392577         5.77475         3.80803
LJ           5.09725         3.79857         5.23798
LJ         -0.447133        -3.93526         3.76728
LJ         0.0631481        -3.68524        -2.63515
LJ           -2.9715        0.350697         1.44446
LJ          -3.87627        -2.01798        -5.46618
LJ           3.98257         2.86482         4.80346
LJ          -3.37709        -6.40905        0.498257
LJ          -4.00352         5.88936         6.45913
LJ           5.19856         -5.7969         -1.2736
LJ          -3.77152        -3.47889        -6.23945
LJ          -2.77411        -4.46619        -6.12259
LJ         -0.127329         1.96349        -2.42159
LJ          -3.76889        -5.71587        -4.23714
LJ           -2.4403        -6.43175        -5.84729
LJ          -4.53092        -3.72029         5.58663
LJ           -3.1392        -4.36762        -4.27413
LJ           6.00238         2.42058        -4.38894
LJ          -2.90105        -2.99979        -5.76805
LJ          -1.79317        -4.46753        -6.37065
LJ           2.55444        -1.38219         5.90649
LJ           1.24218        -1.57811         1.34387
LJ            2.5132         2.42836        -1.88604
LJ          -5.47808        -3.60827        -4.22434
LJ         -0.949297         3.20307        -2.31138
LJ          -2.73134          2.0611         3.95187
LJ          -3.77863        -5.83233        -6.06654
LJ          -6.42232         5.52725         2.55527
LJ           5.21435        -4.59822        -2.76215
LJ           -2.3543        -5.40868        -1.49087
LJ            1.8073         5.80686        -2.06696
LJ        -0.0877583         -5.8244         -5.6837
LJ          0.113242         4.55078             3.5
LJ          -0.81263        0.840851        -3.14974
LJ          -3.16889         -6.1834         -5.0361
LJ          0.178804         2.04094        -3.55525
LJ          0.421565        0.125171         5.10535
LJ         -0.876192        -3.66456        -4.12768
LJ           3.22768         5.94024        0.661831
LJ           4.34696        -3.47799         2.17458
LJ          -2.54297        -5.53086         6.45137
LJ          -3.06103        -5.09274        -5.06436
LJ           -1.5019         1.75068        -3.74618
LJ           5.85245         2.19616         4.64396
LJ          -1.76981        -2.82184        -4.35721
LJ         -0.917064        -1.01875       -0.860111
LJ           0.42552        0.576586        -3.67054
LJ         -0.931782        -3.77247        -5.29683
LJ          -2.04534        -3.06887         6.35598
LJ           6.05493       -0.678972         5.71722
LJ           4.57541          2.6842        -1.95886
LJ          -3.82631        -4.50805        -6.38783
LJ           2.39305         -2.1994        -2.29186
LJ            1.4081         5.55095        -1.09052
LJ          -2.48331        -4.59757        -3.54979
LJ          -4.65185        -4.95001         5.34067
LJ           1.84678        -5.96675           6.047
LJ           0.13359         5.72168         5.22641
LJ         -0.587929        0.855393        -1.99836
LJ           -2.3035        -3.86743         4.26757
LJ        -0.0362419        -4.15114        -4.81568
LJ           0.30493        -2.75215        -4.99835
LJ            2.3442         5.99021         3.20153
LJ           2.97053        -1.64533        -3.01113
LJ           5.29194        -3.36041        0.430487
LJ          -2.68969        -3.28729         -4.6388
LJ           -3.4032        -5.01619         5.56621
LJ         -0.346308        -3.69416        -1.27916
LJ          -1.47709        -3.62738         5.48679
LJ         -0.976153        -2.21207        -4.59583
LJ          -3.34168        -6.31292         5.88977
LJ         -0.969187        -3.81003        -2.14702
LJ          -1.34396         -5.1124        -3.70559
LJ          -4.80456        -1.53544         4.29896
LJ          -1.94316        -3.95234        -4.28769
LJ          -1.84883        -2.11133         -5.7888
LJ          0.303876        -3.76157        -3.79401
LJ           6.37186         6.25872         5.74801
LJ          -4.53272         4.53152        -1.55371
LJ          -0.59117       -0.155302        -1.54129
