108
#Comment!
LJ          -1.36595         5.75723        -4.39828
LJ          0.198924        -5.41631        -5.06265
LJ          -1.56627         -1.9124        -5.51213
LJ           -2.6859         1.78879        -4.01544
LJ          0.949448         6.23269        -4.86156
LJ           -3.0757        0.542177        -6.40727
LJ           4.00638         3.74632        -1.99591
LJ          -4.34627        0.130657        -6.08649
LJ          -2.52574        -2.60628        -5.76232
LJ           -2.6214       -0.526287         5.90382
LJ          -1.23206       -0.296161        -3.57392
LJ           2.93442        -5.77551         2.57132
LJ          -6.22949        -5.69688         3.97577
LJ          -4.30603         1.30932        -2.84725
LJ          -2.16068        -4.12203        -3.61104
LJ          -5.89619        0.360993        0.320192
LJ          0.874656       -0.614647        -4.33964
LJ           5.85809         5.56366        -6.20828
LJ            6.1695         -3.5514        -1.29575
LJ          -3.48837         1.93001        -4.62417
LJ          -1.06443        -2.70357        -2.54766
LJ         -0.483276         5.11935        -4.41245
LJ           1.48756          4.9129         4.88457
LJ           2.38287        -6.01993         4.56568
LJ           2.46597         1.42442         1.18942
LJ           6.44135        0.933064          1.3084
LJ          -1.99973        -1.30084        -3.46792
LJ           -3.2292        -5.07239         -3.5604
LJ          -2.93358        -6.32339        -4.12205
LJ          -5.32514        -0.93654        -1.23233
LJ          -3.99397        -1.17388        -5.51592
LJ          -6.29281        -3.22586         -2.4613
LJ          -2.18744        -1.23782        -6.18752
LJ          -3.98304        -4.88894        -6.27839
LJ          0.374215         3.64624         5.70648
LJ          -2.25923         2.18936        -4.90309
LJ          -1.52867        -2.22758        -3.43642
LJ          0.672959         4.24189          4.7086
LJ           6.26704        -2.28055         -1.5501
LJ          -5.50641        -2.09899        -1.72215
LJ           3.90953         6.39846         3.34491
LJ          -5.86377        -3.87998        -5.33086
LJ           1.42194         5.59088        -3.44682
LJ           -5.2057        -5.21162         3.06893
LJ         -0.798096         6.38077        -3.77781
LJ          0.127906         4.81802         3.85655
LJ        -0.0251724         6.22076        -4.52806
LJ          0.380747         2.67834        -6.39169
LJ          -4.90573        -4.07215        -5.88155
LJ           2.88403         5.25217         1.97107
LJ           6.09529        -1.13878         2.26334
LJ           5.86345        0.770667        0.149676
LJ           6.24254         4.32786        0.757409
LJ          -3.69648         2.21685        -2.45599
LJ         -0.826402        -6.12502        -5.06977
LJ           6.44401       -0.457996        -4.06333
LJ           1.55686         6.34385        -6.14535
LJ           5.87352        0.291319        -3.57834
LJ           6.20068       -0.497825         5.88133
LJ           -5.0549        -5.18785        -5.62058
LJ         -0.506376         1.86028        -3.55796
LJ          -6.04386         -6.2241        -5.28078
LJ          -1.71413         4.77391        -4.26664
LJ          -6.11743         3.93241         1.51939
LJ           6.20669       -0.583465        -2.98581
LJ           1.14321        -1.42956         -2.0208
LJ          -1.37019        -4.02849        -5.89677
LJ          -1.88133         0.53858        -6.02007
LJ           4.41697        -2.74785        -4.72079
LJ           2.28021        -3.97665       -0.972207
LJ           4.09198        -5.45286         2.28499
LJ          -5.89911        -4.74467        -6.36402
LJ          -4.52726         2.39456         -3.2843
LJ          -5.86141         3.68218        0.432719
LJ           5.08339        -5.24399         2.95706
LJ          -1.37629        -3.14953        -5.35495
LJ          -4.24494       -0.296136        -2.88785
LJ         -0.688049        0.303562         5.32796
LJ         -0.541653        -2.31494        -5.95884
LJ           4.78839         3.36346        -2.77728
LJ          0.790422        -2.94256        -6.35851
LJ          -3.02227         2.95262         -4.3919
LJ          0.769385        -4.43389         6.03621
LJ          0.387925         5.47961        -3.92651
LJ           4.02129        0.223981        -2.13527
LJ           2.48479        -4.98527         0.10403
LJ           4.45879         6.31174         1.62076
LJ          -5.19684       -0.927211        -3.50657
LJ          -3.13619        -0.61043        -6.00932
LJ          -2.63024         1.20213        -4.98133
LJ          -3.47207        -2.74478        -6.15642
LJ          -4.73326       -0.248285        -4.98185
LJ          -1.42721        -2.46187        -4.52879
LJ           -4.6018        -2.46547        -5.70386
LJ         -0.354651           5.282         6.16212
LJ          -1.45545         2.49585         3.61402
LJ          -5.23541       -0.152473        -0.28148
LJ           4.42075         5.31665         2.23613
LJ          0.757007         5.36077         6.34391
LJ          -1.05995         4.15954        -5.04164
LJ          -3.53835        0.502334        -5.34924
LJ            1.2981        -1.14163        -3.15492
LJ           1.36197         4.50359         5.89439
LJ           5.96488       -0.153522        -1.91339
LJ           2.10753        0.101863         2.99577
LJ          -1.41411         5.25455        -5.44648
LJ          -6.27219       -0.327844       -0.826639
LJ          -6.10207        -4.28499         -1.9128
