108
#Comment!
LJ          -1.27175         6.31246        -5.09822
LJ          -1.18264         4.86996        -5.15701
LJ          -3.12803        -1.07524         -2.4997
LJ          -3.16264         4.17516        -4.89802
LJ           3.47746         4.18998        -2.27541
LJ          -3.27535        0.163127         5.61271
LJ           5.99677         5.27608        0.995238
LJ           -1.9792         3.44553        -6.42628
LJ          0.141937        -4.76788        -5.41681
LJ       -0.00383872        -1.28708         5.44418
LJ         -0.822946        -3.79743        -4.29365
LJ           3.61694        -6.05545         3.57974
LJ          -5.16354         5.30134         3.84182
LJ          -5.86941         3.90532         5.65929
LJ          -4.31489         1.38418         6.35099
LJ           4.51989       -0.862699        -2.07314
LJ           3.66308        -1.78639         4.45979
LJ           1.85496        -6.05409        -4.55825
LJ           5.95213        -1.95028        -1.04819
LJ          -4.43852        0.534131        -2.73183
LJ         -0.748134        -2.74721        -2.60686
LJ          0.675896        -6.16795        -4.49626
LJ           1.13996         6.31077         1.88516
LJ          -2.32441        -1.86575        -2.95105
LJ          0.944583         2.40218        -1.99843
LJ         -0.271385        -2.16839         6.07247
LJ         0.0268881        -2.07948         4.61902
LJ          -1.79524         4.48933        -4.42222
LJ          -1.30307         -1.8184        -2.68573
LJ           6.00034       -0.855876        0.126194
LJ          -1.99673       -0.805237        -3.06021
LJ           3.72101        0.168627       -0.155452
LJ          0.723222        -2.56711         5.46829
LJ          -4.50378        -3.45686         5.49757
LJ           4.20019        -3.08895        -3.10497
LJ           6.06026         3.20836          5.8708
LJ          -1.24158        -3.33613        -3.43165
LJ           3.38141         2.72367         4.94248
LJ           4.65484       -0.379651        0.121106
LJ           5.10505        -2.01619        -1.87432
LJ           5.92523        -1.39189         4.88954
LJ           5.90718        -5.85193         3.61718
LJ           2.65949         3.36104        -1.82886
LJ           4.65301        -1.49986         4.04532
LJ           1.21596          6.1317        -3.55848
LJ           1.89652         3.77544         4.61687
LJ          -0.16336         6.20336         6.19361
LJ           2.64523         4.31813         2.64556
LJ          -5.89448        -6.38039         2.63767
LJ          -1.41314        -6.38364         1.70654
LJ          -5.35216        -2.61327         5.48551
LJ          0.691629         -6.0063        -2.10324
LJ          -4.92645         1.94005        0.887947
LJ          -4.60399       -0.524228        -3.31289
LJ         -0.221972        -5.10248         6.43975
LJ            4.9621        -1.34767        0.654435
LJ            0.5827         -5.9331         6.44441
LJ           4.10011       -0.118176        -1.06775
LJ           0.22971         2.66681       -0.872791
LJ           5.75524        -6.42607         2.51916
LJ         -0.191101         1.23709        -1.46918
LJ         -0.184069        -3.36445      -0.0879928
LJ          0.117893         -5.8341        -5.49655
LJ          -5.41405         3.06217        0.987409
LJ           4.92172       -0.734389        -1.10734
LJ            0.5656         4.18362        -3.31073
LJ          -3.51289        -1.69749        -3.57429
LJ          -3.23703       -0.247622         4.50646
LJ          -6.29449         -2.5207         1.43774
LJ           2.96321         6.30459         2.62878
LJ           4.34247        -5.61979         4.32181
LJ          -5.72448         -3.7827         4.65472
LJ          -3.79959         1.53503        -5.58182
LJ          -4.32338         2.98774        0.899263
LJ           5.32466        -2.90641         1.77697
LJ          -2.62995        -4.01879       -0.695705
LJ          -2.09767         2.76108         5.35261
LJ          -3.01911         1.34427         4.99679
LJ          -3.29006        0.615446        -2.53454
LJ           3.86748         5.11753        -2.84447
LJ          -1.61596        -1.88802        -3.94217
LJ          -2.14272         2.27409         4.14532
LJ           4.72263        -3.69966        0.618594
LJ           3.85259         3.89007         -1.2008
LJ           3.84603        -1.81823       -0.958051
LJ           1.73239        -5.23871         6.06245
LJ          -5.29202         1.20666         -2.4667
LJ          -6.27095         3.31535        -6.10066
LJ          -1.14132         1.59566         4.27367
LJ          -4.81307        0.661828        -4.85882
LJ          0.778814       -0.861921          6.2491
LJ          -3.68152         2.91101        -4.54133
LJ           1.21239         -5.4373        -5.23038
LJ           6.38279         5.79763         1.94981
LJ         0.0705422         5.52554         3.19705
LJ           6.02519         4.18996          5.4003
LJ           4.15539        -1.02117        -3.43833
LJ           2.80599        -5.85048         4.67689
LJ         -0.267536         5.76269        -5.06048
LJ         -0.942478         2.05568         2.97788
LJ          -4.52679        0.391657        -5.82269
LJ          -2.54069       -0.493902          3.7542
LJ          0.698006         4.62736         3.95684
LJ           3.73761        -1.62309        -2.55779
LJ          0.297002        -1.65288      -0.0729351
LJ           1.29321        -6.45764        -5.64316
LJ           -6.3631         -1.9065        0.500257
LJ           3.28404       -0.755739        -1.73412
