108
#Comment!
LJ           -1.6526         6.37515        -5.32704
LJ          0.142571        -5.72782         -4.2557
LJ          -1.74106         -1.0173        -5.72289
LJ          -2.28417         1.65311        -3.98321
LJ          0.836836         6.00456        -3.88985
LJ          -2.70376       -0.369092         5.47427
LJ           4.09159         4.20542        -2.00676
LJ          -3.36044        0.266118         6.31908
LJ          -2.13914         -3.0253        -5.41416
LJ          -2.12217        -1.25185          6.3212
LJ          -1.07167       -0.653682        -3.41155
LJ           2.60995        -5.87304         2.71924
LJ          -6.05533        -5.87604         3.71022
LJ          -4.24447         2.34681        -2.21073
LJ           -2.2516        -4.93518        -2.09121
LJ          -5.40574        0.069104        0.695719
LJ           1.45192         -1.0618        -5.32374
LJ           5.11357         6.26531         -6.1211
LJ           6.45772        -3.75612         -1.1258
LJ          -3.80766         1.99461        -4.88416
LJ          -1.61369        -2.74467        -1.98545
LJ         -0.096676         5.38425        -5.81644
LJ           1.34453         5.70565         4.67911
LJ           1.95042         5.82894         5.59142
LJ           3.89085         1.70083       0.0122383
LJ           5.18514        0.825181         2.68627
LJ          -2.32672        -2.76117        -4.06328
LJ          -2.59191        -5.04552        -4.07895
LJ          -3.20422        -6.19383         -3.8609
LJ          -5.71751        -1.17575        -1.90756
LJ          -3.01153        -0.97405        -5.07836
LJ           5.97304        -2.80249        -3.05788
LJ          -2.31323        -2.47199        -6.28135
LJ          -5.64908        -4.86737         5.62314
LJ           1.01848         1.68853         5.64892
LJ          -2.60157         2.45826         -4.8595
LJ           -1.3141        -2.74674         -3.4393
LJ        -0.0939243         4.22604         4.37678
LJ           6.13541        -2.59543        -1.46199
LJ           6.24135        -1.58312        -1.81379
LJ           4.67652        -6.42968         3.41612
LJ          -5.61077         -4.1929         -6.1808
LJ           2.24482         5.93475        -3.47625
LJ          -5.37843        -4.36839         2.94117
LJ         -0.152339         5.89217        -4.00265
LJ          0.962757         4.10271         3.70598
LJ         -0.430573         6.15316        -5.02863
LJ          0.435595         3.31773         6.05795
LJ          -4.51745        -4.07982         -6.3229
LJ           2.89639         5.88966          2.1614
LJ           6.29644        -1.29739         2.80295
LJ          -6.41138       0.0116447       0.0274509
LJ            6.2074         3.99466        0.418546
LJ          -4.09132         3.30904        -3.24629
LJ         -0.670341        -5.45799        -4.89174
LJ          -6.24667       -0.472794        -3.65906
LJ           1.43757         6.28031        -5.53027
LJ           5.46936       -0.470558        -2.83256
LJ           4.82869       -0.257284         6.42519
LJ          -4.83571         -5.0102        -5.88917
LJ         -0.416457         1.89508         -2.9924
LJ           -6.1704          6.3502         6.44485
LJ         -0.275674         5.09547        -4.64565
LJ          -5.76337         3.64088         1.82904
LJ          -6.33068       -0.456888         -2.2973
LJ           1.52875        -1.14333        -2.91928
LJ          -1.11697        -3.24526         6.09648
LJ          -2.22125       -0.170054        -6.46204
LJ           3.96953        -3.34603        -3.97709
LJ            2.4971        -4.44207       -0.786985
LJ           3.46205        -6.33798         1.77499
LJ           -6.1484        -5.43095        -5.96901
LJ           -4.8226         2.39633        -3.25565
LJ          -5.68163         3.54676        0.665411
LJ           4.76166        -5.42488         2.92293
LJ          -1.26575        -2.24274        -5.95169
LJ           -4.1324       -0.620541        -3.19819
LJ          -0.85223         1.01081         6.39433
LJ         -0.623222        -1.93469        -5.13497
LJ           4.51512         3.28357        -2.61387
LJ         -0.683875        -1.28088        -6.13232
LJ          -3.38394         2.87765        -4.00588
LJ           1.87791         -3.6263        -5.81835
LJ          0.517444         4.74198        -3.92683
LJ           3.46517      -0.0418054        -1.55549
LJ           1.76497        -4.54442        0.718641
LJ           5.52343         6.22779         1.54355
LJ          -4.41755       -0.455054        -4.40308
LJ           -3.1817       -0.656029        -6.02865
LJ          -3.21779         1.08969        -4.53504
LJ          -3.27605        -2.49198        -5.50707
LJ          -3.98035       -0.073174        -5.60257
LJ          -1.66239        -1.97115        -5.00021
LJ             -4.35        -2.79291        -6.05391
LJ           0.12049         5.47464          5.9753
LJ          -2.44287         2.73313         4.27322
LJ          -5.30384       -0.688525       -0.600866
LJ           4.16106         5.82189         2.75749
LJ           0.69221         5.33472        -4.77698
LJ         -0.376582         4.28991        -5.38007
LJ          -2.75021        0.667555        -5.84492
LJ           1.34153      -0.0583407         -3.0502
LJ          0.647826         4.49941         5.85692
LJ           5.38775       -0.158639        -1.66872
LJ           1.86542      -0.0932315         2.68133
LJ          -1.20746         5.14321        -5.36021
LJ          -6.27125      0.00445703        -1.21433
LJ           5.87781        -3.34474        -2.12867
