108
#Comment!
LJ         -0.135018        -5.40368         5.86222
LJ          -2.53299         5.61881        -5.42905
LJ          -3.50721        -0.73164         -1.5644
LJ          -3.14543         4.28284        -4.01648
LJ           3.33382         3.82257        -2.63917
LJ          -3.42775       -0.225282         6.44935
LJ           5.97962         3.78415         1.34893
LJ          -4.74974       -0.168059         3.52425
LJ         -0.656285        -5.31837        -5.50334
LJ           1.20805        -1.61507         5.83712
LJ          -1.27797         -1.8088        -2.68629
LJ           3.78303        -5.95308         4.41856
LJ          -4.63701         5.48619         3.74068
LJ            6.3671         4.24609         5.96408
LJ           -5.2735         2.62931        -4.63423
LJ           2.30044       -0.176672       -0.854862
LJ            3.8705        -2.02947         3.97017
LJ           2.99614        -5.13244        -3.67959
LJ          -6.31911        -2.85169         0.34442
LJ          -2.17204        0.482964        -4.88814
LJ         -0.699633        -3.76597         -3.9238
LJ          0.833371         5.79586        -6.13805
LJ           1.26167          -6.343         1.38828
LJ          -1.43106        -0.38934        -2.42333
LJ           1.76058         4.19373        -1.20242
LJ           2.01831        -2.46041         4.14021
LJ          0.196482        -2.04245         4.97576
LJ          -2.17466         4.46757        -3.35817
LJ         -0.399627         -2.3759        -2.00874
LJ           6.27992        -2.88703        -0.77235
LJ          -2.68567       -0.149663        -0.86689
LJ           5.02533       -0.754717         1.67765
LJ          0.260806        -2.37411         3.45128
LJ          -4.34058        -3.67886          5.6087
LJ            4.6127        -2.62327        -4.05991
LJ            5.4515         4.01731           5.399
LJ         -0.579377        -2.58597        -3.14743
LJ           3.38767         2.22607         4.88395
LJ           5.68151        0.596188         1.45735
LJ           5.78125        -3.12967        -2.27005
LJ            6.1153       -0.614135         5.34211
LJ           5.08448          -5.133          3.4724
LJ           3.16058         4.40983        0.229163
LJ           5.27033        -1.32779         4.91048
LJ           1.11518        -6.27879        -4.35373
LJ           2.20029         3.22287         4.52361
LJ          -1.30296        -5.40881         5.81973
LJ           3.73224         2.27159        0.976732
LJ           5.66165         5.34312       -0.594986
LJ          -1.76146        -6.20815         1.44005
LJ          -5.17985        -3.09362         5.57711
LJ           1.97587         4.92002         -4.4893
LJ          -4.50151         1.79905         1.02224
LJ          -4.41468        -1.70072        -3.33429
LJ          0.560801        -5.48941        -6.09072
LJ           5.61099        -2.00106         1.92068
LJ         -0.745298           5.836        -6.07189
LJ           3.70163       -0.318734        -3.12761
LJ           3.11967         2.73501        -2.04762
LJ           5.89461         6.06714         2.89478
LJ           1.09507        0.525976        -1.46698
LJ           2.88402        -2.10474         -3.9387
LJ          0.278244        -5.58435        -4.95198
LJ          -5.01497         2.83288        0.478981
LJ           1.84189        -2.37924         2.82363
LJ         -0.174512         -6.3661        -2.04932
LJ          -4.21375         -2.7562        -4.00491
LJ          -3.03577        -1.53934         4.26579
LJ          -4.21018        -1.62149         0.42513
LJ           4.02903          -6.083         3.20363
LJ           2.29533        -6.01751         4.32635
LJ          -5.70715        -3.74919         4.71578
LJ          -5.00294         1.34671         6.18907
LJ          -4.03868         2.97035        0.823252
LJ            5.7704         -1.8026        0.154197
LJ          -4.97301        -1.82369         1.99941
LJ          -2.61226         3.94655         5.54004
LJ          -2.74523        0.856745         3.77447
LJ          -3.16279        0.633594        -4.57389
LJ           2.84344         3.39683        -3.46014
LJ          -2.05913        0.229993        -3.30117
LJ          -1.35603         2.64417         4.32411
LJ           2.33092        -3.13944         1.94805
LJ           4.40879         4.50161       -0.516535
LJ           4.45252        0.817645       -0.511494
LJ         -0.485964        -4.84433        -4.44555
LJ           5.49151       -0.222787        -2.40695
LJ           6.31254         3.49753        -6.08133
LJ          -1.01791         1.54091         4.18792
LJ          -6.21815        0.600565        -4.48077
LJ          0.103199       -0.575829         5.05442
LJ          -3.10512         3.06543        -4.48767
LJ          0.249713        -6.04321        -3.71096
LJ           5.69856         6.03441        0.889096
LJ         -0.319963         5.56481         3.27869
LJ           6.35262         3.96158         4.74015
LJ           3.12593       -0.916096        -2.47936
LJ           3.34721        -5.26556         5.35171
LJ           3.00574         4.11961        -6.07586
LJ         -0.348629         1.95925         2.10502
LJ           -3.7693        0.275247         -5.5494
LJ          -2.08437       -0.160149         3.18901
LJ          0.469836         4.64923         3.66059
LJ           2.62798        -1.15717        -1.53972
LJ         -0.184765        -2.71029       -0.396502
LJ           1.83607         4.42739        -6.10324
LJ           6.13936       -0.493019         1.87659
LJ           2.40401       -0.139029        0.203018
