108
#Comment!
LJ          -1.57086         6.38703        -5.01925
LJ          -0.40352         5.82895        -4.93239
LJ          -1.90943        0.247619        -2.65373
LJ          -2.61486         2.50763        -5.52351
LJ           2.67662         4.63959        -2.10168
LJ          -1.90353       -0.886827         4.60028
LJ           5.65934         5.35897       -0.139637
LJ          -1.50575         3.66477         5.86969
LJ         -0.190884        -4.86275        -5.13725
LJ         -0.420749        -1.12677          5.5994
LJ          -1.34432        -4.51179        -4.21452
LJ           3.29691        -6.40827          3.2019
LJ          -5.96689         4.96875         3.42396
LJ            -5.765         3.67202         5.82559
LJ           -3.8281         2.27508         5.52929
LJ           4.73136       -0.304249        -3.07564
LJ           3.51508        -1.73062         4.69596
LJ           2.72784        -5.96074        -5.23435
LJ           5.46937        -1.12201        -1.73814
LJ          -5.17008       0.0603098        -2.21093
LJ          -2.10438        -3.15682        -3.34678
LJ           1.01815        -5.86743        -4.39312
LJ            1.8758         6.39161         2.31049
LJ          -2.97216        -2.72401        -2.85897
LJ          -1.48435         2.35447        -2.32497
LJ         -0.242454        -2.09664        -5.53257
LJ         -0.709774         -2.5065         5.38156
LJ          -1.80701          5.1376         -4.6103
LJ         -0.833212        -1.51949        -3.47375
LJ           5.52352       -0.679607       -0.761421
LJ          -1.97093        -0.81437        -3.50071
LJ           3.49678        0.467955        0.210679
LJ          0.157478        -1.74579         6.34408
LJ          -5.17394        -3.08696         5.24411
LJ           4.67022        -3.44889        -2.71853
LJ           6.41624         2.92379         5.99019
LJ          -1.02193        -3.65837        -3.11786
LJ           3.05897         3.28193         4.81646
LJ           4.20827        -1.72179       -0.280113
LJ           4.73592        -2.30622        -1.17487
LJ           5.71431        -2.05714         4.43347
LJ           5.92687        -5.35301         3.69128
LJ           2.87436         3.62649        -2.53254
LJ           4.96427        -1.57083         3.84328
LJ          0.729814         6.33072        -5.21616
LJ           2.13298         4.00055         4.65572
LJ         -0.413482        -6.13265        -5.71879
LJ           1.45734         3.92958         3.28758
LJ          -5.05224        -5.94141          4.2737
LJ          -1.03657         6.38214         1.94972
LJ          -5.34053         -2.0386         5.55303
LJ         -0.416967        -5.02632       -0.946873
LJ          -5.24613         2.26967         0.86501
LJ          -4.66009         1.13191        -3.13541
LJ          -1.05756        -5.21168        -5.82022
LJ           5.00871         -1.1887        0.534241
LJ           1.64008        -6.25029        -6.39533
LJ            3.9121       -0.284061       -0.962817
LJ          0.726538         2.11997        -1.64109
LJ           -6.3157         -6.3108         3.56725
LJ         -0.247081         1.33969        -1.14453
LJ          -1.98289         -4.0259         1.38195
LJ        -0.0399797        -6.12694        -4.57898
LJ          -5.72704         3.14363         1.27953
LJ           5.95484        -1.73369       -0.706168
LJ           1.00255          3.2979        -4.07408
LJ          -3.10752        -1.61791        -5.29319
LJ          -2.60438        0.212789         4.77058
LJ           5.28108        -2.43621      -0.0738199
LJ           1.76028        -5.29932         2.19885
LJ           4.18749        -6.20687         3.74256
LJ           -5.6303        -4.15531         4.52862
LJ          -3.57874          1.8732         -5.0128
LJ          -4.37562         2.91753        0.852479
LJ           5.12581        -3.47495         2.50976
LJ          -1.80303        -4.41065        -1.82224
LJ          -1.94315         2.50597          6.3668
LJ          -3.17534         2.39578        -6.40078
LJ           -2.6304       -0.764909        -2.57343
LJ           4.33552         4.62406        -1.96051
LJ          -1.85952        -2.09269        -3.57881
LJ          -2.46739          1.2198          4.5406
LJ           6.25973        -3.03424         0.24918
LJ           3.42221         3.84102         -1.5972
LJ            3.6501        -1.70801        -1.64489
LJ           2.28509        -5.61209         4.20989
LJ          -4.63569         1.92423        -2.48784
LJ          -5.37629         2.85667         6.38904
LJ          -2.49797         2.56078          5.4425
LJ          -4.11148        0.641041         -4.7155
LJ          0.957159        -1.64901         5.29788
LJ          -3.66445         2.84584        -5.54745
LJ          0.353931        -5.40291        -5.88284
LJ          -5.38505         6.22427          3.1826
LJ          0.272345         5.13496         3.27153
LJ           5.98924         4.11202         5.96647
LJ            5.2607        -1.63417        -3.94589
LJ           3.47288        -6.05061          4.7384
LJ         -0.785645         5.31501        -4.02198
LJ          -1.06943         2.36624         3.23106
LJ          -4.67221          1.5252        -5.04624
LJ          -3.06398       -0.836483         4.27879
LJ           1.12058         4.68429         3.96439
LJ           4.27659        -1.38235        -3.54334
LJ          0.553713        -1.33665        0.508911
LJ           1.67476         6.06205        -5.54406
LJ          -5.81093        -1.65295        0.620558
LJ           3.64037       -0.715792         -2.0434
