108
#Comment!
LJ        -0.0425889        -5.42727         5.96309
LJ          -2.51618         5.61174         -5.4262
LJ          -3.53672       -0.758849        -1.59815
LJ           -3.1815         4.20807        -4.08447
LJ            3.3568         3.79111        -2.52406
LJ          -3.43769       -0.208151        -6.45221
LJ           5.98067         3.78754         1.34343
LJ          -4.70908       -0.107523         3.60437
LJ         -0.575614        -5.34221         -5.5077
LJ           1.15082        -1.62806         5.77936
LJ          -1.25557        -1.76734        -2.75685
LJ           3.79434        -5.94529         4.35366
LJ          -4.64056         5.48508         3.74132
LJ           6.34478         4.20198         6.01899
LJ          -5.27378         2.62715        -4.64322
LJ            2.2623       -0.179419       -0.964338
LJ           3.86936        -2.02599         3.97953
LJ           2.98908        -5.13568        -3.68219
LJ          -6.32755        -2.85795        0.334167
LJ           -2.1744        0.476792        -4.85776
LJ         -0.650294        -3.81447        -3.92179
LJ          0.800353         5.78031        -6.11655
LJ           1.26102         -6.3441         1.39046
LJ          -1.44237       -0.453643        -2.42706
LJ           1.77842         4.19006        -1.20249
LJ           2.00385        -2.44544         4.07071
LJ          0.252541         -1.9815         4.96457
LJ          -2.13497         4.47269        -3.33635
LJ         -0.352489        -2.41597        -1.98926
LJ           6.26043        -2.86111       -0.771738
LJ          -2.64591       -0.129267       -0.848917
LJ           5.09923       -0.808867         1.68061
LJ          0.295134        -2.36463         3.49393
LJ          -4.33236        -3.70391         5.59156
LJ           4.59614        -2.61728        -4.05043
LJ           5.47168         4.01786          5.4237
LJ         -0.679766        -2.60615        -3.11924
LJ           3.36037         2.25221         4.87659
LJ           5.70599        0.540668         1.46685
LJ            5.7905        -3.12016        -2.23685
LJ           6.14843       -0.588667         5.35723
LJ           5.04006        -5.18244         3.46556
LJ           3.17937         4.40782        0.207454
LJ            5.2238        -1.36309         4.88114
LJ           1.03394        -6.23113        -4.42207
LJ           2.22603         3.20343         4.53464
LJ          -1.32789        -5.41413         5.85182
LJ           3.70677          2.3254         1.03077
LJ           5.62138         5.32996       -0.557085
LJ           -1.7596        -6.20911         1.44146
LJ          -5.21843        -3.07089         5.56989
LJ           1.97152          4.9228        -4.51602
LJ          -4.50287         1.81028         1.01878
LJ          -4.41329        -1.68581        -3.32375
LJ          0.423912        -5.46812        -6.04254
LJ           5.63045        -1.91342         1.86859
LJ         -0.713246          5.8727        -6.06533
LJ           3.70077        -0.35019        -3.10855
LJ            3.1264         2.81838        -2.10412
LJ            5.8809         6.07769         2.88776
LJ           1.14075        0.497756        -1.44776
LJ           2.90821        -2.09265        -3.91914
LJ          0.317019        -5.60341        -5.00428
LJ          -5.07086         2.82152        0.465517
LJ           1.82467        -2.37859         2.91375
LJ         -0.167334        -6.36165        -2.07526
LJ          -4.21103        -2.76511        -4.01124
LJ          -3.03374        -1.52717         4.26043
LJ          -4.22145        -1.61827         0.43444
LJ            4.0515        -6.04071         3.30004
LJ           2.33266        -6.00102         4.34291
LJ          -5.67811        -3.74293         4.73802
LJ          -4.99346         1.33696         6.20098
LJ           -3.9875         2.97084        0.843411
LJ           5.71511        -1.87058       0.0765402
LJ          -4.90443        -1.91456          1.9679
LJ            -2.608         3.94415         5.53877
LJ           -2.6961         0.80732         3.74773
LJ          -3.20074        0.595301        -4.64391
LJ           2.80064         3.36248        -3.51282
LJ          -2.07744        0.233051        -3.34167
LJ          -1.35592          2.6283         4.32222
LJ           2.33394         -3.1426         1.94715
LJ           4.42278         4.52209       -0.508282
LJ           4.47698        0.757983       -0.564406
LJ         -0.430988        -4.80878        -4.43769
LJ           5.47505       -0.223582        -2.41369
LJ           6.31795         3.54096        -6.14562
LJ          -1.03522           1.548         4.18119
LJ          -6.21372        0.604607        -4.48144
LJ          0.117041       -0.638703         5.05922
LJ           -3.1117         3.13561        -4.45562
LJ          0.218054        -6.01774        -3.71195
LJ           5.69811         6.01446        0.870651
LJ         -0.331241         5.57984         3.27237
LJ           6.35582         3.95714         4.72926
LJ           3.10819       -0.903768        -2.44531
LJ           3.33126        -5.29621         5.30714
LJ           3.04561         4.11056        -6.06908
LJ         -0.351838         1.95848         2.11335
LJ          -3.71298        0.306122        -5.49122
LJ          -2.12392       -0.110589         3.22982
LJ          0.483914         4.63356         3.66847
LJ           2.64483        -1.12312        -1.57521
LJ         -0.189011         -2.7024       -0.428208
LJ           1.77898         4.47042        -6.07979
LJ           5.99224       -0.389886          1.8984
LJ           2.41897       -0.137872          0.2625
