108
#Comment!
LJ          -1.28529        -6.36858        -5.66691
LJ         -0.125397        -6.12174        -3.98878
LJ          -1.93194       -0.565072        -5.20977
LJ          -2.23977         1.06874        -4.42373
LJ           1.46928         5.61499        -3.29793
LJ          -2.57754       -0.890943         5.53187
LJ           4.18196         4.40854        -2.06855
LJ          -2.58765        0.134212         6.04913
LJ          -2.08424        -2.90422        -5.60613
LJ          -2.11167        -1.74421         6.16026
LJ          -1.05139        -1.06063        -3.48257
LJ           3.01888        -6.22509          2.4963
LJ          -6.05986        -5.89603         3.60355
LJ          -4.32574         3.08444        -2.20449
LJ           -2.4051        -5.47045        -1.36151
LJ          -5.10883       -0.425427        0.300874
LJ           1.72256        -1.38544        -5.83165
LJ           4.26572         6.46297        -6.14026
LJ           6.30295        -3.22517        -1.92379
LJ          -4.00956         1.94145        -4.78288
LJ          -1.92355         -2.7849        -2.31963
LJ          0.535612         5.44655        -5.46288
LJ           1.59912         6.02959         4.45731
LJ           1.28689          5.0821         6.31216
LJ           4.79085         1.84081       -0.741772
LJ           4.32126        0.788851         3.59039
LJ          -2.50713        -3.21354        -4.28399
LJ          -2.07975        -5.26148         -4.2914
LJ          -3.14733        -5.77587        -3.77358
LJ          -5.72913        -1.40246        -1.92823
LJ          -2.71432        -1.44612        -4.36637
LJ           5.59313        -2.34896        -2.81921
LJ          -2.66935        -2.46597         -6.2855
LJ          -6.08798        -4.82613         4.86027
LJ            1.1969         0.80835         6.01155
LJ          -2.94522         2.06084        -4.46274
LJ          -1.30063        -2.64293        -3.31542
LJ         0.0527638         4.19167         4.00661
LJ          -6.18544        -2.19764        -1.21823
LJ           5.89083        -1.65279         -1.9148
LJ           4.80004        -6.26706         3.72348
LJ          -5.75854         -3.9949        -6.43836
LJ           2.51964           5.867        -3.13133
LJ           -5.4611        -3.92147         2.85364
LJ          -0.43981         5.79166        -4.30842
LJ           1.12477         3.62396         3.79247
LJ         -0.436494        -6.21362        -4.98822
LJ          0.616803         3.56965         5.34967
LJ          -4.36481        -4.00109         6.23709
LJ           2.11718         5.56896         2.83612
LJ             6.417        -1.35814         3.11558
LJ          -6.34021        -0.33069        0.175807
LJ           6.34473         3.71802        0.482728
LJ          -4.52391         3.65201        -3.50147
LJ         -0.939057          -5.227        -4.95369
LJ          -6.21709       -0.650678        -3.41286
LJ           1.06867          6.3279        -5.87695
LJ           5.35794        -1.18553        -2.90745
LJ           3.98279       -0.110598        -6.15904
LJ          -4.64438        -5.08245        -6.15791
LJ         -0.428727         1.89136        -2.68867
LJ          -6.08725        -6.43643         6.06453
LJ          -0.20788         4.66337        -5.02602
LJ           -5.7754         3.56791         1.85352
LJ           6.17586       -0.412696        -1.99414
LJ           1.70288        -0.61364        -3.57341
LJ          -1.36155        -2.35764         5.67478
LJ          -1.85969       -0.684233        -6.41944
LJ           3.73064        -3.70218        -3.49473
LJ           2.51439        -4.79257       -0.361537
LJ           3.89795        -6.36233         1.53917
LJ          -6.14452        -5.87426        -5.95141
LJ          -4.34991         2.48427        -3.30664
LJ           -5.5194         3.43296        0.704192
LJ           4.50347        -5.43822         3.00414
LJ          -1.32746        -2.01211        -6.20704
LJ            -4.325       -0.726775        -4.14596
LJ          -1.25772         1.35806        -5.80215
LJ          -1.18811         -1.2027        -5.01844
LJ           4.30797         3.30933        -2.44994
LJ          -1.20311        0.262173        -5.58766
LJ          -3.91722         2.81365        -4.21963
LJ           2.53106        -3.09497        -5.13292
LJ           1.03858         4.43972        -3.66275
LJ            3.2365       -0.211896         -1.2158
LJ           1.46068        -4.23211        0.815458
LJ           5.97095         5.96475         1.03069
LJ          -3.33016      -0.0123872        -4.69391
LJ          -2.93684        -0.88913        -5.95564
LJ          -3.12247        0.982496        -5.03724
LJ          -3.03967        -2.86882         -5.1055
LJ          -3.27392        0.171909         -5.8797
LJ          -2.26015        -1.64932        -5.45954
LJ          -3.60363        -3.12299        -5.95826
LJ          0.207897         5.95132         5.96109
LJ          -3.03944         2.87774         4.69694
LJ          -4.91303        -1.30847       -0.826824
LJ           4.02893        -6.29791         2.90239
LJ          0.871626         5.52094        -4.20143
LJ         -0.172854          4.2092        -5.92943
LJ          -2.17688        0.216851        -5.70071
LJ           1.38802         0.25405        -3.01221
LJ        -0.0245046         4.63471         5.96808
LJ           5.23463        0.500451        -1.44612
LJ           1.71861       -0.210558         2.48579
LJ         -0.768219         5.53359        -5.53535
LJ           6.41884      -0.0499552        -0.87229
LJ           5.17302        -3.23122        -2.27601
