108
#Comment!
LJ          -2.17092        -4.51299        -5.10475
LJ          -2.00425        -3.35648        -5.51847
LJ           -4.9181         1.26215        -2.66863
LJ          -2.90121        -3.66871        -3.52013
LJ          -1.77591        -6.33972        -3.53182
LJ          -1.07484        -1.97206        -3.73522
LJ           1.49081       -0.527063         4.14118
LJ            -4.984        -2.77513          5.8344
LJ          -4.95753        -3.06121        -5.95786
LJ           5.36535        -2.35726         0.65427
LJ          -4.75751         4.50062        -5.30752
LJ         -0.957952         2.89579        -1.22048
LJ           5.21823         6.04967         2.37845
LJ        -0.0970307          -2.713        -3.96643
LJ          -1.72891        -5.53708        -4.93211
LJ          -3.60017        -5.61274        -2.31598
LJ          -2.45407        -2.20902         -4.0846
LJ           1.14129          5.8297         3.23117
LJ          -3.09927        -5.61323        -3.25868
LJ          -2.45039        -2.67199         4.85657
LJ          -1.01278         -4.6541        -4.53018
LJ           4.73601        -1.63739       -0.433466
LJ         -0.900097        -4.93226        -5.85018
LJ           3.71039        -6.44688       -0.296636
LJ          -1.81178        -5.70555        0.100388
LJ          0.245213        0.936586        -1.10194
LJ          -3.58688        -3.83112        -5.40131
LJ          -3.04345        -3.66835         5.94046
LJ         0.0969148         5.84775         3.74053
LJ           5.03815         3.51068         5.12389
LJ         -0.496596        -4.00771         3.87433
LJ         -0.136688        -3.89059        -2.59992
LJ          -2.90809       0.0571175         1.23143
LJ          -4.10833        -2.05312        -5.84285
LJ           3.73913         2.77656         4.57138
LJ           -3.3078         6.23444        0.271106
LJ          -4.16721         6.05552         6.42584
LJ           5.26703        -5.82734        -1.32011
LJ          -3.92482        -3.44804        -6.43776
LJ          -2.73352        -4.43617        -6.04022
LJ          -0.22513         2.05773          -2.464
LJ          -3.64728        -5.62311         -4.2468
LJ          -2.49191         6.42657        -5.74529
LJ          -4.30383        -3.79093         5.60242
LJ           -3.3102        -4.16468        -4.43782
LJ           6.01133         2.40508        -4.29552
LJ          -3.10819        -2.82199        -5.78802
LJ          -1.64241        -4.56983         6.30706
LJ           2.69112        -1.43899         6.12525
LJ           1.20905        -1.62765         1.13949
LJ           2.58182         2.61711        -2.09364
LJ          -5.46694        -3.69337        -4.01002
LJ          -1.08542         3.37836        -2.25732
LJ          -2.79399         1.92352         4.23218
LJ          -3.56178        -5.79465        -5.88419
LJ          -6.29147         5.62243         2.78854
LJ           5.35233        -4.92904         -2.8788
LJ          -2.37564        -5.48812        -1.02014
LJ           1.99505         5.85994        -2.14856
LJ        -0.0582798        -5.75269        -5.15627
LJ          0.148281         4.64982         3.24174
LJ         -0.423626         1.19282        -3.19531
LJ          -3.29019        -6.36387         -5.0181
LJ          0.281668         2.16587        -3.42274
LJ          0.349283      -0.0366141         4.93138
LJ         -0.834524        -3.78478        -4.04868
LJ           3.23684          5.8985        0.768815
LJ           4.30757        -3.49604         2.09136
LJ            -2.662        -5.45578        -6.43428
LJ          -3.41479        -5.07543        -5.25743
LJ          -1.41302         1.69737          -3.622
LJ           5.86693         2.48446         4.53582
LJ          -1.60917        -3.07268        -4.28697
LJ          -1.00273       -0.980113       -0.825264
LJ          0.655782        0.562259        -3.70174
LJ          -1.05434        -3.82917         -5.3959
LJ          -2.33189         -2.8949         6.32617
LJ           6.24937       -0.568029         5.69132
LJ           4.75679         2.85596        -1.87433
LJ          -3.80993        -4.77874        -6.41105
LJ           2.29389        -2.48528        -2.16085
LJ            1.5423         5.77025        -1.09636
LJ          -2.49245        -4.71897        -3.42867
LJ          -4.58733        -4.68461         5.39329
LJ            1.7812        -6.00111          6.1266
LJ           0.20949         5.95166         5.15044
LJ         -0.452556         1.08488        -1.93684
LJ          -2.20408        -3.86965         4.37412
LJ         -0.101989        -4.09692        -4.71305
LJ         0.0141486        -2.49588         -5.0769
LJ           2.35202         5.98149         3.17898
LJ           2.82124        -1.52048        -2.79677
LJ           5.37573        -3.39273        0.497484
LJ          -2.64688         -3.3259        -4.69594
LJ          -3.42971        -4.87301         5.49161
LJ         -0.134704        -3.86485        -1.02872
LJ           -1.2969        -3.59241         5.41109
LJ          -1.00569        -2.14587        -4.79125
LJ          -3.23723        -6.24608         6.12777
LJ         -0.991349        -4.06974         -1.9409
LJ          -1.59672        -5.16679        -3.68177
LJ          -4.54675        -1.60865         4.37266
LJ          -1.94322        -4.12303        -4.13184
LJ           -1.9482        -2.34043        -5.64792
LJ          0.349804        -3.68462        -3.72192
LJ            6.3947        -6.27181         5.61874
LJ          -4.55951         4.23105        -1.45496
LJ         -0.518572       -0.280008        -1.64719
