108
#Comment!
LJ          -2.38201        -5.91067         -5.8605
LJ          -2.24984        -3.05105         5.77336
LJ          -2.09005        -2.73138        -3.30017
LJ          -3.07723        -2.81419        -2.66296
LJ          -2.38056        -1.95548        -2.20501
LJ          -3.85033        -2.83708         -4.7048
LJ           1.71178         2.94648        -3.51442
LJ           6.38018        -3.99748         -6.1892
LJ          -2.99657         -3.6453         5.05768
LJ          -4.04471        -1.78818        -5.02836
LJ          -2.03037         6.23055         6.16044
LJ           1.69295        -5.66046        -1.39194
LJ           5.03631         -6.2229         1.86791
LJ          -2.96402        -1.50135         -2.9373
LJ          -1.69587         -5.1115         5.00249
LJ           5.86427         3.58692        -3.53292
LJ          -3.50355       -0.949082        -4.13297
LJ          -2.68144         3.39712        -4.05809
LJ           -3.9001        -1.14688        -3.23306
LJ           6.35972        -2.79427        -3.74381
LJ          -2.49983        -3.29735        -4.51861
LJ          -3.25925         5.37533        -3.54076
LJ           -2.3825         5.02247         5.65927
LJ           4.66437         5.61571        0.795892
LJ          -3.17547         2.57114        -3.37342
LJ           2.61906        0.756976       -0.945068
LJ          -1.19586        -3.18868         -5.6791
LJ          -1.05042        -5.26353        -6.16385
LJ         -0.125432         5.26433        -6.46076
LJ          -3.37152        -3.94707        -2.94807
LJ          -3.41729        -3.41826        -4.03548
LJ          -4.73632        -5.47459       -0.948539
LJ          -2.79447        0.254732        -2.81254
LJ          -2.83116        -3.90163        -6.40874
LJ          -3.43738        -5.77861        -5.43267
LJ           5.13588         6.40286         3.73074
LJ         -0.286155       -0.989766        -4.64387
LJ          -3.58826         6.45233        -6.31522
LJ          -3.04874        -1.25577        -5.31397
LJ          -2.20768         4.75949         1.40489
LJ            4.6736         6.38857       -0.800108
LJ          -3.88351        -5.20767         6.31942
LJ           2.18565        -2.86101       -0.629132
LJ          -4.27798         2.31341         3.30316
LJ          -1.87037         3.98762        -6.44211
LJ           4.93162         1.58363         0.87047
LJ          -2.07578        -5.02493         6.25465
LJ          -1.06042        -3.75809         2.30342
LJ          -3.02568        0.148842        -4.23528
LJ           4.52771       -0.452703        -5.76395
LJ           3.27304     -0.00722024        0.171795
LJ           5.10932         4.29768        -3.71544
LJ           5.75218         5.14811       0.0643197
LJ          -4.19234        -2.05298        -2.83981
LJ          -4.69736        -4.11029        -5.40978
LJ           -5.7127        -2.56797        -5.28093
LJ         -0.427639        -4.68371         3.39712
LJ          -1.30482        -1.37476        -4.80118
LJ          -5.54942         4.81968         1.05465
LJ          -4.43453        -4.21668         6.28421
LJ            -1.298         -5.8263         5.94312
LJ           3.00079         6.12076        -0.82104
LJ          -2.96231        -4.63583        -5.34872
LJ            4.9325         4.35953        0.123844
LJ           5.34383        -1.00677         -6.2379
LJ           1.60495        -6.11873        -2.55902
LJ          -5.83821         5.03291       -0.110945
LJ           2.42036         4.75772         4.97356
LJ          -1.36273        -1.65541        -3.55153
LJ           4.28073        -1.94656        -4.63687
LJ          0.992986         5.61489         3.18425
LJ          -4.99331        -5.05536          5.9143
LJ          -6.30118        -2.15339        -2.59426
LJ           3.56666      -0.0497004        -1.45243
LJ           2.64203         6.18157        0.390929
LJ          -2.86029        -2.34798        -4.98292
LJ            -3.641        -2.20935        -3.69931
LJ          -0.97232        -6.19541        -1.41653
LJ          -3.59895        -3.72497        -5.20939
LJ           5.49596         4.15171        -2.59175
LJ           -2.1904       -0.713223        -5.03129
LJ          -2.34238        -0.56039        -3.85502
LJ           3.69942         6.33157         -2.4111
LJ          -1.15196        -4.50131         5.95865
LJ          -2.13594         5.67372        -4.02984
LJ           1.41593        -6.18023         2.51662
LJ           4.66398         5.24147       -0.443045
LJ         -0.654594        -6.06606        -4.33181
LJ          -3.68323      -0.0555361        -3.49912
LJ          -1.56019       -0.971187        -2.04457
LJ           1.00424         -5.0084       -0.424016
LJ          0.985655        -1.10212        -2.42655
LJ          -4.66409        -1.13341        -2.51875
LJ          -5.75672        -3.25173         5.96631
LJ          -1.26787         -5.8376         -5.1634
LJ           1.51991         5.44914        -3.94341
LJ          -2.53137          -1.654        -4.03083
LJ           -2.2442        -3.07159        -5.65555
LJ         -0.716595        -6.43617         6.41886
LJ          -2.38015        -4.39014          5.4052
LJ          -4.57447        -2.39254        -5.70581
LJ          -1.96112          -4.117        -5.41338
LJ          -1.33846         5.21755         6.36806
LJ           4.63765       -0.955504         4.31335
LJ           2.46546        0.992847        -2.04251
LJ          -1.71977         5.69881         -5.5889
LJ          -5.29861        -3.80636           -6.16
LJ         -0.846263        0.836245         1.34986
