108
#Comment!
LJ          -1.08699         6.19794         6.20934
LJ          -1.69611         5.21532        -5.12857
LJ          -3.82096       -0.991053        -2.04719
LJ          -3.24759         4.83648        -4.47456
LJ           4.07435         3.92641        -2.54725
LJ          -3.54762        -0.10448         5.94318
LJ           5.99313         4.45636        0.767246
LJ            -3.181         1.22092         5.99899
LJ         -0.374263        -5.07229        -5.03422
LJ          0.954863        -1.42799         5.84718
LJ         -0.759167        -2.84525         -4.1188
LJ           3.64092        -6.27983         3.75264
LJ          -4.83348         5.41093         3.79323
LJ           6.38326         4.61176         5.98291
LJ          -5.31921         2.24054        -5.16865
LJ            3.8485       -0.515841        -1.46703
LJ           3.73719        -1.89289           4.331
LJ           2.60623        -5.29006         -3.8279
LJ           5.40907        -1.63582        0.361884
LJ          -2.81008        0.233404        -4.15026
LJ         -0.485454        -3.10884        -3.05227
LJ           1.15193         6.30104         -5.3809
LJ           1.21013        -6.41746         1.53241
LJ          -2.21962         -1.2614        -2.79678
LJ           1.61457          3.4963       -0.790114
LJ          0.469352        -2.46008         3.91405
LJ           0.38009        -1.84422         4.91812
LJ          -2.36752         4.06821        -4.00575
LJ         -0.618608        -2.49248        -1.87913
LJ           6.24567         -2.2594       -0.198364
LJ          -2.17632       -0.436773        -1.74399
LJ           4.75445       -0.584399        0.743064
LJ          0.530663        -3.03115         5.04128
LJ          -4.11991        -3.78927         5.57577
LJ           4.26647        -2.47404        -3.60061
LJ           5.48479         3.98098         5.69531
LJ          -1.39034        -2.63189        -2.77698
LJ           3.36417         2.43587         4.92171
LJ            5.2122        0.711859        0.725141
LJ           5.41174        -2.91587        -2.36632
LJ           6.12974       -0.875812         5.27182
LJ           5.30338        -5.46256         4.00228
LJ           2.74089         3.67433       -0.724624
LJ           4.76787        -1.48656          4.2551
LJ          0.542444         6.12929        -4.08097
LJ           2.14267         3.39613         4.63911
LJ         0.0425827        -5.94212        -6.08059
LJ           3.17551         3.73014         2.03222
LJ          -6.43762         5.47621        0.585323
LJ          -1.63934        -6.27201         1.53564
LJ          -5.44647        -2.82605         5.48584
LJ           1.48663         5.76465        -3.59676
LJ          -4.63963         2.09532        0.911106
LJ          -3.85886        -1.56493         -3.1168
LJ          0.287442        -4.83663        -5.91024
LJ           6.04964       -0.591731         1.48936
LJ          0.414147         6.06438         6.22961
LJ           3.97544        0.028495        -3.07257
LJ           2.30538         3.17706        -1.93933
LJ           5.32941        -6.22393         2.53942
LJ          0.344624         1.00395        -1.38352
LJ           1.94948        -2.34115        -1.99206
LJ          0.088114        -6.38834        -5.04215
LJ          -5.46762         2.74543        0.655344
LJ           2.58052        -1.68652         1.10591
LJ          0.181434         5.90479        -2.74153
LJ          -4.18276          -2.343        -3.76938
LJ          -3.30119       -0.771507          4.2921
LJ          -4.82546        -2.00114         1.28386
LJ            3.5488         6.12849         2.73452
LJ           3.85741        -5.33459         5.06015
LJ          -5.76055        -3.65743         4.73322
LJ          -4.49638        0.913647        -5.96233
LJ          -3.88259         2.85845        0.960637
LJ           5.48624        -2.80224        0.189932
LJ           -3.3969        -3.44638        0.474104
LJ          -2.34643         3.72523         5.41442
LJ           -2.8539         1.09202          4.1418
LJ          -3.41083         1.10175        -3.51294
LJ           2.84062         4.05915        -2.81343
LJ          -1.78397       -0.941407        -3.79222
LJ          -1.90351         2.04451         4.21434
LJ           3.47679        -3.64548         1.50584
LJ            3.5744         4.03027        -1.60695
LJ           4.84106       -0.988424        -1.32825
LJ          0.427558        -4.36777        -4.96987
LJ           5.97573        0.429107         -2.5292
LJ          -6.29962         3.27071         6.22852
LJ          -1.14422         1.23996         3.74444
LJ          -5.79609         1.02915        -4.64522
LJ          0.465161       -0.195241         5.84246
LJ          -3.09142          2.9808        -4.26078
LJ          0.436341        -5.74667        -4.23689
LJ           6.20244         5.94274         1.68478
LJ         -0.201807         5.55121          3.2602
LJ           6.38157         3.58096         5.32036
LJ           3.33485       -0.762242        -2.45108
LJ           2.70254        -5.53077         4.91058
LJ          0.889072         5.22354         -5.8279
LJ         -0.578357         1.99209         2.59088
LJ          -3.36794        0.680427        -6.02209
LJ          -1.84758       0.0229249         3.50701
LJ          0.512779         4.63079         3.75953
LJ           2.89844        -1.65977        -1.60503
LJ         -0.269187        -2.27069       -0.972717
LJ           1.65729         5.60128          6.0287
LJ           5.87252        -1.91233         1.46699
LJ           2.49153       -0.635535         -1.2823
