108
#Comment!
LJ          -2.64505         -5.2366        -4.69694
LJ          -2.03775        -3.77061         5.97191
LJ          -1.90508        -3.00518        -3.41193
LJ          -2.89124        -2.68823        -3.30612
LJ          -3.43728        -2.20014        -2.53429
LJ          -3.77687        -3.09889        -3.65419
LJ          0.211532         2.72078        -4.29326
LJ          -5.96462        -2.76756         5.57677
LJ           -3.6242        -4.71334         5.70546
LJ          -2.54326        -1.79404        -5.25183
LJ          -3.06449        -5.82579         6.45185
LJ           2.25428        -5.93349         -1.0844
LJ           4.84637         5.98268         1.27154
LJ          -2.78727        -1.31024        -2.49628
LJ         -0.892155        -4.17039         5.06366
LJ           6.36682         4.30738        -3.98889
LJ          -3.42859        -1.41308        -4.35326
LJ          -2.45982          3.0959         -3.2419
LJ          -3.87005        -2.01798        -3.50814
LJ           -4.7795         -3.8631        -3.98123
LJ          -2.52082        -3.00935        -5.35139
LJ          -3.33275         5.19424        -4.53142
LJ          -2.26504         6.37162        -6.03872
LJ           4.72425         4.64493         1.33216
LJ            -2.773         3.89608        -2.44463
LJ           1.58322        0.378758       -0.698039
LJ         -0.346526        -3.76936        -5.11732
LJ          -1.55568        -5.14396         5.87433
LJ         0.0345015         5.36065         5.71747
LJ          -1.84873        -3.54305        -2.62696
LJ          -3.05179         -3.5138        -4.37564
LJ          -4.75644         6.36397         0.13519
LJ          -3.13706       -0.667826        -3.73077
LJ          -2.67196        -3.79137        -6.15775
LJ          -3.44795        -5.06025        -3.40878
LJ           4.15955        -5.13376           4.501
LJ          0.397084         -1.2598        -4.82469
LJ           -3.8937        -5.48072        -5.57291
LJ          -1.57256        -1.92124        -5.75031
LJ          -2.23877        -6.43671         2.61903
LJ           4.13024         5.79076        -1.55233
LJ          -4.62463        -5.33904         5.67871
LJ           2.57569        -4.29322       -0.914606
LJ          -4.15788         1.73954         3.29647
LJ          -1.84302         4.52764        -5.51176
LJ           5.15478         1.63968        0.351405
LJ          -2.64316        -4.98303         5.96885
LJ         -0.662313        -2.71591         2.40682
LJ          -3.95909       -0.206571        -4.34171
LJ           5.30808       -0.576928        -3.66207
LJ           3.27133        -1.13531         1.32361
LJ           5.35102          4.8686        -3.68347
LJ           4.73247         4.95118        -1.16125
LJ          -3.86555        -1.06339        -2.73094
LJ          -3.82389        -4.09141        -6.14829
LJ            5.9325        -3.03401        -6.25063
LJ          -1.66557        -4.01971         2.52387
LJ          -1.71307        -1.22368         -4.8297
LJ           5.81137          5.9098         1.59635
LJ          -5.05211         -4.3484         6.45776
LJ          -2.38531        -6.34866         5.86235
LJ           1.97666         5.59527        -1.45809
LJ          -2.84174        -4.83418        -5.69125
LJ           5.22078         4.78672        0.271123
LJ           5.91973        -1.91125        -5.84842
LJ            1.6995         5.73535        -3.73872
LJ          -5.50553         5.60843        0.219941
LJ          0.998256         5.53184         5.81842
LJ          -2.06077        -2.39448        -2.45344
LJ           4.86111       -0.841632        -5.23195
LJ            1.5924         6.00192         4.26003
LJ          -6.17657         -3.6919         -6.2665
LJ          -4.29603        -3.78823         -2.5447
LJ            3.4569         2.65461        -1.46777
LJ           2.22502          5.9778        0.114572
LJ           -3.5713        -2.55161        -5.46264
LJ          -2.80455        -2.28155        -4.33679
LJ         -0.870329         6.08738       -0.184345
LJ          -3.49147        -4.36404        -4.91198
LJ           5.70581         4.25681        -2.77622
LJ          -1.22538       -0.521315        -5.54097
LJ          -2.45268        -1.63578        -3.48902
LJ            3.1966        -6.32939        -2.55504
LJ           -1.0596        -4.20858         6.17788
LJ          -1.86628        -5.18812        -3.65841
LJ          0.282958         6.24248         3.02547
LJ           4.32269         5.17034       -0.128076
LJ         -0.233142         5.99078        -6.36116
LJ          -4.52437       -0.864332        -3.68129
LJ          -1.88857       -0.939967        -1.99475
LJ           1.48065        -6.09061        -0.20981
LJ           1.06472       -0.780042        -1.62834
LJ          -5.17782       -0.535051        -2.92929
LJ          -5.53508        -4.65247         5.51525
LJ          -1.94269        -5.42512        -5.94401
LJ           1.80793         6.13581        -4.78258
LJ          -1.74448        -2.30547        -4.78952
LJ          -2.60584        -2.59002        -6.38922
LJ         -0.371372        -6.03823         5.74333
LJ          -2.19068        -4.61138         5.11683
LJ          -4.07448        -3.30644        -4.69013
LJ          -1.58852        -3.81211        -5.64596
LJ          -1.38283         6.30883         6.10885
LJ           5.28571        -2.19584         4.40651
LJ           1.97492        0.819094        -1.70406
LJ          -1.19154         5.22118         -6.4418
LJ          -4.98019         -4.0017         -5.3347
LJ         -0.370922         1.64481        0.368902
