108
#Comment!
LJ          -3.66213        -5.41004        -5.61079
LJ          -3.68432        -4.20439        -5.99954
LJ           5.79205        -1.42621         0.57678
LJ          -3.26338        -2.50788        -3.33443
LJ          -2.33949        -4.63407        -2.93781
LJ          -2.54137        -3.99869        -4.15024
LJ          -1.95472         2.18662         4.32292
LJ          -4.77613        -2.81006         5.63166
LJ           -3.8724        -2.96151        -5.64209
LJ           1.21175        -1.96066        -3.11452
LJ          -4.39539         6.18963        -5.92016
LJ          0.816677         3.36611         -1.5126
LJ           4.77389         6.17127         1.94302
LJ          -1.50618        -4.41842        -4.61455
LJ          -1.95024        -5.70789         6.09098
LJ          -5.36333         6.10137        -2.59511
LJ          -3.53966        -3.79099        -4.73529
LJ         -0.413024         5.10142         1.72697
LJ          -3.81233        -4.30544        -3.69104
LJ         -0.967667        -5.84781         6.37715
LJ          -2.58588        -5.15298        -6.11986
LJ          -5.82655        -2.30329         4.91991
LJ          -3.24949        -6.27866        -3.50479
LJ           5.62005         5.64342         1.53688
LJ          -1.39522         -5.0566         2.54483
LJ         0.0781973         2.47702        -1.06202
LJ          -2.82155         -3.0482         5.41717
LJ           -1.5167        -3.38937         6.22446
LJ          -1.57566         5.64156         1.29554
LJ          0.845782        0.303007         1.66645
LJ         -0.190031        -5.10729        -6.17813
LJ           0.85971         5.71844         1.71651
LJ          -1.73223        -1.88453        -4.15893
LJ           -4.6836         -2.2014        -5.22437
LJ           1.39136        -0.72533         1.89024
LJ         -0.807121         1.80607        -4.24851
LJ          -4.61141        -4.08245         5.40364
LJ          -5.46246         5.76343         -4.5172
LJ          -3.20945         -2.5029         6.39628
LJ          -2.32063        -4.12064         6.20493
LJ          0.465369         2.61991        -2.36785
LJ          -3.48745        -5.92459        -4.52578
LJ          -4.09427        -6.44977        -3.03207
LJ          -3.63317        -1.33043         3.30194
LJ          -4.45756         -5.5841        -4.02298
LJ           6.05608         2.30517        -2.38752
LJ          -3.55684        -3.50337         6.04993
LJ          -1.02954        -3.01266         4.60079
LJ           5.55224        -2.58388        -2.52403
LJ          -2.36882        -2.46896         1.71935
LJ           3.09456         6.23535         -5.9352
LJ          -4.93176        -5.55767        -2.68321
LJ         -0.415933         3.18103        -1.69354
LJ          -4.02142        -2.01194        -4.03424
LJ          -3.63638        -5.99436         6.14974
LJ          -4.70005        -5.59206         6.12351
LJ          -5.38461         2.45842        -1.70272
LJ           -5.5382        -3.85508         -3.7089
LJ           4.80247         -4.4223        -1.74934
LJ          -2.50215        -5.32183          -4.539
LJ          -1.44583        -6.33506         2.06526
LJ           2.05319         4.24857        -1.44563
LJ          -3.26006        -5.19026        -3.54689
LJ           2.09372         4.58215       -0.384897
LJ           2.76753          -1.379         0.37965
LJ         -0.902272        -6.27781        0.412151
LJ           4.97019         6.09609        0.785186
LJ           5.24406        -4.34697       -0.644302
LJ          -1.37442        -4.21327        -5.65932
LJ          -4.56831         4.30748         -5.7089
LJ          0.760746         4.03424         -4.9654
LJ          -6.26379        -4.99005          3.9317
LJ          -1.34402        -5.03586        -3.24365
LJ          -0.23816         1.95805        -2.13474
LJ           3.21356         2.40453        -2.66774
LJ          -2.75432        -4.12509         -5.5403
LJ          -2.57985        -3.21717        -6.07919
LJ          -2.43373         1.30905         5.44086
LJ          -4.62313         6.35925        -1.14678
LJ          -4.66813          -5.856        -5.40073
LJ          0.333879         5.06327        -2.88156
LJ           5.03994        -4.08506         -2.7869
LJ           6.42505        -4.54497          -2.333
LJ          -3.30177        -4.67242          5.7893
LJ         -0.953815        -6.29353         -5.5658
LJ            3.7147        -1.61141         3.57524
LJ           2.07208         3.39889        0.334097
LJ         -0.877999        -2.15179         5.54285
LJ          -1.34352        -3.31017        -4.96195
LJ          -2.99792         -2.9412        -4.32823
LJ         -0.181457         5.97197         2.99906
LJ           1.14559        -1.62361        -1.08491
LJ           6.35811        -1.62544         2.19952
LJ          -5.01066        -4.57023        -6.19735
LJ           -1.1708        -4.74454         6.26408
LJ         -0.769241        -5.80818         1.58552
LJ          -1.16436        -2.56023        -6.03702
LJ          -2.57744        -2.30073        -5.39884
LJ          -2.06437        -4.81036         5.38036
LJ           0.55114        -5.95325         1.82315
LJ          -3.37687        -4.83879        -4.58096
LJ          -2.07072        -2.33024         5.90798
LJ          -1.62756        -5.37879        -5.23789
LJ          -3.74655        -1.86129        -5.61591
LJ           -1.6872          6.4331        -1.18103
LJ          -4.68573         1.45346         3.41807
LJ          -4.51867        -1.32539        0.377633
LJ          0.537566         1.28694        -1.52803
