108
#Comment!
LJ          -2.00132         6.14808        -5.52212
LJ          -2.91386        -3.69197        -5.99217
LJ          -2.67837        -2.89066         -4.3882
LJ          -2.53265        -2.36237        -3.35492
LJ          0.072355          -1.722        -3.08445
LJ          -3.57343        -1.96004        -4.79974
LJ           3.87264         2.65374       -0.868858
LJ          -4.81135        -1.67418        -5.56726
LJ          -2.68395        -3.63664         5.01989
LJ          -4.63323        0.319233          -3.372
LJ         -0.463424          5.2883         6.23717
LJ          0.864159        -5.25658       -0.859523
LJ            4.5248         5.66337         2.34704
LJ          -2.11568        -1.19981        -2.62516
LJ          -1.58836        -3.71306        -4.19273
LJ           5.77484         2.47061        -1.93089
LJ          -1.78687        -2.03679        -1.84063
LJ          -4.52265        0.627732        -5.74267
LJ          -4.48761        -0.89525        -3.29352
LJ         -0.264186         1.54239        -3.60166
LJ            -4.576        -4.10069        -4.60868
LJ          -1.02868         4.82977        -3.20008
LJ          -1.40494          4.3226         2.91477
LJ            4.1111        -5.89149         0.88633
LJ          -3.55868        0.907389        -5.76829
LJ           4.97956         3.19721        -1.10366
LJ          -1.70814        -2.76795        -4.74592
LJ         0.0153113         6.11105        -3.52829
LJ          -1.05413         6.33838        -3.23858
LJ          -5.64219       -0.922212        -3.16065
LJ          -4.42691        -1.41988         6.02082
LJ          -3.78997        -3.22106        -2.60445
LJ          -1.30122         -1.5531        -3.61159
LJ          -2.25796        -2.19718         5.77667
LJ          -2.45963         4.89017         6.45456
LJ          -6.26745         3.04161       -0.341457
LJ          -1.96986        -1.57012        -4.39671
LJ          -1.63584         4.55606          4.3191
LJ          -3.47655        -1.15684        -2.98737
LJ          -3.08557        0.654104        -1.79153
LJ           5.05232        -5.04591         1.75535
LJ          -5.63246       -0.844504        -5.76403
LJ           1.03924         1.32491     -0.00929801
LJ          -4.57086          4.1964         3.27295
LJ          0.801983          4.9252        -5.59217
LJ           3.90522         1.41557         2.17781
LJ          -1.29028        -6.05267        -5.91061
LJ         -0.230219         4.63323         4.31478
LJ           -4.3854       -0.749841          -4.884
LJ           2.38008         2.01823         2.96135
LJ           4.93087          1.3715        -2.06252
LJ           4.85601         3.72928        -2.44736
LJ           5.17669         4.06764        0.729585
LJ          -4.24745        -1.02534        -2.17916
LJ          -2.58538        -3.87603        -4.72543
LJ          -5.02825        -1.68256        -4.32882
LJ           1.06528        -5.30501         4.47641
LJ          -3.47468        -0.15055        -3.39989
LJ          -1.36508        0.968744        -1.94185
LJ          -3.76418        -2.97823         5.59221
LJ          -0.45165        -6.10705         6.34153
LJ           3.78298         -5.1225       -0.451938
LJ         -0.738151          5.9098        -4.88208
LJ           5.38654         5.24778        0.978836
LJ           5.17977        -1.26544         6.27766
LJ           1.12423        -5.27913        0.384209
LJ          -1.34536         2.12015        -1.22436
LJ           6.44254         2.85525         1.61025
LJ          -3.60223       -0.332347        -5.77864
LJ           4.02448        -3.70933        -3.35394
LJ            3.3772         6.45035          2.9608
LJ          -5.18206        -4.70486        0.640099
LJ         -0.691355        0.298258        -4.42526
LJ           5.07975        -6.30537       -0.993963
LJ           4.32046        -6.12594         1.92401
LJ          -3.54325        -3.35489        -4.58179
LJ          -5.20045       -0.276662        -4.13139
LJ          -1.21064        -3.87901        0.285734
LJ           -3.7934        -4.30999        -6.20022
LJ           5.30656         2.42759        -2.90882
LJ          -2.57321        0.512179        -3.11725
LJ          -1.88387        0.181723        -2.30909
LJ           -5.0848        -6.44118      -0.0533926
LJ          -1.84831          6.3583         6.33483
LJ          -4.18647         0.94265        -4.78026
LJ           2.45361        -5.82173       -0.519679
LJ           4.27883        -4.82811        0.368539
LJ          -2.89269        -2.99603         6.02656
LJ          -2.96078       -0.447334         -2.3955
LJ          -2.56863        -0.78695        -3.60409
LJ         -0.822801        -1.87186        -2.49017
LJ         -0.116886        -1.22126        -4.12795
LJ           -3.2114        -3.20869        -3.58539
LJ           5.82051       -0.901711        -5.46078
LJ          -1.56722         5.42835        -4.31866
LJ          0.859794         3.32535        -2.07608
LJ           -3.7118        -2.25877        -3.62442
LJ          -4.80379        -3.38669         5.20856
LJ          -1.66208         5.35638         5.76532
LJ          -1.44035        -6.31045        -4.18432
LJ          -2.18897        -2.03829        -5.52448
LJ          -3.53977        -4.24634        -3.69139
LJ          -1.46242         5.14222        -5.43454
LJ          0.605928        0.332447         3.18061
LJ           2.18415         1.25324        -5.92837
LJ          -0.94969         5.88371        -5.95172
LJ          -5.76777        -1.76278        -5.12205
LJ          -2.32218        -1.70355         4.40055
