108
#Comment!
LJ          -1.89115        -4.34965        -4.52316
LJ          -1.20733        -4.13652        -5.18493
LJ          -3.99511         3.02396        -4.90339
LJ           -4.0242        -4.00334        -3.61504
LJ          -1.57918        -6.24745         -3.5578
LJ          -1.21269        -2.40392         -4.2214
LJ          0.351668        -3.97309         3.91005
LJ           5.47334        -2.84922         5.35455
LJ           6.25293        -1.98318        -5.41704
LJ           4.62427        -1.44217         2.85892
LJ          -4.47292         4.26469        -4.06603
LJ          -2.01936         1.89199        -3.28016
LJ          -6.37835         5.74459         3.21575
LJ          0.129521        -3.39331        -3.61377
LJ          -1.72086        -5.94911        -4.81065
LJ          -1.37355        -5.26426        -2.74885
LJ          0.792416         1.84908         5.23154
LJ           2.30642         5.66923         4.82161
LJ          -1.90101        -5.22278        -3.97277
LJ          -3.45378        -3.57754        -5.97045
LJ         -0.771314        -4.26522        -4.15363
LJ          -6.17572        -2.87626         4.78406
LJ         -0.291887        -5.10408        -4.66275
LJ           1.52568         4.28198       -0.758662
LJ          -1.76181          5.6778        0.615777
LJ          0.261178      0.00478306        -2.85758
LJ          -3.83823        -5.05058        -4.06795
LJ          -2.45681        -4.67384         5.94241
LJ           1.98445         5.38732         5.93603
LJ          -6.15803         5.33591        -5.82168
LJ          -0.18354        -3.02681         2.93336
LJ         -0.604055         -2.0232        -3.03939
LJ           -3.4703         3.76523         3.86042
LJ          -1.69679        -2.02245        -5.05378
LJ           4.75499         1.35895          6.2235
LJ          -3.62517        -3.33123          2.7807
LJ          -3.75596         6.20151        -5.59593
LJ           4.29516        -5.39966       -0.849691
LJ          -2.97102        -3.73314        -4.60915
LJ          -2.25803        -3.33968        -6.07654
LJ         -0.784034       -0.137175        -3.07836
LJ           -4.1871         -5.4818        -5.98227
LJ          -2.41534        -4.91835         4.53797
LJ          -5.66707        -5.44042         5.75543
LJ          -2.69585        -4.40151        -3.81809
LJ           5.90283         2.62751        -5.51702
LJ          -3.13438         -2.7313        -5.05267
LJ          -1.51811        -4.02135         -6.4427
LJ           1.69422       -0.170327         4.31378
LJ           1.59882        -1.11714         3.75833
LJ           1.98462         0.42229        0.114546
LJ           -4.3212        -4.24819        -5.07794
LJ         -0.590901        0.400935        -2.19402
LJ          -2.22437         3.28652        0.810746
LJ          -2.93392        -5.44644          6.2943
LJ           4.57245          5.1193        0.630466
LJ           3.69919          -1.138        -1.39438
LJ          -3.00439        -5.36911        -3.25338
LJ         -0.352624         4.93042        -1.00388
LJ          -2.22759         -3.9735         2.60611
LJ          0.075684          2.5135         4.19564
LJ          -3.56397       -0.169066        -4.24627
LJ          -2.06782        -5.53766        -5.85938
LJ          -0.22168         2.18647        -3.78937
LJ           1.38121         1.44237        -6.07533
LJ         -0.226349        -2.94392        -6.23006
LJ            2.1665         5.52863         -2.3664
LJ           5.28352        -2.94365         2.61185
LJ          -2.22171        -4.40815        -5.56926
LJ          -2.65978        -5.41164        -4.70422
LJ          -2.80889        0.471585        -3.85024
LJ           5.36036        -0.71452         5.93558
LJ         -0.329593        -1.47453        -4.57766
LJ           -1.5051       -0.550882        -1.14576
LJ          -1.92132       -0.553043        -2.94256
LJ           1.16157        -1.96816         5.71699
LJ          -3.10105         -2.5694         6.35451
LJ           4.23292         -1.8965         5.92255
LJ           2.25801        0.754004        -2.71029
LJ          -3.10244         -5.0393        -5.61602
LJ           4.21663       -0.581265        -4.82597
LJ          0.413749         3.96953        -1.16922
LJ          -1.44935        -4.29435        -3.20879
LJ          -5.71834         5.92584         6.36768
LJ           2.26463        -5.56503         5.11726
LJ          0.778511         5.72606         5.98959
LJ         -0.244981       -0.804111        -2.07943
LJ          -3.01343        -3.54008         5.90638
LJ          0.361123        -5.00064        -5.65042
LJ        -0.0589229        -4.03764        -5.51038
LJ           3.09346         6.33397         3.76139
LJ           3.71143         -1.6058        -4.13959
LJ           4.61915       -0.867602         1.12061
LJ          -1.95318        -3.09671        -5.08845
LJ          -3.28061        -6.06775         5.21772
LJ         -0.855177         -1.5468        -1.25714
LJ          -1.12851        -5.38712         5.50042
LJ         -0.152188        -3.25071        -4.87356
LJ          -2.24192        -5.92319         5.59569
LJ         -0.912123        -3.07328         -3.2489
LJ         -0.737114        -4.03413        -2.47528
LJ           5.26128        -1.13018         3.70002
LJ          -2.16562        -3.50537        -3.90348
LJ          -1.18061        -2.98911        -5.91093
LJ          0.331671        -4.29526         -4.4858
LJ           -5.3234         5.80887        -5.24639
LJ          -3.96105        -4.95487        -2.91943
LJ         -0.860669       -0.593062        -0.25751
