108
#Comment!
LJ          -1.50786         5.93349        -4.46763
LJ          -2.98183         -4.2986        -6.04241
LJ           -1.8039        -2.81169        -5.81459
LJ          -1.45421        -1.03845        -3.38747
LJ        -0.0725942        -2.70579        -3.36987
LJ          -3.89739       -0.166003        -5.54129
LJ           4.60052         2.35505        -2.46036
LJ          -4.66826        -1.53992         -5.8416
LJ          -4.17526        -3.18886        -5.06494
LJ          -4.32305         1.53841        -4.90394
LJ         -0.147934          3.1659        -5.81015
LJ           1.92049        -5.55199          1.4822
LJ           4.96948        -6.31566         3.98631
LJ          -2.71275       -0.193626        -2.02632
LJ          -2.09126         -3.1415        -4.64984
LJ           4.91665         1.91359       -0.965583
LJ           -1.3108       -0.697039        -1.77903
LJ          -5.93884          3.4167        -6.12797
LJ          -5.76516        -2.38655        -2.14326
LJ          -3.94512         0.32091        -4.55559
LJ            -3.307        -2.01749         6.07499
LJ           -1.6414         5.31369        -3.29916
LJ          0.985188         5.09355         5.05734
LJ           3.28721        -5.14223         1.21341
LJ         -0.365581        0.481221          5.2518
LJ           5.72231          3.3054       0.0504558
LJ          -2.38598         -1.6909        -3.67325
LJ          -2.05097        -5.24937        -3.68162
LJ          -1.54547        -3.81988        -4.01072
LJ           6.42135        -1.02392        -2.95189
LJ          -4.92023       -0.649062        -5.15254
LJ          -3.78809         -1.7824        -1.26229
LJ           -2.8703        0.424396        -5.07444
LJ          -3.02999        -4.11092          5.8325
LJ          -1.63493          4.1472        -6.36102
LJ          -3.32913          3.5384        -3.83302
LJ          -1.22054        -1.30738        -4.94168
LJ        -0.0398283         4.62275         3.64463
LJ          -4.09196        -2.17001        -2.34456
LJ          -4.75158        -1.60361        -1.65804
LJ            3.3481        -5.24282          3.1148
LJ            -4.541        -2.51161        -6.01612
LJ          0.983443         4.04662        -1.18684
LJ          -4.71586         5.96932         3.14021
LJ         -0.558342          5.6428        -3.98523
LJ           1.44786         2.81826         3.70597
LJ          0.118086         4.60434        -4.59583
LJ         -0.613655         3.51234          6.0869
LJ          -3.62881        -1.69772        -4.96216
LJ           2.72889         4.16484         2.13091
LJ           5.59028       -0.224286        0.272214
LJ          -6.44248         2.41258       -0.410763
LJ           6.05545         5.03619         1.17187
LJ          -4.29032       -0.957107        -2.48713
LJ          -1.31421        -5.61756        -4.44023
LJ          -4.00686       -0.216828        -3.57543
LJ           1.41804         6.33885         5.38856
LJ          -4.87042       0.0792536        -4.09276
LJ          -2.10263        -0.74952         6.37905
LJ           -3.8802        -3.76299        -6.05204
LJ         -0.783162         4.12755        -5.79506
LJ           6.37838        -5.51901        -3.12474
LJ          -1.13859         4.74647         -4.1787
LJ           5.99506          3.9393        0.916048
LJ          -5.99105        0.354747        -3.96037
LJ          0.864539        -3.53806        -1.15959
LJ        -0.0880601        -3.62977        -4.09038
LJ          -4.17595         2.00109        -4.04104
LJ           6.06126       -0.894771         6.16576
LJ           3.53543        -4.99087        -1.35126
LJ           5.65623         5.64008         3.92664
LJ          -4.88702        -4.87593        -4.09403
LJ          -2.34161        0.387008        -2.83926
LJ           5.83389         4.38432       -0.127871
LJ           4.55971        -6.08481         2.37878
LJ          -2.32353        -4.28405        -4.97302
LJ           -5.4987       0.0214728        -3.05383
LJ         -0.942479        -1.82776         2.83505
LJ          -3.41533        -4.52378        -4.75168
LJ           4.89863          3.4058        -2.57824
LJ           1.48317         4.45357         -5.1048
LJ          -3.11824         1.16491          -3.809
LJ          -2.19629        -5.51494         3.35045
LJ          -1.09058         6.36804        -3.34692
LJ           5.93442        0.294411        -3.37087
LJ           2.80099        -3.97592        -1.58787
LJ           3.68648         -5.6411         2.08394
LJ          -3.52731        -1.47773        -3.54549
LJ          -3.11961        -1.17634        -2.57726
LJ          -2.74683       -0.355567        -3.55668
LJ          -2.64729        -3.45083        -3.60756
LJ           -4.3393        -1.09714        -4.36287
LJ          -2.83585        -2.46887         -4.5784
LJ          -4.49257        -1.82823         6.01842
LJ          -1.55784         4.31113        -4.98566
LJ           1.16039          1.7302         1.28558
LJ          -4.59452        -1.40547        -3.39144
LJ           5.91093        -4.59292         2.39493
LJ         0.0896165         5.63873         4.34315
LJ         -0.689769         4.97065        -5.27555
LJ          -3.31969       -0.720029        -4.55835
LJ          -1.75941        -2.08126        -2.82215
LJ         -0.821761         4.78535         5.65912
LJ          -3.56022        0.196555       -0.672971
LJ           1.79652        0.974362         3.95733
LJ          -1.79147         5.24021        -5.60774
LJ          -5.55402        -1.26373        -2.73321
LJ          -4.02656        -2.99314        0.805947
