108
#Comment!
LJ          -1.34339         6.20028        -6.26767
LJ          -1.49095         5.09633        -5.02514
LJ          -3.81631       -0.850155        -1.84857
LJ          -3.31965         4.72805        -4.56972
LJ           4.15782         3.88077        -2.58627
LJ          -3.46833       -0.142456         5.81055
LJ           5.90416         4.50493        0.719389
LJ          -2.79969         1.85762         6.21991
LJ         -0.208534        -5.27213        -5.30555
LJ          0.637923        -1.22725         5.84325
LJ         -0.717662        -3.14145        -4.25033
LJ           3.57693        -6.22498         3.68676
LJ          -4.90053         5.38326         3.81279
LJ          -6.42126         4.28614         5.95614
LJ          -5.25071         2.09294        -5.53367
LJ           3.99901       -0.531312        -1.58076
LJ           3.56633        -1.91891         4.37651
LJ           2.41752        -5.37331         -3.8921
LJ           5.20002        -1.67552       0.0704201
LJ           -3.3362        0.317635        -3.95307
LJ         -0.634386        -2.98013        -2.98516
LJ           1.31548         6.31766        -4.92421
LJ           1.19015        -6.45081          1.5955
LJ          -2.32784        -1.51697        -2.86718
LJ           1.66394         3.16434       -0.744246
LJ        -0.0468716        -2.68201          4.2612
LJ           0.49621        -1.85043         4.81358
LJ          -2.09492         4.32152        -4.18418
LJ         -0.740077        -2.38103        -2.11183
LJ          -6.43244        -1.59474       -0.133957
LJ          -2.19099       -0.742994        -2.20484
LJ           4.45157       -0.605879        0.531123
LJ          0.656223        -2.99116         5.20253
LJ          -4.23652        -3.75292          5.5139
LJ           4.32717          -2.427        -3.27421
LJ           5.41821         3.91952         5.82719
LJ          -1.64113        -2.31265        -2.98659
LJ           3.13058         2.68764         4.87712
LJ            5.2662        0.690776        0.620409
LJ           5.18883        -2.75284        -2.44882
LJ           6.09558       -0.970057         5.19226
LJ           5.19825        -5.57446          3.9942
LJ            2.5572         3.57249        -1.15121
LJ           4.84609        -1.45887         4.16419
LJ          0.613987         6.07012        -4.08778
LJ            2.3343         3.29115         4.70733
LJ         -0.327575        -5.95269        -6.23138
LJ           3.05959         4.07368         2.20326
LJ          -6.05993         5.92006         1.07718
LJ          -1.59099        -6.29674         1.57355
LJ          -5.46471        -2.76531         5.47177
LJ           1.28098         6.11091        -2.80933
LJ          -4.70199         2.03351        0.908787
LJ          -3.36218        -1.41884        -3.14844
LJ          0.313023        -4.87162        -6.36977
LJ           5.63839        -1.09537         1.22568
LJ           0.52896        -6.43865         5.93131
LJ           3.84089       0.0547495        -2.71087
LJ           1.40055         2.93503        -1.84995
LJ           5.50068        -6.28302         2.40128
LJ          0.172367         1.11512        -1.37746
LJ           1.38527        -2.65015        -1.47156
LJ          0.108582        -6.34366        -5.12185
LJ          -5.40616          2.8364        0.744833
LJ           2.96112        -1.55852        0.633345
LJ          0.323078         5.26175        -2.77363
LJ          -4.23447        -2.40297        -3.85852
LJ          -3.33927       -0.404859         4.44309
LJ          -4.96375        -2.22743         1.44386
LJ           3.36738           6.098         2.88231
LJ           3.96565        -5.36913         4.94804
LJ          -5.67595        -3.66264         4.77363
LJ          -4.30611         1.00074        -5.79098
LJ          -4.04933         2.89508        0.940299
LJ           5.27684        -2.54331        0.751264
LJ          -3.18192        -3.61299         0.15028
LJ          -2.25828         3.61298          5.3569
LJ          -2.76871        0.762774          4.2024
LJ          -3.28074         1.18026        -3.04676
LJ           3.10364         4.47452        -2.72537
LJ          -1.69092        -1.39103        -3.74226
LJ             -2.02         1.96047          4.1716
LJ           3.78867        -3.70512         1.31393
LJ            3.7234         4.06793        -1.54887
LJ           4.90717        -1.41699        -1.37754
LJ          0.760121        -4.82194        -5.35097
LJ           6.41306        0.668816        -2.48997
LJ          -6.17874         3.33719        -6.32632
LJ          -1.20845         1.25286         3.94768
LJ          -5.59069         1.08584        -4.66315
LJ          0.633207       -0.188605         6.06512
LJ           -3.2975         2.85332        -4.30792
LJ           0.77157        -5.56253        -4.49857
LJ            6.1455         5.93581         1.92366
LJ        -0.0955089         5.46967         3.29937
LJ           6.35847         3.78109         4.96492
LJ           3.45545       -0.934041        -2.52768
LJ           3.01897        -5.72226         4.61577
LJ          0.353499           5.686        -5.62511
LJ         -0.593318         2.06858         2.57699
LJ          -3.49299        0.299215        -6.10286
LJ          -2.04632        0.179854         3.62237
LJ          0.485384         4.70297         3.75959
LJ           3.27231         -1.7924         -1.9234
LJ         -0.115753        -2.09546        -0.55837
LJ           1.64962         5.79251         6.20387
LJ           6.21931        -1.99331         1.08695
LJ            2.6448       -0.503577        -1.70193
