108
#Comment!
LJ          -1.37616        -6.42597        -5.63767
LJ         -0.079075        -6.07043        -3.98352
LJ          -1.88938       -0.668044        -5.27537
LJ          -2.25368         1.24894        -4.33019
LJ           1.37896         5.71681        -3.31297
LJ          -2.57239       -0.924703         5.55437
LJ           4.17261         4.34726        -2.06987
LJ          -2.61567        0.121499         6.01438
LJ          -2.03681        -2.99514        -5.62915
LJ          -2.24381        -1.60666         6.25368
LJ          -1.04661       -0.984416        -3.45369
LJ           2.96931        -6.17047         2.47131
LJ          -6.05577        -5.90163         3.61349
LJ          -4.31712         2.96393        -2.15841
LJ          -2.38144         -5.3887        -1.47074
LJ          -5.15354       -0.332922        0.382877
LJ           1.68193        -1.33375        -5.75575
LJ           4.39243          6.4317        -6.13653
LJ           6.33856        -3.36256        -1.80202
LJ          -3.98558         1.97947        -4.82263
LJ          -1.83376        -2.77076         -2.3337
LJ          0.490129         5.38163        -5.46707
LJ           1.55927          5.9907         4.47156
LJ           1.44991         5.18052           6.199
LJ           4.64911         1.82548       -0.621182
LJ           4.45397        0.794951         3.45149
LJ          -2.48953        -3.16547        -4.21506
LJ          -2.19639        -5.24525        -4.23925
LJ          -3.14267        -5.82535        -3.79307
LJ          -5.64498        -1.38138        -1.97325
LJ          -2.70725        -1.35411        -4.41787
LJ            5.6414        -2.46312        -2.90618
LJ           -2.7823        -2.57649        -6.32624
LJ          -6.02384        -4.83007         4.96202
LJ           1.17188        0.942548         5.95468
LJ          -2.84401         2.08987        -4.50335
LJ          -1.34246        -2.67383        -3.24918
LJ          0.041282         4.19256         4.03716
LJ          -6.25893          -2.285        -1.18847
LJ           5.85759        -1.56755        -1.95446
LJ           4.82418          -6.304         3.74802
LJ          -5.79476        -3.98824        -6.38697
LJ           2.53364         5.88253        -3.17505
LJ          -5.44634        -3.98619         2.86408
LJ         -0.310944         5.79884        -4.28032
LJ           1.08357         3.70085         3.77663
LJ         -0.437319        -6.34211        -5.00849
LJ          0.608939         3.50398         5.45199
LJ          -4.36515        -4.04092         6.30188
LJ           2.20659         5.60888          2.7403
LJ           6.39854        -1.34908         3.06791
LJ          -6.37128       -0.254412        0.087513
LJ           6.29824         3.76605        0.455051
LJ          -4.45554         3.60275        -3.48818
LJ         -0.903736          -5.177        -4.96041
LJ          -6.20065       -0.612356        -3.49749
LJ           1.15883         6.34549        -5.79104
LJ           5.38004         -1.0947         -2.8508
LJ           4.11331       -0.132963        -6.21188
LJ          -4.62819        -5.05015        -6.12649
LJ         -0.425697         1.89337        -2.73326
LJ          -6.10011         6.45307         6.12835
LJ         -0.289572         4.75907        -4.96549
LJ          -5.76544         3.57655         1.85798
LJ           6.23537       -0.382887         -1.9674
LJ           1.68907       -0.742094        -3.48295
LJ          -1.28114        -2.47418         5.79088
LJ          -1.90397       -0.493446        -6.43752
LJ           3.76455        -3.64933        -3.57033
LJ           2.52031        -4.74131       -0.439587
LJ           3.80231          -6.356         1.63906
LJ          -6.16312        -5.81766        -5.94896
LJ          -4.41953          2.4898        -3.32714
LJ          -5.52595         3.44642        0.708067
LJ            4.5336        -5.41287          2.9757
LJ          -1.29803        -2.08123         -6.1704
LJ          -4.30776       -0.718461        -3.98136
LJ          -1.15813         1.18532        -5.89368
LJ          -1.05792        -1.35555        -5.05435
LJ           4.33569         3.33578        -2.46504
LJ          -1.12456        0.203114        -5.70986
LJ          -3.85156         2.85129         -4.1465
LJ           2.43075        -3.17917         -5.2395
LJ          0.921335          4.5035         -3.7755
LJ           3.26678       -0.186984        -1.26696
LJ           1.49808        -4.27659         0.81249
LJ           5.90615         6.00548          1.1062
LJ          -3.54033      -0.0875146        -4.65541
LJ          -2.97677       -0.957781        -5.95313
LJ          -3.17115        0.996591        -4.92984
LJ          -3.04779        -2.77384        -5.07306
LJ          -3.32621       0.0822166        -5.81183
LJ          -2.27042        -1.58983        -5.63512
LJ          -3.61107        -3.02075        -6.05048
LJ          0.169839         5.89048         5.94668
LJ          -2.94814         2.85588         4.63111
LJ          -4.92626        -1.23075       -0.778152
LJ           4.05452        -6.42665         2.80939
LJ          0.792617         5.47868        -4.34228
LJ         -0.168233         4.25588         -5.9269
LJ          -2.35919        0.318654        -5.70732
LJ           1.36943        0.253067        -3.00628
LJ         0.0217863          4.5771         6.04314
LJ           5.27802        0.425187        -1.42639
LJ           1.74097       -0.192639         2.51576
LJ         -0.879007         5.44725        -5.47375
LJ           6.39265      -0.0511594       -0.933245
LJ           5.26295        -3.25639        -2.25047
