108
#Comment!
LJ          -3.40969        -5.00364        -5.43458
LJ          -3.34856         -4.1258        -6.05347
LJ          -6.22221       -0.568703      -0.0153329
LJ          -3.84057        -4.12878        -4.05861
LJ          -2.87515        -4.91102        -3.30429
LJ          -2.70903        -3.65246        -4.16069
LJ         -0.823769         1.62188         4.29337
LJ          -3.46837        -2.43252         4.96234
LJ          -4.64475        -2.94471         -5.0469
LJ           2.20479         -2.4723        -2.39062
LJ          -4.14507         6.32473         6.19907
LJ          0.488502         3.29508        -1.57158
LJ           4.68791         6.15139         1.22781
LJ          -2.02888        -4.23622        -4.78254
LJ          -2.64002        -5.23668         6.43447
LJ          -3.53337        -5.79105        -1.74393
LJ           -3.5938        -3.54243        -5.15542
LJ         0.0934715         5.43056          2.5733
LJ          -4.02878        -4.99118        -3.41316
LJ         -0.956424         -4.9163         5.58338
LJ          -1.90122        -5.23059        -5.18543
LJ           6.33874        -2.01676          -5.828
LJ          -1.12513        -6.04489        -4.20137
LJ            4.9006         6.00287         2.46568
LJ         -0.805762        -4.82988         2.66272
LJ          0.532386         2.06803       -0.446877
LJ          -3.58577        -3.41894         5.51338
LJ          -1.83193        -3.23745         6.14216
LJ          -0.93409         5.33716         2.03544
LJ           1.86521       0.0727084         2.50933
LJ          0.437654        -5.24521         6.10586
LJ          0.529813        -5.57887         1.47606
LJ          -1.92117        -3.24886        -2.11582
LJ          -3.71092        -1.70884        -5.50844
LJ           2.41924         1.05765         2.59694
LJ          -1.69504         3.10932        -3.18088
LJ          -4.07935        -4.20003         6.08748
LJ          -6.45721         6.21358        -3.48077
LJ          -3.43003        -1.78625         6.30711
LJ           -2.7586        -3.95749         5.96356
LJ         -0.223659         3.31981        -2.38975
LJ          -3.05342        -5.99103         -4.5579
LJ          -4.34476        -6.11801        -3.44437
LJ          -3.58552        -2.15658         3.36485
LJ          -4.09068        -5.44398        -4.53258
LJ           6.14907         2.23929        -2.92044
LJ          -4.16511        -2.48505        -6.32732
LJ         -0.440363        -3.44339         5.69381
LJ           4.62689        -2.19952        -3.79481
LJ          -0.93961        -2.21501        0.932314
LJ           3.03932         5.17568        -4.84851
LJ          -4.37924        -5.20959        -2.06731
LJ         -0.816251         3.32358        -1.38226
LJ          -3.76956        -0.14562        -4.93604
LJ          -3.27915        -6.30637        -6.13756
LJ            -4.509        -5.68217         6.10131
LJ          -6.06289         3.87973         -2.5085
LJ          -5.50618        -5.32818        -2.62432
LJ            3.9744         -5.7183        -1.89662
LJ          -2.28757        -5.50115        -4.13272
LJ          -1.58549         6.21161         2.01332
LJ           1.79122          2.9918        -1.82022
LJ          -3.19917        -5.86458        -3.51694
LJ           1.27405         4.20549        -1.29872
LJ           1.85855       -0.786526         1.95399
LJ          -1.23605        -4.91909       -0.677621
LJ            5.5229        -6.14434         1.62042
LJ           4.72237        -3.91532       0.0421335
LJ          -1.53504        -4.49825         6.39592
LJ            -4.371         6.09623        -5.44289
LJ          0.326005         3.14875        -4.31605
LJ           6.20205        -6.42674         2.75234
LJ          -2.07177        -4.43344        -3.74613
LJ         -0.848418         0.80949        -1.80395
LJ           2.62237         1.65161        -3.18314
LJ          -2.35507        -4.48024         -5.7414
LJ          -3.33233        -2.67717         -5.7549
LJ          -3.78203        0.824859         5.44911
LJ          -5.74918         5.24885       -0.991678
LJ          -4.25348        -5.70975         -5.8828
LJ           1.19195        -5.55224        -2.28146
LJ           4.01009        -4.62756        -2.37643
LJ          -4.17618        -3.73725        -2.57259
LJ          -3.81846        -6.27018         5.33297
LJ          0.271247        -6.30625        -5.92735
LJ           1.95794        -3.39052         3.33056
LJ           1.24606         2.64123        -1.04078
LJ          -2.50045        -2.57535         5.04287
LJ         -0.659988        -3.48653        -5.28762
LJ          -1.68403        -3.11476        -4.93794
LJ           0.97113         5.79549         2.96006
LJ           1.22228        -1.78849       -0.995024
LJ           5.84651        -3.22916         1.55231
LJ          -4.28912        -4.59238        -5.23456
LJ            -2.074        -4.55951         5.33938
LJ         -0.335405        -5.13265      -0.0811838
LJ         -0.743254         -2.1658         5.80213
LJ          -1.80317        -2.37346        -6.14208
LJ          -3.35822        -5.33072         5.69575
LJ         0.0540035        -6.43895        0.214207
LJ          -3.05588        -4.76444        -4.27724
LJ          -2.93321        -2.78286         6.17105
LJ            -1.206        -4.90596        -4.33712
LJ          -2.27608        -2.08777        -5.25307
LJ          -1.99194        -4.87765        -1.61678
LJ          -5.46977       -0.787868         3.98913
LJ          -4.72759       0.0985963       -0.191745
LJ          0.271193         0.49949         -1.6766
