108
#Comment!
LJ           -2.2335        -5.98427        -5.98428
LJ          -2.74547        -3.45978         6.19981
LJ          -2.70748        -3.05984         -3.8803
LJ          -2.37672        -2.43023        -2.33156
LJ         -0.828638        -2.60538        -2.84456
LJ          -4.51503         -1.6728        -5.43642
LJ           3.90081         3.42637         -2.0519
LJ          -6.03337        -3.87802        -6.08584
LJ          -2.61462        -3.42159         4.85947
LJ          -4.60202       -0.723307        -3.33627
LJ         -0.526271         6.39327         6.04809
LJ           1.68062        -5.88048        -1.05398
LJ           4.70983        -6.44125         1.23123
LJ          -2.26563        -1.09964        -2.06137
LJ          -3.32506        -4.74369        -5.63585
LJ           5.23565         2.44186        -2.48831
LJ          -1.86434        -1.62091        -2.90742
LJ          -3.99238         1.85427         -4.7275
LJ           -3.8882        -1.72491        -2.49549
LJ           3.23293       -0.294032        -3.66482
LJ          -3.74465        -3.03202         -4.2087
LJ          -1.06415         4.85483        -3.11992
LJ          -2.40434         4.45474         3.61819
LJ           4.08003        -5.81031        0.667992
LJ          -3.12945         1.66837        -5.47198
LJ           4.01472         1.95501         -1.2826
LJ          -2.62764        -3.03395        -4.93385
LJ         -0.474493         6.26543        -5.14835
LJ         -0.559624         5.48161        -3.92662
LJ          -5.22314        -1.57447        -3.52774
LJ          -4.53422        -2.78983        -5.83571
LJ          -4.57497        -3.71327        -2.37748
LJ          -1.35188       -0.814406        -3.32499
LJ          -1.18697          -2.885         -6.3374
LJ          -2.52998         5.68289        -5.83153
LJ          -6.34646         4.26585           1.545
LJ          -2.23883        -1.19001        -3.92151
LJ          -1.33821         5.48542         4.59913
LJ           -3.2842       -0.984597         -3.9592
LJ          -2.27166         1.72767       -0.759042
LJ           5.49912        -5.79155         1.05978
LJ          -5.83158        -2.61995         -6.2756
LJ            1.5045       -0.417273        -0.22323
LJ          -4.48135         3.37205         3.29845
LJ          -1.09841         5.12844          5.5991
LJ           4.39406         1.45848         1.63799
LJ         -0.903223        -5.91438        -6.12564
LJ         -0.863602         6.14452         3.67563
LJ          -3.70536        0.487774        -5.14625
LJ           2.59162        0.122577           3.685
LJ           4.34101        0.856926        -1.07414
LJ           4.42943         3.32903        -3.19458
LJ           4.87623         5.11726        0.286015
LJ          -4.51087         -0.9618        -2.03246
LJ          -3.39507        -3.69798        -5.62329
LJ          -4.71571        -2.63171        -3.73466
LJ          0.669374        -4.92524         4.07623
LJ          -2.86563       -0.494259        -5.04913
LJ          -3.32936         2.85791       -0.191517
LJ          -3.76105        -3.12337         5.52464
LJ           0.16567         -5.9512        -6.28702
LJ            2.9627        -6.42031        0.201842
LJ          -1.80407        -6.04251        -4.92142
LJ           4.90665         4.49043         1.28135
LJ           5.71524        -1.14029          6.2011
LJ          0.828278        -5.06784       -0.970629
LJ          -3.22756         3.84258       -0.908362
LJ           4.74753         3.57471         3.20368
LJ          -2.39471        -1.44682        -5.21908
LJ           4.12873        -3.09335        -3.92525
LJ           2.24005        -6.13725         1.26819
LJ          -5.00312        -4.93045         2.85777
LJ           1.89057       -0.335742        -3.40461
LJ            4.2378        -4.19372       -0.851354
LJ           3.91112        -6.18607         1.88974
LJ          -3.78104        -2.42181         -5.0936
LJ          -4.07878        -1.60984        -3.69172
LJ          -1.23103        -4.89409        -1.01417
LJ          -3.49171        -4.31861         6.04695
LJ           5.39298         3.82309        -2.63521
LJ          -4.22708        0.200451        -3.82883
LJ          -1.06178        -1.04824        -2.19227
LJ           6.27042         6.42001        -1.60996
LJ          -2.26473         5.95695         6.19167
LJ          -3.44504         2.95309        -4.61135
LJ           1.62954         5.86474         1.52432
LJ            5.4295        -5.68431      -0.0122516
LJ         -0.905542        -5.02936        -5.61617
LJ          -3.10185       0.0613788        -3.59701
LJ          -1.86046      -0.0306079         -2.3207
LJ        -0.0880826        -2.56725        -1.17107
LJ          0.666069         -1.5084        -3.82864
LJ           -4.0767        -2.74621        -2.43399
LJ           5.91232        -1.25012        -5.67571
LJ          -1.42375         5.69916        -4.50064
LJ          0.695852         4.30855         -2.8707
LJ          -2.94302        -2.05892         -4.3708
LJ          -3.44978        -2.72209        -6.37056
LJ          -1.33113          5.1838        -5.46116
LJ          -2.16559        -5.09212        -5.35117
LJ           -3.0796        -1.58588        -6.04726
LJ          -3.09087        -4.28857        -4.56489
LJ         -0.251579         5.09761        -5.67031
LJ           2.85384        0.662644         4.69879
LJ           2.31289         1.35223        -4.39072
LJ          -1.43241         6.14006        -6.00113
LJ          -6.31121        -2.77222        -5.39189
LJ          -1.69357       -0.614054         3.09502
