108
#Comment!
LJ        -0.0624898         -5.4734         5.90943
LJ          -2.47644         5.59465        -5.41928
LJ          -3.55366       -0.786229        -1.63476
LJ          -3.21811         4.22668        -4.14304
LJ           3.43008         3.91309        -2.40182
LJ           -3.4402       -0.199992        -6.45145
LJ           5.98301         3.79639         1.32963
LJ          -4.62383       0.0123183         3.76472
LJ         -0.639664        -5.32965        -5.48595
LJ           1.02459        -1.63842         5.65661
LJ           -1.2191        -1.60301        -2.83199
LJ           3.72249        -5.89076          4.4076
LJ          -4.64907         5.48237         3.74284
LJ           6.40513         4.31228         5.90711
LJ          -5.27349         2.62156        -4.66414
LJ           2.15175       -0.148864        -1.15754
LJ           3.86951        -2.01572          4.0037
LJ           2.97258        -5.14284        -3.68833
LJ           -6.3929         -2.8223        0.283702
LJ          -2.04646        0.437958        -4.80853
LJ          -0.54942        -3.89257        -3.90159
LJ          0.706335         5.76099        -6.06008
LJ           1.25935        -6.34676          1.3957
LJ          -1.49029       -0.606108         -2.4896
LJ           1.82433         4.18014        -1.20351
LJ           1.98376         -2.4145         4.03886
LJ          0.359288        -1.82265         4.89843
LJ          -2.10631          4.4678        -3.33203
LJ         -0.311852        -2.48302        -2.01698
LJ           6.19772        -2.77634       -0.743829
LJ          -2.60441       -0.119009       -0.851948
LJ           4.99627       -0.976781         1.61489
LJ          0.396703        -2.33545         3.60973
LJ          -4.27016         -3.8008         5.54614
LJ           4.55135        -2.60069        -4.02746
LJ           5.42857         3.99148         5.41853
LJ         -0.826048        -2.72016        -3.04698
LJ           3.27834         2.32875         4.85408
LJ           5.67723        0.616706         1.37139
LJ           5.81621        -3.09431        -2.14402
LJ           6.17049       -0.575539         5.36372
LJ           4.92039        -5.31224         3.45631
LJ           3.25427         4.40533        0.137637
LJ           5.16564        -1.40143           4.838
LJ           1.05199        -6.30083        -4.45302
LJ           2.30445         3.14289         4.56586
LJ          -1.29693        -5.43014         5.94099
LJ           3.65679         2.43387         1.13644
LJ           5.50276         5.28798       -0.454186
LJ          -1.75502        -6.21147         1.44497
LJ          -5.36937        -2.98173         5.54534
LJ           1.95953         4.92353        -4.59366
LJ          -4.50886         1.94739        0.973523
LJ          -4.39786        -1.71075        -3.33669
LJ          0.419191        -5.43217        -5.96508
LJ           5.70936        -1.74078         1.75714
LJ         -0.609777         5.97219          -6.049
LJ           3.81811       -0.309824        -3.19262
LJ           3.07788         2.79678        -2.17188
LJ           5.84587         6.10539         2.87265
LJ           1.27974        0.410824        -1.39083
LJ           2.97123        -2.06351        -3.87193
LJ          0.276896        -5.54039        -4.85879
LJ          -5.11973         2.75066        0.480853
LJ           1.77354        -2.40699         2.95255
LJ         -0.149254        -6.34915         -2.1437
LJ          -4.21595        -2.72506        -3.98735
LJ          -3.02883        -1.49553         4.24659
LJ          -4.25138        -1.61445        0.466203
LJ           4.16385         -5.9518         3.33814
LJ           2.47874        -5.95076         4.39506
LJ          -5.59233         -3.7257         4.80301
LJ          -4.97019         1.31355         6.22963
LJ           -3.9475          2.9055        0.881198
LJ           5.66623        -2.08341      -0.0824962
LJ          -4.76424        -2.09174         1.88909
LJ          -2.59768         3.93819         5.53562
LJ          -2.63028        0.780373         3.73446
LJ          -3.27158        0.619306        -4.48279
LJ           2.74283         3.30551         -3.5511
LJ          -2.09429        0.209779        -3.41856
LJ          -1.35834         2.59988         4.31905
LJ           2.31654         -3.1137         1.99263
LJ           4.45005         4.58458        -0.47044
LJ           4.52406        0.636486       -0.669646
LJ          -0.28249        -4.81986        -4.49123
LJ            5.4327       -0.225927        -2.42885
LJ           6.31452         3.44113        -6.07048
LJ          -1.07751         1.55304         4.16162
LJ          -6.20288        0.614571        -4.48315
LJ          0.168815       -0.831328         5.07669
LJ          -3.11075          3.1247        -4.43554
LJ          0.129338        -5.92067         -3.7683
LJ           5.69482         5.95952        0.813836
LJ         -0.312531         5.56275         3.27927
LJ           6.35655         3.96253          4.7812
LJ           3.08655       -0.924493        -2.49816
LJ           3.29238        -5.39533         5.16228
LJ           3.06466         4.11081        -6.05303
LJ         -0.359866         1.95654         2.13395
LJ          -3.75157        0.316836        -5.57508
LJ          -2.16602      -0.0827168          3.2791
LJ          0.471753         4.64915         3.66509
LJ           2.54986        -1.12351        -1.39225
LJ         -0.200124        -2.68165       -0.518003
LJ           1.71223         4.56367        -6.01187
LJ           5.99187       -0.315271         2.11434
LJ           2.44229       -0.138179        0.320775
