108
#Comment!
LJ          -1.86766          5.9057        -5.11461
LJ          -2.72586        -3.70514         -5.5435
LJ          -2.72478        -2.76961        -5.03644
LJ          -2.71212        -1.87718        -3.23018
LJ         -0.473139        -0.82703        -3.16589
LJ          -3.21365        -1.11192        -3.73805
LJ           4.81632          2.3354         -0.6645
LJ          -4.83615        -1.24982         -5.5095
LJ          -3.24878         -3.2712         5.31993
LJ           -4.3177        0.414756        -3.23198
LJ         -0.882591         5.10511         6.33875
LJ          0.477128          -4.735       -0.113628
LJ            4.4439         5.31684          2.8485
LJ          -2.08326        -1.28183        -2.49632
LJ          -1.69297        -3.71262        -3.82818
LJ           5.40095         2.45207        -1.78971
LJ          -1.54415        -1.77942        -1.36919
LJ          -4.86949         1.45217        -5.88119
LJ          -4.29175       -0.907604        -3.61405
LJ           -2.1994         1.71481        -3.87413
LJ          -4.50684        -4.43745        -4.90273
LJ          -1.03521         5.34281        -3.31876
LJ          -0.72043         4.47987         3.25615
LJ            3.8086        -5.80549        0.782299
LJ          -2.50001        0.754077        -5.90716
LJ           5.07278         3.74496        -1.03151
LJ          -1.01904        -2.46316        -4.67812
LJ         -0.124181         5.87509        -3.01089
LJ          -1.14041        -6.22437        -3.15458
LJ           6.35282       -0.891916        -3.12287
LJ          -4.44045        -1.29269         6.10537
LJ          -3.30165         -3.0728        -2.88331
LJ          -1.73114        -1.78283        -3.87697
LJ          -2.67321        -2.07855         5.88641
LJ           -2.0852         5.04521         6.10699
LJ           6.40912          2.6029        -1.16342
LJ          -2.32954        -1.57222         -4.9284
LJ          -1.58582         4.19731         4.16599
LJ          -3.37961        -1.14887        -2.74379
LJ          -3.95986        0.227885         -1.8744
LJ           4.54918        -4.73251         1.93656
LJ          -5.73539         -1.3896         6.33735
LJ          0.817698          2.1195       0.0653268
LJ          -4.60438         4.56982         3.25432
LJ          0.843822         5.43992        -4.82757
LJ           3.52434         1.47556         2.50966
LJ          -1.02269        -6.18918        -5.62804
LJ         -0.391267         3.97807         4.61051
LJ          -3.83718       -0.979605        -5.03638
LJ           2.31351         2.73292         2.76231
LJ           5.31556         1.27057        -1.73733
LJ           5.52613         3.45514        -2.19476
LJ           5.50353         4.02797         1.20017
LJ          -4.23787       -0.372901        -2.60327
LJ          -2.64786        -4.38001        -4.22017
LJ          -4.51415        -1.90846        -4.38938
LJ           1.21985        -5.50571         4.68154
LJ          -3.03079       -0.153814        -3.33877
LJ         -0.726755        0.415446        -2.84806
LJ          -4.23375        -3.04263          5.9114
LJ         -0.731529          6.1685         5.98658
LJ           4.42347        -5.20088        -1.20618
LJ         -0.948872         5.59494        -4.62208
LJ           5.42198         5.13499        0.752719
LJ            5.1078        -1.00591        -6.10167
LJ           1.34784        -5.56412      -0.0935012
LJ         -0.510007        0.881154        -1.46978
LJ          -5.78245         2.62748        0.709629
LJ          -4.33786        0.176367         6.23878
LJ           3.98198        -3.98851        -3.09055
LJ           4.07942         6.34195         3.57447
LJ          -5.27481        -4.72891       -0.388949
LJ           -1.2786        0.330989        -4.64763
LJ           5.26609         6.09277       -0.969232
LJ            4.3898        -6.34648         2.05694
LJ          -3.55033        -4.11153        -4.71768
LJ          -5.74086        0.150748        -3.84597
LJ          -1.15867        -3.42769        0.851902
LJ          -3.88969        -3.53789        -5.91496
LJ           4.84309         2.61754        -3.04291
LJ          -2.29898        0.363072        -3.60308
LJ          -1.50309       -0.250497        -2.65945
LJ          -4.42796        -6.29247        0.690444
LJ          -1.88325         6.41231        -6.09205
LJ          -5.02309       -0.164044         -4.5715
LJ            2.8156        -5.18105       -0.854783
LJ           4.33523        -4.46676        0.848005
LJ          -3.52925        -2.49596        -5.80156
LJ          -2.86913       -0.214446        -2.07958
LJ          -2.13033       -0.802904        -3.57994
LJ          -1.47702        -2.39533        -3.08573
LJ          -1.26293       -0.531335        -3.98295
LJ          -2.58821        -3.05859        -3.93904
LJ           6.14093        -1.17367        -5.85855
LJ          -1.73372         4.68393        -4.08477
LJ           1.15167         2.79399        -1.67187
LJ          -3.86519        -2.26573        -3.53333
LJ           -5.3367        -3.67544          4.5116
LJ         -0.902358         5.71447         5.04091
LJ          -1.04741        -6.23196         -4.3403
LJ          -1.53986         -2.2909        -5.88399
LJ          -3.11622        -3.99809        -3.30291
LJ          -1.49953          4.2863        -6.04244
LJ         -0.262856        0.271114         2.26684
LJ           2.10176         1.16689         6.36733
LJ         -0.963386         5.63231        -5.64055
LJ           -5.4961        -1.21609        -4.13595
LJ          -2.66644        -2.01332         3.84543
