108
#Comment!
LJ          -1.91155        -5.90606         -4.7721
LJ         0.0747551         5.65146        -4.75247
LJ          -1.91198        0.093597        -3.29642
LJ          -2.19761         1.74905        -5.28521
LJ           2.38381         4.56633        -2.00339
LJ          -1.35073        -1.00901         3.83344
LJ           5.47651         5.38182       -0.704508
LJ          -1.77344         3.40989         5.41429
LJ         -0.671849        -5.40861         -4.6062
LJ         -0.555577        -1.11577         5.48056
LJ           -1.0503        -4.54499         -3.9775
LJ           3.38156         6.17668         3.42489
LJ          -6.38411         5.10239         3.30913
LJ          -5.63219         3.68285         6.15413
LJ          -3.74571         2.99066         4.38856
LJ           4.88124       -0.710757        -2.89751
LJ            3.2667        -1.74644         4.92945
LJ           2.86982        -6.31013        -5.82573
LJ           5.17421        -1.53685        -2.28082
LJ          -5.25011        0.527972        -2.93534
LJ          -2.24621        -3.55261        -4.02848
LJ           1.16707          6.4429        -4.64736
LJ           2.54187        -6.24412         2.15176
LJ          -2.85353        -3.41497        -3.18782
LJ          -2.42176         2.31951        -2.24996
LJ         -0.301658        -2.03762        -5.56491
LJ         -0.616466        -2.38957         6.26578
LJ          -1.76335         6.00989        -5.35819
LJ          -1.30713        -1.91477        -3.98902
LJ           5.50909       -0.301404        -1.02929
LJ          -1.35233       -0.882194        -3.30885
LJ           3.72351        0.124407       -0.464971
LJ         0.0956136        -1.56957        -6.42128
LJ          -5.71424        -2.99701         4.93418
LJ           4.89915        -3.13574        -2.26838
LJ          -6.15898         2.62506         6.34323
LJ          -1.38155         -3.6471        -3.46522
LJ           3.25718         3.28954         4.80402
LJ           4.02168         -2.4803       -0.558358
LJ           4.81281        -2.35663        -1.62787
LJ           5.71455        -2.46829         4.25348
LJ           6.41925        -5.46717         3.66837
LJ            3.2138         4.13673        -2.80852
LJ             5.345        -1.63036         3.57833
LJ           0.57627        -5.91694          -5.665
LJ           1.89271         4.28387         4.90713
LJ         -0.572304        -6.16134        -5.38078
LJ           0.96083          3.7042         3.25383
LJ          -5.02331        -5.47986         4.82455
LJ         -0.780328         6.28132         2.10875
LJ           -5.3882        -2.09548         5.42165
LJ          -1.15196        -4.44627       -0.554397
LJ          -5.39964         2.42882        0.838739
LJ           -4.5565         1.11436        -3.62362
LJ          -1.40936        -5.46545        -5.74056
LJ            5.4215        -2.14917       -0.236465
LJ           1.71197        -6.22698         -5.7712
LJ           3.55485        0.622033        -1.41788
LJ          0.860988         1.82166        -2.27241
LJ          -5.82886        -6.15422         4.34852
LJ          -0.44616         1.37864        -1.06227
LJ          -2.87854        -4.36591         2.08902
LJ        -0.0811428        -6.17895         -4.4219
LJ          -5.98163         3.22463         1.46565
LJ           5.10647         -1.3345        -1.15122
LJ           1.21654         2.90472        -4.41589
LJ          -2.91655        -1.74365        -5.98765
LJ          -1.91038       -0.687524         5.03295
LJ           4.54775        -3.23243        0.313766
LJ           1.22882        -4.67232         2.04072
LJ           4.34016        -6.41322         3.50699
LJ          -5.52186        -4.11069         4.63417
LJ          -3.33234         2.08781        -4.60351
LJ          -4.32183         2.86561        0.802095
LJ            4.9852        -3.68068         2.75272
LJ           -1.1145        -4.55814        -2.43782
LJ          -2.50794         2.23927        -6.43651
LJ          -3.71644          1.8529        -6.00051
LJ          -2.20018        -0.70348        -2.58279
LJ           4.39328         4.37724        -1.65615
LJ           -1.9886        -1.80768        -2.93276
LJ          -2.67414         1.05959         5.51493
LJ          -6.27429        -1.77382      -0.0458957
LJ           3.00152         3.73776        -1.73074
LJ           4.09164        -1.53305        -1.21386
LJ           2.00761        -5.60721         3.49587
LJ          -4.25132         2.45186        -2.07449
LJ          -4.95678         2.66098         5.99583
LJ          -2.73528         3.27767         5.96879
LJ          -3.88561         1.19565        -4.39291
LJ         0.0094855        -2.01921         5.47124
LJ          -3.59773         2.95494        -5.41241
LJ         -0.421552        -4.53038        -5.92562
LJ          -4.95068         6.41446         3.82308
LJ         0.0728785         4.47637         3.55709
LJ           6.28396         3.93525         5.91986
LJ           5.67956        -1.48953        -3.94651
LJ           3.57003        -6.36473         4.35708
LJ         -0.398103         5.31684         -3.5382
LJ          -1.11836         2.45357         3.48108
LJ          -4.62646         2.05613        -4.26713
LJ          -3.08022       -0.384723         4.87833
LJ           1.21475         5.16557         4.11996
LJ           4.62241        -1.65877        -4.06062
LJ          0.679575        -1.18552        0.789436
LJ           2.15049         6.09095        -5.03422
LJ          -5.63451        -1.88597        0.904555
LJ           4.38561       -0.236094        -1.55895
