108
#Comment!
LJ          -2.11316        -6.04688         -6.0432
LJ          -2.57038        -3.45222         6.25811
LJ           -2.5583        -2.83979         -3.7478
LJ          -2.32878        -2.23635        -2.28714
LJ          -1.07073        -2.50532        -2.77598
LJ          -4.48505        -1.78188        -5.45806
LJ            4.0387         3.39926        -2.18183
LJ           -6.1848        -4.00532        -6.05513
LJ          -2.71289        -3.39466         5.03994
LJ          -4.47875       -0.823323         -3.4534
LJ         -0.668358         6.36916         5.90709
LJ           1.74063        -5.91328        -1.04702
LJ            4.7439         6.33849         1.25292
LJ          -2.20672        -1.21801          -2.015
LJ          -3.46179         -5.0374        -5.90627
LJ           5.14964         2.49016        -2.52707
LJ          -1.94386        -1.66655         -3.0825
LJ          -3.93218         1.87375        -4.60548
LJ          -3.74622        -1.66928        -2.54523
LJ           3.51479       -0.473742        -3.70008
LJ          -3.56654        -3.08128        -4.15605
LJ           -1.2108         4.90571        -3.11888
LJ          -2.47063         4.50364         3.74607
LJ           4.03211        -5.77019        0.776971
LJ          -3.08656         1.65324         -5.4367
LJ           3.89329         1.89267        -1.25436
LJ          -2.77899        -3.10697        -4.90626
LJ         -0.449388         6.40625        -5.48733
LJ         -0.359483         5.43196         -4.0462
LJ          -5.15002        -1.72876         -3.5049
LJ          -4.34743        -2.94649        -5.68075
LJ          -4.59375         -3.7236        -2.44692
LJ          -1.39125       -0.665469        -3.22223
LJ          -1.18556        -2.96008        -6.32659
LJ          -2.53053         5.83888        -5.73556
LJ          -6.40686          4.4004         1.72997
LJ          -2.27267        -1.17885        -3.94788
LJ          -1.34997         5.68007         4.42267
LJ           -3.5016       -0.827881        -4.08713
LJ          -2.24192         1.92292       -0.611698
LJ           5.56078        -5.79689        0.934147
LJ          -5.63712        -2.83702        -6.42773
LJ            1.5488       -0.586363       -0.246004
LJ          -4.46937         3.29462         3.29957
LJ          -1.31409          5.3143          5.7583
LJ           4.43507         1.46712         1.59207
LJ         -0.997494        -5.99297        -6.12183
LJ         -0.974082         6.24685         3.68254
LJ          -3.52652        0.708276        -5.01344
LJ           2.59125      -0.0434828         3.92018
LJ           4.26922        0.764154       -0.989503
LJ           4.48125         3.41322        -3.33342
LJ           4.85747         5.23637        0.408409
LJ          -4.50928       -0.945409        -2.18711
LJ          -3.56822        -3.76551         -5.7265
LJ          -4.75103        -2.78631        -3.60345
LJ          0.625739        -4.89525           4.042
LJ          -2.84551       -0.577583        -5.03953
LJ          -3.50527         3.00012      -0.0931535
LJ          -3.88461        -3.16659         5.58121
LJ          0.105275        -5.99235        -6.20073
LJ           3.06749         6.35761       0.0780449
LJ          -1.77853        -6.04732        -5.05785
LJ           4.88851         4.44869         1.17335
LJ            5.6239        -1.05614         6.13144
LJ          0.819731        -5.08216        -1.12064
LJ          -3.40977         3.93763       -0.859538
LJ           4.58333          3.6548         3.33373
LJ            -2.402        -1.67321        -5.07726
LJ           4.14098        -3.03228        -3.98139
LJ           2.00397        -6.14165         1.29444
LJ          -4.99045        -4.95438         3.07097
LJ           2.16531        -0.44536        -3.31141
LJ           4.19508        -3.91334       -0.892559
LJ           3.80989        -6.21393         1.78563
LJ           -3.5584        -2.23138        -5.08455
LJ          -3.97967          -1.947          -3.578
LJ           -1.2184         -4.9911        -1.14303
LJ          -3.42982        -4.12666          6.0904
LJ           5.25158         3.87601        -2.56674
LJ          -4.20009        0.116061        -3.95654
LJ          -1.10123        -1.17778        -2.29141
LJ           6.10743         6.41869        -1.74771
LJ          -2.11385         6.09605         6.00904
LJ          -3.34418         3.18775        -4.57684
LJ           1.68424         5.83704         1.74198
LJ           5.38843        -5.80576       -0.153432
LJ         -0.901682        -5.18029        -5.29147
LJ          -3.08664        0.105908        -3.75829
LJ          -1.87312     -0.00829397        -2.20716
LJ        0.00293367         -2.7411        -1.11496
LJ           0.70071        -1.48736        -3.73985
LJ          -4.17109        -2.72579        -2.45252
LJ           6.02215        -1.37656        -5.69105
LJ          -1.57794          5.8357        -4.43817
LJ           0.77621         4.37401        -2.92659
LJ          -2.97375         -1.9856        -4.27196
LJ          -3.45787        -2.77008        -6.42119
LJ          -1.29331         5.15052        -5.31329
LJ          -2.18733        -5.01671        -5.51557
LJ           -3.1176         -1.3212        -6.13877
LJ          -3.03535        -4.18826        -4.83208
LJ         -0.272814         5.20097         -5.6856
LJ           3.10147        0.678577         4.67361
LJ           2.32218         1.33002        -4.21105
LJ          -1.48726         6.00881        -5.88774
LJ          -6.33138        -2.89009        -5.39134
LJ          -1.63434        -0.51289         2.97335
