108
#Comment!
LJ          -2.40244        -5.86339        -5.77001
LJ          -2.26615        -3.11344         5.79956
LJ          -2.11766        -2.78575        -3.26399
LJ           -3.0439        -2.80103        -2.74038
LJ          -2.40499        -1.90416        -2.17036
LJ          -3.79625         -2.7755        -4.65693
LJ           1.64917         2.93681        -3.54709
LJ           6.37807        -3.96218        -6.20058
LJ          -2.99964        -3.66634         5.05717
LJ          -4.01403        -1.83993        -5.07644
LJ          -2.07167         6.21172         6.16595
LJ           1.71279        -5.66633        -1.38391
LJ           5.02587        -6.24423         1.85526
LJ          -2.97843        -1.50947        -2.90516
LJ          -1.67438        -5.06014         4.96478
LJ           5.89916         3.60109        -3.56459
LJ          -3.46791       -0.936026        -4.21364
LJ           -2.6621         3.38404        -4.03942
LJ          -3.91141         -1.1874        -3.30213
LJ           6.42633        -2.84848        -3.75218
LJ          -2.50943        -3.26599        -4.60409
LJ          -3.28631         5.35504        -3.57468
LJ          -2.35549         5.04254         5.70835
LJ           4.70267         5.57703        0.758568
LJ          -3.16826         2.62324        -3.31718
LJ           2.59246        0.735841       -0.935322
LJ          -1.18538        -3.22178        -5.69347
LJ          -1.04405        -5.22418        -6.19339
LJ         -0.134165         5.24568         6.44049
LJ          -3.30814        -3.98756        -2.91613
LJ          -3.37275        -3.42575        -4.00603
LJ          -4.73655        -5.51774       -0.904232
LJ          -2.80528        0.246544        -2.81718
LJ          -2.91029        -3.83434        -6.42687
LJ          -3.40113        -5.81524        -5.36526
LJ           5.09513         6.46084         3.76565
LJ         -0.257683       -0.978907        -4.67965
LJ           -3.6093        -6.41097        -6.21804
LJ          -3.03057         -1.2954        -5.27923
LJ          -2.20917         4.83128         1.45538
LJ           4.65625         6.35818       -0.825652
LJ          -3.89748        -5.16085         6.23301
LJ           2.20303        -2.91798       -0.640862
LJ          -4.27299         2.28943         3.30293
LJ          -1.86568          3.9558        -6.39458
LJ           4.94191         1.58595        0.849614
LJ          -2.11521        -5.00032         6.25762
LJ          -1.04506        -3.69331         2.29304
LJ          -3.09367        0.176691         -4.2439
LJ           4.54948       -0.426758        -5.66563
LJ           3.27626      -0.0602525        0.230529
LJ           5.12148         4.32356        -3.68872
LJ           5.83461         5.15293        0.046957
LJ          -4.22079         -2.0558        -2.80233
LJ          -4.65596        -4.12826        -5.45438
LJ          -5.79984         -2.5733         -5.3125
LJ         -0.475337        -4.67465         3.36558
LJ          -1.27469         -1.3792        -4.77503
LJ           -5.6051         4.86753         1.06817
LJ          -4.41662        -4.29396         6.26411
LJ          -1.40993        -5.78182         5.89045
LJ           2.97734         6.10647       -0.893437
LJ          -2.98328        -4.63319        -5.35469
LJ           4.90511          4.3661       0.0992342
LJ           5.38396        -1.04455        -6.24376
LJ           1.62448        -6.16237        -2.62291
LJ          -5.90878         5.05908      -0.0763686
LJ           2.36602         4.78613         5.01346
LJ          -1.40599        -1.65666        -3.50557
LJ           4.29274        -1.91736        -4.65085
LJ           1.01951         5.60867         3.24505
LJ          -5.05428        -5.02703         5.94741
LJ          -6.18428        -2.19807        -2.57569
LJ           3.53172       0.0730171        -1.45175
LJ           2.61484         6.16958        0.387294
LJ          -2.85513        -2.33329        -4.98516
LJ          -3.58026        -2.20118        -3.74981
LJ         -0.969594         -6.2229        -1.36508
LJ          -3.60181        -3.63276        -5.10288
LJ              5.49          4.1679        -2.61591
LJ          -2.11571       -0.685793        -5.11195
LJ          -2.35255       -0.620976        -3.83719
LJ           3.63809         6.32282        -2.39942
LJ          -1.13376        -4.46546         6.01203
LJ          -2.12392         5.76505        -3.99792
LJ           1.36692        -6.17747         2.51545
LJ           4.62961         5.22235       -0.391069
LJ         -0.635382        -6.09474        -4.39992
LJ          -3.73417        -0.10745        -3.50943
LJ          -1.58086        -1.02461         -2.0535
LJ           1.01081        -5.04245       -0.394515
LJ          0.988114        -1.09164        -2.39422
LJ          -4.67719        -1.09313        -2.51997
LJ           -5.7148        -3.34007         5.97224
LJ           -1.3154        -5.81611        -5.22659
LJ           1.53601         5.47863        -3.96893
LJ          -2.50602        -1.74258        -4.06417
LJ          -2.20028        -3.10425        -5.61226
LJ         -0.661239        -6.41669         6.35121
LJ           -2.3139        -4.40686         5.43365
LJ          -4.55272        -2.44697        -5.71725
LJ          -1.96298        -4.11059        -5.43909
LJ          -1.36795         5.28198         6.31962
LJ           4.66411        -1.00703         4.31582
LJ           2.45719        0.989276         -2.0387
LJ          -1.68796         5.63626         -5.5838
LJ          -5.29414        -3.77575        -6.17592
LJ         -0.826598        0.870027         1.30916
