108
#Comment!
LJ          -1.07084        -6.18718         -5.8011
LJ         -0.238073        -6.35454        -3.88935
LJ          -2.13538       -0.812224        -5.00446
LJ          -1.92664        0.530333        -4.77182
LJ           1.73924         5.32526        -3.07486
LJ          -2.65076       -0.810472         5.44226
LJ           4.22229         4.47902        -2.11004
LJ          -2.57688        0.208335         6.19849
LJ          -1.72649        -2.84924        -5.19591
LJ          -2.12865        -1.79755         5.76724
LJ          -1.13044        -1.42446        -3.72109
LJ           2.91831        -6.45521         2.34607
LJ          -6.09128        -5.82449         3.62104
LJ          -4.37046         3.50984        -2.53703
LJ          -2.48796        -5.75571       -0.983342
LJ          -5.12045       -0.815291       -0.113293
LJ           1.86908        -1.56993          -6.089
LJ           3.82399        -6.35382        -6.15435
LJ            6.3172        -2.71263        -2.14319
LJ          -4.16365         1.47632        -4.85221
LJ          -2.16872        -2.81231        -2.39128
LJ          0.697335         5.52018        -5.28957
LJ           1.74019         6.13801         4.37321
LJ          0.391845         4.90478         -6.1556
LJ           5.30665         1.79939        -1.21012
LJ            3.8563         0.76671         4.07654
LJ          -2.31077        -3.37225        -4.38936
LJ          -1.99698        -5.39078         -4.2697
LJ          -3.02308        -5.54564        -3.77444
LJ          -5.95339        -1.02641        -2.01743
LJ           -2.7109        -1.66029        -4.29585
LJ           5.26308        -2.11743        -2.71433
LJ          -2.73603        -2.01015        -5.98696
LJ           -6.2994         -4.8618            4.48
LJ           1.28283        0.334858         6.21424
LJ          -3.20758         1.87324        -4.33421
LJ          -1.26556         -2.4669        -3.51784
LJ          0.267382         4.08842         3.97278
LJ          -6.06686        -2.27698        -1.11219
LJ           6.09228        -1.73039        -1.79365
LJ           4.83426        -6.05578         3.68832
LJ           -5.4502          -4.102         6.29171
LJ           2.66595         5.87557        -2.95031
LJ          -5.51773        -3.70267         2.82554
LJ         -0.666549         5.73663        -4.66573
LJ           1.10174         3.44875         3.95223
LJ         -0.140707        -6.21501        -4.99331
LJ          0.575056         3.95142          4.9336
LJ          -4.47046        -3.95707         6.16369
LJ           1.84903         5.50687         3.20039
LJ          -6.44454        -1.39096         3.28128
LJ          -6.07293        -0.61505        0.460729
LJ           6.41215         3.57995        0.626731
LJ          -4.62424         3.50576        -3.55101
LJ         -0.958298        -5.36436        -5.11838
LJ          -6.40116       -0.854105        -2.91891
LJ          0.878591         6.34044        -6.04068
LJ           5.45349        -1.09565        -2.99496
LJ           3.52192      -0.0340987        -5.97374
LJ          -4.75693        -4.98611        -6.35832
LJ         -0.438875         1.88109        -2.53689
LJ          -6.03066        -6.33624         5.77679
LJ         0.0341224         4.83591        -4.73665
LJ          -5.85363         3.54289         1.72654
LJ           5.95906       -0.725171        -2.04708
LJ           1.78922       -0.274883        -3.96342
LJ           -1.2988        -2.26668          5.0025
LJ          -1.79494        -1.02807        -6.04982
LJ           3.62558        -3.87419        -3.22449
LJ           2.46445        -4.95506      -0.0558382
LJ           4.14944        -6.36378         1.41847
LJ          -6.04577        -5.98315        -5.91832
LJ          -4.17883         2.58323        -3.14711
LJ          -5.36138         3.35586        0.752907
LJ            4.6872        -5.04859         3.19227
LJ          -1.23472        -1.99333        -5.73771
LJ          -4.25273       -0.698524        -4.77985
LJ          -1.72524         2.05667        -5.48246
LJ           -1.1932        -1.24934        -4.87831
LJ           4.20177         3.35814        -2.34773
LJ          -1.06441       0.0483441        -4.99418
LJ          -4.00305         2.88684        -4.35568
LJ           2.88168        -2.79234        -4.75654
LJ           1.35037         4.25103        -3.40483
LJ           3.14034       -0.295592        -1.04102
LJ           1.36123        -4.09553        0.795037
LJ           6.19155         5.81824        0.770326
LJ          -3.21514        0.246822        -4.97599
LJ          -2.70814       -0.472734        -5.89181
LJ          -2.95672         1.27543        -5.41524
LJ          -2.92391        -2.74298        -5.21705
LJ          -3.40951        0.366033        -6.04999
LJ          -2.10763        -1.81268        -5.17652
LJ          -3.80528        -3.61732        -6.01917
LJ          0.233963         5.80928         5.98167
LJ          -3.35784         2.95287         4.92938
LJ          -5.08063        -1.53322        -1.02328
LJ           3.84938         -6.4545         3.12275
LJ          0.795032          5.5524        -4.05241
LJ        -0.0860315         4.01112        -6.40106
LJ          -2.10433        0.644766        -5.76549
LJ           1.41139        0.366902        -2.96316
LJ        0.00043352          4.8823         5.74608
LJ           5.21318        0.732252        -1.47209
LJ           1.64111       -0.272877         2.38146
LJ         -0.326812         5.96111        -5.71212
LJ           6.42402        -0.12292       -0.872147
LJ           4.96474        -3.18607        -2.29707
