108
#Comment!
LJ          -2.36844        -5.80046        -4.58807
LJ         0.0969619         5.12551        -4.97712
LJ          -1.89035       -0.662631         -3.7366
LJ          -2.68259           1.418        -5.44551
LJ           2.39863          4.5739        -2.13161
LJ          -1.13184        -0.98471         3.90802
LJ           5.19227         5.28765        -1.29363
LJ          -2.47973         2.90091         5.26024
LJ         -0.800468        -4.78177         -4.5351
LJ         -0.754934        -1.10565         5.56074
LJ          -1.31851         -4.0116        -3.76738
LJ           3.34112         5.47294         3.14347
LJ           6.24986         5.42136         3.28227
LJ          -5.24081         3.68007        -6.23537
LJ          -3.57823         3.61578         3.58457
LJ           4.89265        -1.54154        -2.74944
LJ            3.0884        -1.76438         5.11118
LJ            2.6899         6.33792        -6.09255
LJ           5.67688        -1.93949        -2.18506
LJ          -5.61756        0.749784        -3.30687
LJ          -2.02183        -3.89775        -4.61684
LJ            1.1164         6.00846        -4.44686
LJ           2.84826        -5.84139          2.4173
LJ          -2.34455          -4.034        -3.50686
LJ           -3.0678         2.10556        -2.31089
LJ         -0.375286        -1.79344        -5.40869
LJ         -0.893043        -2.81648        -6.26065
LJ          -1.57823          6.1696        -5.53693
LJ          -2.09613        -2.17028        -4.14713
LJ           6.22477         0.13649        -1.69484
LJ            -0.892        -1.09781        -3.47033
LJ           3.28216       -0.222668       -0.637537
LJ        -0.0822873        -1.15703          6.3726
LJ          -6.27953        -3.23829         4.50592
LJ           4.87634        -3.09134        -2.39888
LJ          -5.60868         2.61646        -6.45254
LJ          -1.59341        -2.92302        -3.34535
LJ            3.1777         3.49366         4.78677
LJ           4.65675        -3.00069       -0.827249
LJ           4.60845        -1.91038        -1.71512
LJ           5.81208        -2.79633         4.01667
LJ           -5.7568        -5.65305         3.81921
LJ           3.45642         4.66154        -2.46421
LJ           5.73211          -1.868         3.46869
LJ          0.159318        -5.52462        -5.26921
LJ           1.86669         4.42999         4.94103
LJ         -0.537919         6.32164        -5.40344
LJ          0.914262         3.53853         3.46786
LJ          -5.09974        -5.00207          5.1702
LJ         -0.534324         6.18409         2.26691
LJ          -5.46314        -2.40981         5.18484
LJ          -1.83194        -3.92249       -0.356917
LJ          -5.55101         2.54673        0.791891
LJ          -4.53627         1.34152        -3.97259
LJ          -1.35552        -5.40944        -5.96571
LJ           5.47828        -2.37902        -1.23739
LJ           1.81807        -6.24749         -5.2385
LJ           3.80827        0.683733         -1.8199
LJ          0.833355         1.50755        -2.71732
LJ          -5.58945        -5.90276         5.06501
LJ         -0.491531         1.48279        -1.14285
LJ          -3.66254        -4.66868         2.71006
LJ          0.164807        -6.34671        -4.59787
LJ          -6.03455         3.28302          1.5848
LJ           5.58165        -1.04407        -1.67567
LJ           1.40145         2.57266        -4.68402
LJ          -2.66681        -1.83275         6.31217
LJ          -1.58649        -1.30705         4.91308
LJ           4.16743        -3.79569        0.313052
LJ          0.895052        -4.32996         2.02901
LJ           4.74662        -6.40399         3.45815
LJ           -5.5045         -3.8716         4.82034
LJ           -2.5704         2.24629        -4.66696
LJ          -4.42899          2.8634        0.823042
LJ           4.91663        -3.79539         3.04023
LJ         -0.605728        -4.77499        -2.91585
LJ          -3.42585         2.05066         6.38602
LJ          -3.76856         1.80227        -5.36466
LJ          -1.89735       -0.528624        -2.56482
LJ           4.00783         4.14728        -1.52178
LJ          -1.82473        -1.65915        -2.88295
LJ           -2.9217        0.972161           -6.35
LJ           6.36569       -0.638585       -0.233958
LJ           2.94935         3.60846        -2.01381
LJ           3.40111        -1.26659       -0.562106
LJ           1.77315        -5.50263         2.75778
LJ          -4.12705         2.89573        -1.79534
LJ          -4.84422         2.62707         5.61941
LJ           -2.6056         3.13035        -6.36274
LJ          -3.32076         1.37034        -4.14397
LJ          -1.00635        -2.12578         5.75265
LJ          -3.55682         3.19157        -5.62093
LJ          -1.22945        -3.92558        -5.34946
LJ          -4.80098        -6.21214         4.30976
LJ         -0.271319         4.41513         3.92637
LJ            -6.182         3.31821         5.94921
LJ            6.0588        -1.24044        -3.61814
LJ           3.65587          6.4032          3.9774
LJ          0.161152          5.8909        -3.74571
LJ          -1.16146         2.58039         3.75631
LJ          -4.43831         2.47337        -3.77816
LJ          -2.00526       0.0195236         5.65904
LJ           1.15416         5.01248          4.0586
LJ           5.02243        -1.57741        -3.98297
LJ          0.792416        -1.05212         1.03159
LJ            2.5918         6.02968        -4.97435
LJ          -5.85765        -2.09654        0.713082
LJ            4.2556       -0.281254        -1.38096
