108
#Comment!
LJ          -1.53612        -5.42943        -6.10162
LJ         -0.415356         6.01913        -4.26838
LJ          -1.45921       -0.407014         -4.5813
LJ          -2.47921           0.582        -4.60729
LJ           2.44747         4.96448        -2.70573
LJ          -2.97824        -1.59069         4.94107
LJ           4.14177         4.75082        -2.35284
LJ           -2.9791         1.05295         6.45719
LJ          -1.26635        -3.95401         -4.6788
LJ           -1.8675        -2.09557         5.57878
LJ         -0.797473        -2.10518        -3.91211
LJ           3.41824         5.66711         2.13905
LJ          -6.35892        -5.92779         3.46448
LJ          -4.33066         4.26309        -3.88438
LJ           -2.7965         6.11524        0.402067
LJ          -6.02693         -1.5068         -1.0289
LJ           2.32621         -1.8527         5.93367
LJ           1.87808        -6.01487        -6.05174
LJ          -6.39822        -2.62281         -2.3758
LJ            -4.203         1.88752        -5.21983
LJ          -2.81419        -2.61985        -3.49938
LJ               1.5         5.54892        -4.59658
LJ           2.39527        -6.16614          4.3745
LJ          -1.99424         5.17894          -5.025
LJ          -5.72089          1.8178        -2.84921
LJ           2.10336         0.66188         5.92177
LJ          -2.19519         -3.4898        -4.80093
LJ          -1.13566        -6.20414        -4.42366
LJ          -3.25716        -4.59753        -3.50819
LJ          -5.48834       -0.813861        -1.69382
LJ           -2.0432        -1.95799        -3.88842
LJ            4.0611        -1.01471        -2.16918
LJ          -1.76166       -0.806714         6.16628
LJ           6.27636        -4.99933         3.70792
LJ           2.06767         -1.4114        -5.57841
LJ          -3.55255         1.35557        -4.19696
LJ          -1.74704        -3.15835        -3.89089
LJ           1.05989          4.2959         3.83641
LJ          -6.45088        -3.15503        -1.15298
LJ            5.7952         -1.1843        -1.68225
LJ           5.22066        -5.00427         3.55508
LJ          -6.09216        -4.55262         6.05583
LJ             3.211         5.53392        -2.28868
LJ          -5.83291        -2.93324          2.8543
LJ         -0.700816         6.33031        -5.32593
LJ           1.31208         3.14217         4.39837
LJ          0.475241         6.42354        -4.88756
LJ          0.654382          4.0694         4.81246
LJ          -3.71242        -4.36905         5.74944
LJ          0.924825         5.52018         3.25748
LJ          -6.17231        -1.59781         3.85678
LJ          -4.76568        -1.65559        0.322014
LJ          -6.27749         3.06628        0.487919
LJ          -4.99919         3.03466        -3.90378
LJ         -0.253479        -5.60259        -5.41639
LJ           -6.0831        -1.51548        -2.27345
LJ           1.60563        -6.28581        -4.87037
LJ           4.56975       -0.281921        -2.76604
LJ           1.26032       0.0496615        -5.18837
LJ          -4.95235        -4.38553          5.9513
LJ         -0.459836         1.81121        -2.02349
LJ          -5.47738        -5.68614         5.05347
LJ        0.00449134         5.36114         -5.2269
LJ          -5.71723         3.45822         1.85322
LJ           4.78969        -0.87261        -1.47605
LJ           1.89247         1.02148        -4.77543
LJ          -1.75212        -1.72671         3.70261
LJ          -1.78141        -1.51527        -5.76952
LJ           3.57984        -4.14844        -2.12533
LJ           1.71356        -5.00282         1.39632
LJ           4.29663         -6.4215          2.0332
LJ          -5.29085         -5.9041         6.22568
LJ          -3.51227         3.10568        -3.93572
LJ          -5.22635         3.18474        0.956865
LJ           4.42148        -4.16181         3.64956
LJ         -0.131929        -3.11484        -4.86478
LJ           -3.8312       0.0667016         6.28258
LJ          -3.43823         2.50629        -4.91893
LJ         -0.615237       -0.978669        -4.33966
LJ           3.80301         3.69045        -1.92963
LJ          -1.02054         -0.5344        -3.45525
LJ          -5.03234         1.51581        -4.07339
LJ           4.22784         -1.5166        -3.48931
LJ           2.08458         3.80321        -2.86724
LJ           2.88102       -0.597671       -0.456409
LJ           1.59685        -4.18428        0.437329
LJ            -5.945         5.15986       -0.147702
LJ          -4.06002        0.975695           -5.79
LJ          -2.88114      -0.0297076        -5.74699
LJ          -2.87593         1.58111         -5.1359
LJ          -2.21221        -2.43096        -4.98501
LJ          -3.64745          2.1189        -6.21081
LJ          -1.11095        -2.65286        -4.83545
LJ          -4.37077        -5.12707        -6.31593
LJ          0.628024         5.20484         5.38539
LJ          -4.50934         3.16722         5.86187
LJ          -4.69161         -1.5109        -1.94841
LJ           3.26675         6.38586         2.98603
LJ          0.933386         6.32694        -3.78892
LJ         -0.354477         3.56673         5.11801
LJ          -1.55912         2.10509        -4.95375
LJ           1.79896        0.470581        -3.88202
LJ         -0.348761          4.7121          4.7509
LJ           5.88536       -0.202105        -1.85647
LJ           1.35996       -0.501928         1.99858
LJ           1.03686         5.86587        -5.73825
LJ           5.43097       -0.649728       -0.681804
LJ           4.46363        -2.21945        -2.40233
