108
#Comment!
LJ         -0.890291         6.40585        -5.21708
LJ         -0.890111         5.21026        -5.26918
LJ          -3.40666        -1.00114        -2.38712
LJ          -3.16979         4.44114        -4.77503
LJ           3.74792         3.96768        -2.42443
LJ            -3.279      0.00792301         5.80177
LJ           5.95412         4.95657        0.845814
LJ          -2.25246         2.87844         6.37062
LJ          0.331374        -4.83203        -5.67368
LJ          0.203748        -1.18763         5.55985
LJ         -0.728288        -3.66055        -4.36858
LJ           3.65919        -6.03904          3.7327
LJ          -5.05118         5.32663         3.84222
LJ          -6.16035         4.01629         5.88048
LJ          -4.67973         1.78265        -6.35519
LJ           4.51875       -0.799185         -2.1693
LJ           3.59409        -1.83864         4.41764
LJ           1.60537        -5.86545        -4.15896
LJ           5.46048        -1.76124       -0.513422
LJ           -4.1469        0.502178        -3.25764
LJ         -0.388138        -2.95443        -2.68983
LJ           1.14448         6.09894         -4.6723
LJ           1.15292         6.38766         1.75462
LJ          -2.48639        -1.86888        -2.73106
LJ           1.44939         2.59584        -1.46927
LJ         -0.387552        -2.54904         5.38841
LJ          0.240883         -1.9611         4.70914
LJ           -2.0002         4.42739        -4.31439
LJ          -1.06127         -2.0843         -2.6305
LJ           6.27802       -0.987895       0.0115497
LJ          -2.22261        -0.61827        -2.64208
LJ           3.86452      -0.0764586        0.225575
LJ          0.816455        -2.78916         5.36742
LJ          -4.47569        -3.51827         5.49187
LJ           4.04933        -2.65702        -3.07041
LJ           5.82481         3.47323         5.93414
LJ          -1.51182        -2.79463        -3.31355
LJ           3.38765         2.63639         4.93974
LJ           5.02571      -0.0488893        0.430653
LJ            5.1728        -2.34517        -1.99774
LJ           5.77067        -1.27139         4.83939
LJ           5.48617        -5.85122         3.66663
LJ            2.7608          3.5889        -1.57303
LJ           4.95801        -1.44029         4.25576
LJ           1.18516         6.45012        -3.52286
LJ           1.98173         3.64855         4.65399
LJ         -0.122322         6.32412         6.41967
LJ           2.83879         4.54779         2.52225
LJ          -5.75236         6.38671         2.00741
LJ          -1.48477        -6.34941          1.6544
LJ          -5.32457        -2.61776         5.54901
LJ           1.00972         -6.3066        -2.47866
LJ          -4.84659         2.04185        0.897852
LJ          -4.17333       -0.915803        -3.21552
LJ         -0.175607        -5.04027         6.24896
LJ           5.20064        -1.15508         0.26318
LJ          0.739271        -5.93524         5.84184
LJ           3.88576        0.167327        -1.66884
LJ          0.182646         2.43844        -1.28953
LJ           5.60565        -6.26081         2.53394
LJ        -0.0386767          1.4529        -1.40005
LJ          0.329658        -3.06612       -0.520174
LJ         0.0381619        -6.05634        -5.10927
LJ          -5.44178         2.94334         0.90593
LJ           4.16963        -1.15407       -0.252696
LJ           0.44473         4.47365        -3.09173
LJ          -3.86618        -1.89064         -3.6002
LJ          -3.42656       -0.376273         4.42112
LJ          -5.65694        -2.48476         1.52807
LJ            3.0178         5.82451         2.58629
LJ           4.25507        -5.47811         4.61386
LJ          -5.69726        -3.84309         4.64556
LJ          -4.19893         1.17571        -5.45258
LJ          -4.19213         2.92001        0.907602
LJ           5.08267        -2.88688          1.4115
LJ          -2.82321        -3.88186       -0.399943
LJ          -2.14927         3.12516         5.33871
LJ          -2.90528         1.29413         4.67608
LJ          -3.15861         0.95253        -2.63123
LJ           3.55169         5.00357        -2.89048
LJ          -1.46542        -1.83117         -3.8856
LJ          -2.14541         2.09561         4.26127
LJ           4.49015        -3.59749        0.967589
LJ           3.87097         3.92652        -1.25777
LJ           4.29823         -1.9582        -1.19719
LJ           1.09854        -5.36857        -5.93758
LJ          -5.77396         1.05468        -2.44228
LJ          -6.12164         3.28046        -6.09164
LJ          -1.15837         1.54877         4.05157
LJ          -4.96677        0.911529        -4.85439
LJ          0.773262        -0.45396         6.24269
LJ          -3.56935         2.83016        -4.41399
LJ          0.937217        -5.54504        -4.95239
LJ           6.22295         5.79241         2.05646
LJ         0.0335958         5.44557         3.29102
LJ           6.08592         4.13596         4.97075
LJ           3.81726       -0.956302        -3.13611
LJ           2.96762        -5.79887         4.58881
LJ         -0.096269         5.74396        -5.50556
LJ         -0.792222         2.02048         2.90752
LJ          -4.11399        0.238401        -5.91972
LJ          -2.22091       -0.332246         3.55564
LJ          0.554372         4.72058         3.83139
LJ            3.6058        -1.78586        -2.18582
LJ          0.198683         -1.8593       -0.253041
LJ          0.741265         6.42561        -6.00314
LJ          -6.35231        -1.95688        0.838298
LJ           3.11704       -0.710818        -2.03256
