108
#Comment!
LJ          -2.71596        -5.52309        -5.44812
LJ          -2.32823        -3.37478         6.05665
LJ          -2.01564        -2.93631        -3.46026
LJ          -3.37239        -2.64755        -2.89745
LJ          -2.62953        -1.95508        -1.86412
LJ          -3.87187        -2.68598        -4.47153
LJ           1.21161         2.86982        -3.77489
LJ           -6.2555        -3.61258        -6.34737
LJ          -3.01912        -3.75874         5.22792
LJ          -3.77355        -1.53872        -5.46427
LJ          -2.34327         6.28815         6.31947
LJ           1.81083        -5.72082        -1.30579
LJ           4.94691        -6.43386         1.73756
LJ          -2.96514         -1.3316        -2.72238
LJ          -1.31072        -4.86373         4.76833
LJ           6.10128         3.75064        -3.65423
LJ          -3.41887       -0.845561        -4.31603
LJ          -2.53964         3.28162        -3.89491
LJ          -4.22451        -1.50787         -3.7455
LJ          -5.98621        -3.17068        -3.75931
LJ           -2.4268        -3.37453        -4.49415
LJ          -3.36633         5.25872        -3.84934
LJ          -2.32642         5.15866         6.07664
LJ           4.98627         5.27389        0.768408
LJ          -3.10571         3.00689         -2.9407
LJ           2.30524        0.583017       -0.820041
LJ          -1.03314        -3.64648        -5.84615
LJ          -1.12064        -5.09951        -6.41348
LJ         -0.305207         5.21975         6.26845
LJ          -2.81386        -4.09412        -2.69408
LJ          -3.02148        -3.40583        -3.60132
LJ          -4.73907        -5.82149       -0.594155
LJ           -3.0073      -0.0253521        -3.10359
LJ          -3.46148        -3.59015        -6.30981
LJ          -3.30932        -5.72745        -4.54289
LJ           4.80958        -6.05947         3.99701
LJ         -0.123395       -0.920209        -4.90815
LJ          -3.69203        -5.96677        -5.86081
LJ          -2.50708        -1.25387        -5.48087
LJ          -2.21964         5.33412         1.80886
LJ           4.52149         6.20135        -1.06258
LJ          -3.65619        -5.39727         5.73244
LJ           2.32261        -3.31985       -0.723521
LJ          -4.23802         2.12179         3.30115
LJ           -1.8313         3.89428         -6.1066
LJ           5.01117         1.60133        0.701647
LJ          -2.26326        -4.91565        -6.35765
LJ         -0.919418         -3.2865         2.26481
LJ          -3.31748        0.261815        -4.37989
LJ           4.77082       -0.345135        -5.02512
LJ           3.28397       -0.403544        0.586814
LJ           5.10657         4.57443        -3.71986
LJ            5.6406          5.1304       -0.178729
LJ          -4.21662        -2.11614        -2.64106
LJ           -3.9895        -4.28416        -5.59753
LJ           -6.2819        -2.72239        -5.60689
LJ         -0.836541        -4.57114         3.12097
LJ          -1.33474        -1.39666        -4.45443
LJ          -6.02489          5.2023         1.24862
LJ          -4.38403        -3.99496          6.3527
LJ          -2.20954        -5.50145          5.5368
LJ           2.82962         6.04438           -1.35
LJ          -3.03039         -4.5443        -5.54323
LJ           4.92279         4.32812        0.151044
LJ           5.58802        -1.25581        -6.21227
LJ           1.78389        -6.46291        -3.00249
LJ          -5.79817          5.2131       0.0458243
LJ           1.98067         4.98802         5.28827
LJ          -1.88018        -1.70886        -3.13017
LJ           4.39348        -1.67417        -4.77355
LJ           1.22275         5.64872         3.61424
LJ          -5.54339        -4.90253         6.17508
LJ           -5.3219        -2.53108        -2.54469
LJ           3.39769        0.958417        -1.50218
LJ           2.45984         6.08433        0.251785
LJ          -2.90507        -2.50932        -5.14208
LJ          -3.13352        -1.98706        -4.02598
LJ          -0.94679         -6.4137        -1.00573
LJ          -3.51889        -3.71022        -4.82776
LJ           5.58756         4.16538        -2.69173
LJ          -1.64808       -0.642196        -5.43051
LJ          -2.59314        -1.18733        -3.74171
LJ           3.17703         6.25635         -2.2493
LJ          -1.28189        -4.05345         6.21735
LJ          -2.12161         6.37986        -3.81012
LJ           1.00771        -6.24179          2.5678
LJ           4.29953         5.28228       -0.319411
LJ         -0.573848        -6.29253        -4.94264
LJ          -4.00442       -0.385092        -3.36969
LJ          -1.59216         -1.2713        -2.28275
LJ           1.13006        -5.33895       -0.288889
LJ           1.00384        -1.01601         -2.1682
LJ          -4.62886       -0.897578        -2.66877
LJ          -5.79177        -3.73226          5.5316
LJ          -1.36478        -5.86816        -5.47142
LJ           1.64955         5.71118        -4.11639
LJ          -2.02676        -2.18459        -4.32932
LJ          -2.24493        -2.96371        -5.95351
LJ         -0.433262        -6.41883         6.01466
LJ          -2.07028        -4.49922         5.48753
LJ          -4.46655        -3.12425        -5.79205
LJ          -1.96087        -4.13895        -5.60774
LJ          -1.21376         5.84116         6.15373
LJ           4.85043         -1.3678         4.33663
LJ           2.40355        0.914657        -1.95036
LJ          -1.48012          5.3302        -5.73086
LJ          -5.27638        -3.74409        -5.90229
LJ         -0.688858         1.10642         1.02397
