108
#Comment!
LJ          -1.48796        -4.87203        -5.08269
LJ          0.424464         5.14459        -4.53563
LJ          -1.54614        -1.11108        -4.36874
LJ          -3.12659        0.740596        -4.68206
LJ           2.76033         4.80822        -2.66407
LJ          -1.83623        -2.01041         4.76956
LJ           4.23888         4.53247        -2.77651
LJ          -3.09722         2.04593        -6.29053
LJ          -1.26797        -4.04644        -4.54318
LJ          -1.89719        -1.06594         6.14287
LJ         -0.629116        -2.99243         -3.9563
LJ           3.58706         5.28692         2.57162
LJ           6.34754          6.2714          3.3146
LJ          -4.48517         3.88708        -5.37895
LJ          -3.06621         5.21726         1.57104
LJ            5.2598        -2.72483        -1.77271
LJ           2.61761        -1.82672         5.58852
LJ           1.55637         6.45618        -5.93701
LJ          -6.42527        -2.49973        -2.17633
LJ           -5.4865         2.04262        -4.97902
LJ          -2.52669         -2.8388        -4.70544
LJ           1.42302         5.53607        -4.46251
LJ           3.13623        -5.92591         3.89501
LJ          -2.65933         6.33891        -4.09844
LJ          -4.40023         1.68922        -3.20524
LJ          0.226345      -0.0785535        -5.95936
LJ          -1.85457        -2.79461        -5.63841
LJ          -1.66721        -6.18579        -4.51584
LJ          -2.89748        -3.39518        -3.53333
LJ          -5.85282         -0.4875         -1.8399
LJ          -1.80388         -2.0363        -4.08996
LJ           3.16933       -0.607654        -1.50535
LJ         -0.613791        -1.49485         6.01919
LJ           6.21678        -4.48141         3.72552
LJ            2.9534        -2.21416        -4.54073
LJ          -3.90687         1.72661        -5.18401
LJ           -1.8016        -3.38602        -3.77995
LJ           2.41563         4.41799         4.59795
LJ          -6.46042        -3.24555        -1.22664
LJ           5.17604         -1.4509        -1.59001
LJ           5.40546        -3.65498         3.56351
LJ          -5.72234        -5.13166         6.02164
LJ           3.38252         5.42998        -1.62053
LJ          -6.29171        -2.21468         2.89312
LJ         -0.359739        -6.03021        -5.59183
LJ           1.40447         3.83468         4.26586
LJ        -0.0569152        -6.26823         -4.5686
LJ          0.619315         3.05218         4.64893
LJ          -3.93494        -4.65356         5.30022
LJ          0.363166         5.81221         2.87554
LJ          -5.81693        -1.99157         4.39434
LJ          -3.66751        -2.49571        0.104616
LJ           -6.1589         2.80957         0.62669
LJ          -4.69011         2.32391        -4.14949
LJ          -0.73669         -5.2664         6.38085
LJ           -6.2531         -1.4485        -1.94378
LJ           1.66181        -6.37366        -4.86036
LJ             4.739       -0.491157        -1.97317
LJ          0.572896        0.666259         -3.8785
LJ          -4.78755        -5.39003          5.4964
LJ         -0.477979         1.72098        -1.64151
LJ          -4.74276        -5.24212         4.19669
LJ          0.617849         5.98239         -5.4759
LJ          -5.73906           3.363         1.69992
LJ           5.87072       -0.368929        -1.51727
LJ           1.81054         1.61251        -5.24503
LJ          -2.66162        -1.40784         3.83368
LJ           -1.6517        -2.01004        -6.39787
LJ           3.71868        -4.12665        -1.18158
LJ            1.0345        -4.59531         2.10743
LJ           4.18975        -6.30259         3.15532
LJ          -5.74595        -4.90825         4.89366
LJ          -3.45751         3.53638        -4.69132
LJ          -4.90809         3.06995         1.02891
LJ            4.2143        -4.08519         3.62344
LJ          0.322946        -4.06367        -4.17907
LJ          -3.46514         1.11614         5.71249
LJ          -2.93714         2.34028        -5.06955
LJ         -0.766659       -0.814945        -3.59782
LJ           3.44515         4.29779         -1.4097
LJ          -1.66622       -0.524093        -2.89833
LJ          -4.87599        0.506654        -5.07519
LJ           5.06871        0.310463        -3.04898
LJ           2.79818         3.44575        -2.55489
LJ           2.90947       -0.893413       -0.267826
LJ           1.89654        -4.76208        0.691174
LJ          -5.27622         4.42397       -0.830929
LJ          -4.62347         1.51056        -5.89983
LJ          -3.18775          0.7378        -5.95497
LJ          -2.11968         1.20225        -4.51367
LJ          -1.28615        -1.90772        -5.36115
LJ          -4.02549         2.86456        -5.71404
LJ          -1.26641        -3.06945        -4.81011
LJ          -4.59943        -5.37499        -6.28251
LJ          0.158675         4.01223         4.78403
LJ          -4.91311         3.07869        -6.16136
LJ          -5.21393        -1.35882        -2.19678
LJ           3.10568         6.24813         2.44133
LJ          0.607987         6.13081        -3.84707
LJ         -0.722669         3.53377          4.7288
LJ          -2.41932         2.73603        -4.07445
LJ            1.0801       0.0949178        -5.38515
LJ         0.0269267         5.40032         4.03528
LJ           5.62105       -0.657085        -2.73506
LJ           1.13251       -0.698356         1.66297
LJ           2.12683          5.5627        -5.32617
LJ           5.67668        -1.35366       -0.345058
LJ           3.83471        -1.66486        -1.79687
