108
#Comment!
LJ           -1.4193        -5.10229        -5.75406
LJ         0.0618775         5.41377         -4.5262
LJ          -1.56646       -0.644628        -4.72364
LJ          -2.94357        0.381721        -4.60624
LJ           2.83814         4.77154        -2.65593
LJ          -2.47922        -2.02431         4.80088
LJ           4.11381          4.6713         -2.7206
LJ          -3.11595         1.75159        -5.85214
LJ          -1.32605        -4.11358        -4.45377
LJ          -2.01491        -1.36262          5.7854
LJ         -0.422707         -2.6516        -3.91326
LJ            3.4878         5.27504         2.35622
LJ           6.44255        -6.45344          3.3392
LJ          -4.33797         4.13157        -4.73383
LJ          -2.95418         5.58588         1.09292
LJ           5.97134        -2.30239        -1.10223
LJ            2.5013        -1.84174         5.70656
LJ           1.08023        -6.29431        -5.83038
LJ           6.29992        -2.59523        -2.30924
LJ          -4.88602         2.38643        -5.20798
LJ          -2.76462        -2.89688        -4.34482
LJ            1.5165         5.45687        -4.26099
LJ           2.79756          -5.995         4.17659
LJ           -2.4774         5.75943        -4.50074
LJ          -4.81637         1.93584        -3.29419
LJ           1.07079         0.40823         -6.2081
LJ          -2.26707        -3.05821         -5.4912
LJ          -1.55927        -6.10987        -4.29801
LJ          -3.16411        -3.91895        -3.53834
LJ          -5.43291       -0.506001        -1.72428
LJ          -1.47172         -2.0351        -3.75303
LJ           3.54843       -0.840623        -1.86242
LJ         -0.956921        -1.15021         6.13143
LJ            6.3742        -4.66724         3.73117
LJ           2.59798        -1.89605        -4.94879
LJ          -3.53219         1.42782        -4.89205
LJ          -1.71699        -3.25399        -3.95613
LJ           1.84738         4.52323         4.43284
LJ          -6.39191        -3.38711         -1.2736
LJ           5.24357        -1.78791        -1.94401
LJ            5.3907          -4.145          3.4943
LJ          -5.89331        -4.70232         6.34018
LJ           3.34419         5.55321        -1.77512
LJ          -6.07808        -2.39176         3.06491
LJ         -0.458821        -6.39928        -5.57091
LJ           1.51516         3.41842         4.13687
LJ          0.122394        -6.20563        -4.62357
LJ          0.688925          3.2666         4.89099
LJ          -3.69123         -4.5095         5.54727
LJ          0.608288         5.73957         2.94103
LJ          -5.98018        -1.92585         3.98167
LJ           -4.1081        -2.15497        0.205295
LJ          -6.19605         2.95175        0.711444
LJ          -4.73857         2.55742        -4.21882
LJ         -0.358066        -5.37303        -6.04886
LJ          -6.16445        -1.55978        -2.25121
LJ           1.84425        -6.29143         -4.9255
LJ           4.50336       -0.392722        -2.21686
LJ          0.547407        0.383158        -4.32673
LJ          -4.82055        -4.79658         5.59594
LJ         -0.469298         1.76214        -1.79211
LJ          -4.92421        -5.51826         4.49217
LJ          0.513646         5.77197        -5.59425
LJ          -5.81745         3.35914         1.67046
LJ           5.31108       -0.571629        -1.46401
LJ           1.79213         1.18842        -5.33758
LJ          -2.26078        -1.45316         3.56674
LJ          -1.54654        -1.97057        -6.14932
LJ           3.65679        -4.14614        -1.56814
LJ           1.27342         -4.7949         1.93606
LJ           4.32777        -6.26462         2.73073
LJ          -5.77769        -5.60528          5.3423
LJ          -3.77755         3.14034        -4.55548
LJ          -4.96334         3.10338        0.965247
LJ           4.05101         -4.0879         3.66677
LJ           0.23143        -3.47609        -4.29895
LJ          -3.38104        0.887121         6.20848
LJ          -3.05129         2.46262        -5.11058
LJ         -0.704318        -1.11658        -3.71933
LJ           3.35957         3.96353        -1.79526
LJ          -1.43141       -0.382096         -2.9403
LJ          -5.11745         0.83755        -4.60718
LJ           4.69192       -0.344402        -3.50513
LJ           2.60406         3.63515         -2.5139
LJ           2.85589       -0.769244       -0.260618
LJ             1.806        -4.48596         0.46434
LJ          -5.54939         4.74278       -0.566215
LJ          -4.65564         1.33473          -5.868
LJ          -3.07152        0.232521        -5.91356
LJ          -2.39912         1.56724        -5.00679
LJ          -1.74218        -1.97794        -4.93784
LJ          -3.99962         2.41811         -5.8031
LJ          -1.25235        -2.98878         -4.8481
LJ          -4.52212        -5.31565         -6.3609
LJ          0.498899         4.64422          4.9257
LJ          -4.87496         2.99107        -6.32159
LJ          -4.80604        -1.32475         -2.0509
LJ           3.13942         6.33888         2.57091
LJ          0.831375         6.25814         -3.8561
LJ         -0.813111         3.46013         4.91488
LJ          -2.00376         2.54616        -4.47026
LJ           1.68954        0.321569        -4.76026
LJ         -0.255372         5.17219         4.34123
LJ           5.82327       -0.241107        -2.31449
LJ           1.22332       -0.617443         1.80307
LJ           1.73887         5.58968        -5.50888
LJ           5.57776       -0.874944       -0.382628
LJ            4.1478        -1.73114        -1.89866
