108
#Comment!
LJ          -2.24227        -5.84841        -4.65561
LJ          0.219067         5.48318         -4.6732
LJ          -1.89927       -0.214341        -3.61607
LJ           -2.4597         1.68073        -5.48712
LJ           2.23004         4.64731        -2.01015
LJ          -1.23625        -1.01023         3.82167
LJ           5.35359         5.35279       -0.989655
LJ          -2.08064         3.15882         5.25353
LJ         -0.842555          -5.072        -4.78197
LJ         -0.621189       -0.995177         5.51188
LJ          -1.11411        -4.30908        -3.69234
LJ           3.30297         5.70145          3.2234
LJ           6.39408         5.24722         3.28886
LJ          -5.43678         3.66318         6.39384
LJ          -3.66813         3.30585         3.97332
LJ           4.98115        -1.02335        -3.02777
LJ           3.17611         -1.7549         5.02119
LJ           2.87591          6.4372        -5.96982
LJ           5.55405        -1.93104        -2.31232
LJ          -5.42147        0.652633        -3.14036
LJ          -2.26257        -3.73498         -4.5162
LJ           1.02947         6.08503        -4.57719
LJ           2.73863        -6.05082         2.19431
LJ          -2.60768        -3.66177         -3.2454
LJ          -2.88824         2.28928        -2.22076
LJ         -0.355375        -1.95428        -5.42313
LJ         -0.802188        -2.67176        -6.37584
LJ          -1.61482         6.23391         -5.5367
LJ          -1.70426        -2.17238         -3.9829
LJ           5.78368       0.0273444        -1.38255
LJ          -1.09269        -1.01742        -3.35609
LJ           3.54988      -0.0723178       -0.556466
LJ          0.111965        -1.23544         6.44158
LJ          -6.06613        -3.08972         4.68346
LJ           5.05531        -3.08424        -2.21153
LJ          -5.85882         2.54381         6.44869
LJ          -1.51925        -3.23191        -3.43382
LJ           3.24208         3.37222         4.79536
LJ           4.27448        -2.76168        -0.73913
LJ           4.56302        -1.97253        -1.58905
LJ           5.77836        -2.66385         4.17513
LJ            -6.178        -5.54847         3.68346
LJ           3.36856         4.34575        -2.71829
LJ           5.52265        -1.70782         3.49426
LJ          0.381303        -5.72597        -5.61047
LJ           1.82598         4.41252         4.88774
LJ         -0.487282        -6.38592        -5.46248
LJ          0.980475         3.55377         3.31943
LJ          -5.01469        -5.05664         5.04989
LJ         -0.659982         6.23415         2.18497
LJ          -5.37321        -2.18475         5.35371
LJ           -1.4927        -4.18404       -0.450205
LJ          -5.45217         2.53779        0.850544
LJ          -4.58471         1.20731        -3.77008
LJ          -1.34631        -5.36446        -5.62628
LJ            5.5137        -2.48152       -0.850219
LJ           1.63935         -6.1526        -5.46237
LJ           3.65082        0.721566        -1.67065
LJ          0.854951         1.66458        -2.50148
LJ          -5.74845        -6.12908         4.67546
LJ         -0.476243         1.42978        -1.09155
LJ          -3.26939        -4.51668         2.39832
LJ         0.0243553        -6.37376        -4.43609
LJ          -5.99849         3.22136         1.49622
LJ           5.15887        -1.12898        -1.37087
LJ           1.30985         2.73807        -4.55365
LJ          -2.80917        -1.79328        -6.29337
LJ          -1.72297        -1.02929         4.93747
LJ           4.35368        -3.58376        0.401277
LJ            1.0472        -4.48128         2.01739
LJ            4.5526        -6.37806           3.518
LJ          -5.45205        -4.11276         4.74864
LJ          -2.87851         2.22944        -4.61766
LJ          -4.40836         2.84604         0.80692
LJ           4.94008        -3.75086         2.88333
LJ         -0.865149        -4.66062        -2.70346
LJ          -2.91892         2.20692        -6.26096
LJ          -3.78454         1.69795        -5.47763
LJ          -2.13747       -0.495678        -2.39506
LJ           4.15405         4.18008         -1.5598
LJ          -1.80896        -1.75869        -2.98521
LJ          -2.77794        0.975646         6.03764
LJ          -6.40138        -1.15654       -0.149402
LJ           3.13316         3.71454        -1.88329
LJ           3.65609        -1.45171       -0.838122
LJ           1.83436        -5.52967         3.19924
LJ          -4.03893         2.60673        -1.97301
LJ          -4.94359         2.66808         5.78595
LJ          -2.70055         3.29539         6.33973
LJ          -3.63338         1.32558        -4.51672
LJ            -0.465         -2.2229         5.48309
LJ          -3.50888         2.91616        -5.58563
LJ         -0.858827        -4.36677        -5.68511
LJ          -4.85783        -6.41248         4.08211
LJ         -0.190541         4.47111         3.74751
LJ          -6.43361         3.70548         5.92849
LJ           5.83132        -1.32887        -3.74067
LJ           3.68723        -6.38001         4.22185
LJ         -0.124008         5.54014        -3.68915
LJ          -1.13882         2.50679         3.60903
LJ          -4.62427         2.31124        -3.95852
LJ          -2.63486       -0.165131         5.24129
LJ           1.26239         5.09051         4.16585
LJ            4.7485        -1.65497        -4.07731
LJ          0.735602        -1.11884        0.910857
LJ           2.52552         6.01251        -5.03116
LJ          -5.70612        -2.02813        0.864223
LJ           4.47765       -0.230843        -1.36759
