108
#Comment!
LJ          -1.20931         6.18609         6.32322
LJ          -1.62048          5.1888        -5.10884
LJ          -3.84341       -0.930936        -1.94275
LJ          -3.19133         4.75479         -4.4607
LJ            4.1556         3.89809        -2.54355
LJ           -3.5326       -0.151117         5.89254
LJ           5.94521         4.43368        0.748678
LJ          -3.06282         1.40563         6.10821
LJ         -0.323486        -5.21244        -5.10015
LJ          0.861553        -1.40913         5.82907
LJ         -0.752612        -2.93161        -4.22948
LJ            3.5829        -6.26265         3.74404
LJ          -4.85246         5.40302         3.79902
LJ           6.39182         4.48279         5.97608
LJ          -5.34332         2.11979        -5.20949
LJ           3.95387       -0.507975        -1.47288
LJ           3.63639        -1.91935         4.35078
LJ           2.55959        -5.31082        -3.84439
LJ           5.37916        -1.56557        0.371837
LJ          -2.98137        0.298757        -4.06303
LJ         -0.474433        -3.12911        -3.02435
LJ           1.12157          6.2678        -5.27584
LJ           1.20446        -6.42652         1.54956
LJ          -2.23968         -1.3524        -2.81514
LJ           1.56795         3.39406       -0.729436
LJ          0.291361        -2.53159         3.92819
LJ          0.439895        -1.86977         4.95414
LJ          -2.37304         4.20301        -4.07895
LJ          -0.72575        -2.44473        -1.98214
LJ           6.23922        -2.03332       -0.078692
LJ          -2.16654       -0.498289         -1.8467
LJ           4.73395       -0.735368        0.622835
LJ          0.576674        -2.99542         5.12285
LJ          -4.13134        -3.78967         5.56303
LJ           4.27106         -2.4582        -3.52469
LJ           5.45273         3.99583         5.75154
LJ          -1.44004        -2.53388         -2.7534
LJ            3.3139         2.49492           4.913
LJ           5.23285         0.73876        0.691795
LJ           5.36349        -2.87898        -2.37847
LJ           6.12734       -0.898655         5.25517
LJ            5.2894        -5.48775         4.00642
LJ           2.70168          3.6131        -1.05714
LJ           4.83176        -1.46303         4.21499
LJ          0.594077         6.13531         -4.0738
LJ           2.18127         3.37859         4.65585
LJ         0.0109732        -5.92304        -6.08599
LJ           3.14071         3.83155          2.0827
LJ          -6.28742         5.63073        0.690295
LJ          -1.62586        -6.27895         1.54624
LJ          -5.47028        -2.81818         5.46532
LJ           1.34644         5.85982        -3.37667
LJ          -4.65538         2.02371         0.91642
LJ          -3.74022          -1.544        -3.17206
LJ          0.285813        -4.91112        -6.14995
LJ             5.963       -0.674694         1.47602
LJ          0.432058         6.12919         6.31294
LJ           3.93159       0.0370958        -2.99514
LJ           2.14885         3.16799        -1.80118
LJ           5.35573        -6.21595         2.50965
LJ          0.292089         1.03713        -1.38155
LJ            1.7591         -2.4513        -1.83936
LJ           0.15505        -6.28711        -5.12452
LJ          -5.49374         2.79503        0.671286
LJ           2.68954        -1.64802        0.966293
LJ          0.246814         5.72271        -2.72232
LJ          -4.20666        -2.36626        -3.79865
LJ          -3.32174        -0.68272         4.32333
LJ          -4.86126         -2.0691         1.33444
LJ           3.49215         6.12588         2.79218
LJ           3.92662         -5.3204         5.06266
LJ          -5.73882        -3.63928         4.75634
LJ          -4.47282        0.939742        -5.91211
LJ          -3.88878         2.89845        0.959112
LJ           5.42053        -2.80076        0.356893
LJ          -3.33142        -3.49753        0.376542
LJ          -2.32017         3.69523         5.39791
LJ          -2.75564         1.10601         4.15609
LJ          -3.36089         1.09331        -3.39883
LJ           2.93103         4.18482        -2.69562
LJ          -1.73635         -1.0571         -3.8201
LJ          -2.03288         1.92935         4.20513
LJ           3.56854        -3.66658         1.44963
LJ           3.48416         4.02427        -1.64957
LJ           4.86188        -1.11237        -1.35185
LJ           0.51477        -4.49423        -5.02401
LJ           6.10941        0.502728        -2.51747
LJ          -6.24534         3.29371         6.35338
LJ          -1.21081         1.12431         3.77827
LJ          -5.71302         1.13742         -4.6994
LJ          0.504009       -0.145926         5.91487
LJ          -3.16437         2.92043        -4.27762
LJ          0.557423        -5.71099        -4.27713
LJ           6.20099         5.92772         1.77435
LJ         -0.201685         5.56648         3.25012
LJ            6.3941         3.63951         5.17991
LJ           3.32665       -0.782129        -2.43883
LJ           2.77876        -5.62025         4.77095
LJ          0.688226         5.51389        -5.87938
LJ         -0.573817         2.02472         2.57164
LJ          -3.35102        0.593292        -6.07363
LJ          -1.83242        0.170506         3.56694
LJ          0.534088         4.61238         3.78113
LJ           3.02987        -1.74895        -1.71168
LJ         -0.213777        -2.21322       -0.819945
LJ           1.71922          5.6396         6.04809
LJ           5.92434        -1.92621         1.17133
LJ           2.51509        -0.56695        -1.43618
