108
#Comment!
LJ          -2.87829         6.44463          -4.757
LJ          -2.09238        -4.48081         6.30982
LJ           1.64549        -2.10687        -2.56395
LJ           -2.4292        -2.30928        -3.95632
LJ          -2.18141        -3.36597        -3.39356
LJ          -3.63732        -4.14812        -3.32946
LJ          -2.48883         2.25266        -5.69628
LJ           -6.3296        -2.51183         5.10011
LJ          -5.27376        -4.36297        -6.40512
LJ          -1.45316        -2.06174        -5.61643
LJ          -4.57716         -5.6082        -5.85214
LJ           2.46115         5.00489       -0.214732
LJ           3.60392         5.03711        0.307223
LJ            -3.014        -2.78111        -3.16534
LJ          -1.53921        -2.52128         6.33101
LJ          -6.08978         5.73861        -4.02927
LJ          -4.39096        -2.37461        -4.75749
LJ          -2.29986          4.6755       -0.872612
LJ          -3.12399       -0.878054        -4.93382
LJ          -2.76103         6.29758        -6.04122
LJ          -2.17608        -4.47867        -5.20932
LJ          -2.69885         6.05943         5.87095
LJ           -4.1256         6.35833        -6.23158
LJ           5.09372         5.69253       -0.907081
LJ          -1.81284         4.32487        -1.88318
LJ          0.140229         1.80455       -0.268093
LJ          -0.21925        -2.76552        -6.29469
LJ          -1.27727        -4.68045        -5.96611
LJ          -2.04538         4.58966         3.32268
LJ          -1.74102        -2.62837        -1.00123
LJ           -2.7357        -4.30898        -3.77424
LJ          -3.03554         6.41892         1.79828
LJ          -3.97506        -1.56096        -5.12956
LJ          -3.06078        -4.06667        -5.61695
LJ          -2.07296        -4.21393        -1.41951
LJ           2.48657        -2.62133         5.87495
LJ           2.93814        -2.51323        -4.78953
LJ          -3.58174        -5.79212        -5.48095
LJ          -2.73476        -3.25377        -6.23155
LJ          -2.16801        -4.80354         5.17112
LJ           2.58718          5.1148        -1.31931
LJ          -4.56917        -5.68836        -4.63088
LJ           3.96479        -6.23221        -2.00887
LJ          -3.94203        0.711816         3.28364
LJ          -2.11817        -5.68693        -4.91729
LJ           5.49458         1.81575       -0.622902
LJ          -3.02957        -4.19736         6.03637
LJ         -0.819042        -2.23765          2.9314
LJ          -3.95728       -0.721713        -4.01071
LJ          -6.17209        -1.40431       -0.909216
LJ           3.22012         -3.0811         3.28159
LJ           5.85134         5.78935         -3.5539
LJ           2.03386         4.12425        -1.72854
LJ          -3.70799        -1.89583        -3.66406
LJ          -3.75059         -4.8829         6.39798
LJ           5.83191        -3.58259         5.83703
LJ          -3.06805        -1.67061         1.07101
LJ           -3.5025        -1.87844        -6.05422
LJ           4.30924        -6.40316        0.969005
LJ          -3.98282        -4.77202        -5.45593
LJ          -3.53236         6.00984         4.97726
LJ           1.43691          5.5185         -1.9009
LJ          -2.74794        -5.05012        -5.96932
LJ           5.20533         5.54093        0.507901
LJ            5.5621        -2.81296        -4.21139
LJ          0.994611          5.5201         5.37821
LJ           5.40586          4.7731         1.47914
LJ           3.61633        -6.03201        -5.26118
LJ          -1.24002        -2.98251        -3.68918
LJ          -5.83476        0.976756        -6.10894
LJ           1.45352        -5.96052         5.88873
LJ            6.2273        -1.57912         5.92968
LJ           -2.8181        -5.13934        -3.06762
LJ           1.36195         3.34064        -2.42118
LJ           3.48603         4.93623       -0.805296
LJ          -2.50284        -3.44121        -4.35519
LJ          -2.54559        -1.66117        -5.31948
LJ         -0.564325         4.97768         2.03179
LJ          -3.13884        -4.84478        -4.84547
LJ           6.19677         4.64684        -3.46576
LJ         -0.892766        0.972095        -5.49628
LJ          -1.93392        -1.31667        -2.32222
LJ           4.68509        -5.75202        -1.11694
LJ          -1.32547        -3.84329        -5.23632
LJ         -0.757776        -2.10758        -4.31627
LJ          -2.30253          3.9321          4.6668
LJ            5.6591         6.15771         1.58764
LJ          -0.97997         -4.3906         5.84494
LJ          -3.22974        -2.17232        -4.59442
LJ          -2.93269        -1.76321        -2.58381
LJ          0.817135          6.1644       -0.168497
LJ           1.39639        -1.07026        -1.46005
LJ          -5.19327        0.286524        -4.35215
LJ           -5.1494        -4.19449         5.02249
LJ          -1.18016        -4.80882        -4.52652
LJ           1.67934         5.78053         6.22741
LJ          -2.05734        -2.72221        -5.03131
LJ          -3.31527        -2.97082        -5.26013
LJ          -1.30084        -5.87707        -6.14416
LJ         -0.846454        -6.41116         3.90616
LJ          -3.79837        -3.73802         -4.9799
LJ          -1.47774        -3.59124         -6.3328
LJ          -3.24055         -5.8421         6.36684
LJ          -5.78623        -3.08287         6.23745
LJ            0.2809        0.524582       -0.152008
LJ          -2.58932        -6.12239         5.08652
LJ          -3.87658        -4.73838         4.54434
LJ          0.728196         2.28949        -1.14803
