108
#Comment!
LJ        -0.0683576        -5.73597         5.88428
LJ          -2.33429         5.51246        -5.36722
LJ          -3.42285       -0.765208        -1.64309
LJ          -3.15334         4.59102        -4.14815
LJ           3.48314         4.20305        -2.24968
LJ          -3.40455       -0.256678         6.27997
LJ           5.98661         3.84947         1.25711
LJ          -4.31956        0.366814         4.25308
LJ         -0.623087        -5.44733        -5.39251
LJ           1.08776        -1.61896         5.61673
LJ         -0.782347         -1.9344        -3.01631
LJ            3.9826        -6.12288         4.18732
LJ          -4.68531         5.47022         3.75029
LJ            6.3934         4.47313         5.84436
LJ          -5.27346         2.59262        -4.75723
LJ           2.57224       -0.232331        -1.26772
LJ            3.9579        -1.92852         4.15456
LJ           2.90395        -5.17076        -3.71444
LJ           6.32285        -2.61428        0.243629
LJ          -2.06103        0.415018         -4.6743
LJ         -0.426156        -3.48866        -3.34676
LJ          0.707243         5.66554        -5.73055
LJ           1.25125        -6.35856         1.41871
LJ          -1.87042       -0.622859        -2.64672
LJ           2.06457          4.1311        -1.22172
LJ           1.70044        -2.29889         4.20446
LJ          0.299139        -1.81423         4.89107
LJ           -2.2166         4.37251        -3.48519
LJ         -0.401302        -2.54413        -2.14425
LJ           6.40894         -2.8028       -0.800045
LJ          -2.62164       -0.219115         -1.0418
LJ           4.65143       -0.882093         1.42425
LJ          0.833994        -2.55681         3.69716
LJ          -4.31416        -3.88128         5.43477
LJ           4.21759        -2.46093        -3.91103
LJ           5.53464         3.97504          5.5373
LJ          -1.19742        -2.95914        -2.86642
LJ            3.3626         2.29481         4.88418
LJ           5.52927        0.821095         1.10284
LJ           5.74979        -3.06155        -2.14432
LJ           5.94181       -0.782601         5.21839
LJ           5.15376        -5.25411          3.5781
LJ           3.26862         4.28844      -0.0818159
LJ            5.1549        -1.34208         4.77553
LJ          0.969881         6.34704        -4.31862
LJ           2.20937         3.24268         4.57269
LJ          -1.09797        -5.54136        -6.35026
LJ           3.51414         2.77415         1.43637
LJ           5.40293         5.25986       -0.160208
LJ          -1.73491        -6.22196         1.46042
LJ          -5.47873        -2.86566         5.55039
LJ           1.95738         4.97741        -4.68172
LJ           -4.5343         1.84882         1.00062
LJ          -4.35259        -1.64637        -3.27798
LJ           0.34822        -5.43311        -6.04692
LJ           6.24268        -1.44248         1.48536
LJ         -0.307695        -6.20137        -6.07014
LJ           4.06338        -0.37914        -3.19616
LJ           2.90851         2.74632        -2.35992
LJ           5.65387         6.26524         2.84231
LJ          0.933399        0.625913        -1.39622
LJ           3.37681        -1.94217        -3.64624
LJ          0.333384        -6.08729         -5.0945
LJ          -5.04866         2.81738        0.537145
LJ           1.70027        -2.34099         2.48531
LJ        -0.0738644        -6.27072        -2.48823
LJ          -4.20971        -2.71754        -3.99191
LJ          -2.99118        -1.31797         4.16582
LJ          -4.41612         -1.7021        0.774363
LJ           3.95576         -6.3102         2.95207
LJ             2.794        -5.88123         4.40327
LJ          -5.45193        -3.71819         4.88908
LJ           -4.8404         1.19155          6.3777
LJ          -4.06068         2.94404        0.832542
LJ           5.26482        -2.39006       -0.113838
LJ           -4.2994        -2.51537          1.4216
LJ          -2.55231          3.9092         5.51973
LJ           -2.5392         1.09941         3.93236
LJ          -3.00066        0.534338        -4.07673
LJ            2.7003         3.25283        -3.40399
LJ          -2.25302       0.0228148        -3.58607
LJ          -1.40018         2.53591          4.3076
LJ           2.42056        -3.12622         2.08273
LJ           4.33938         4.61987       -0.488683
LJ           4.66127        0.242645        -1.00719
LJ          -0.28709        -4.69781        -4.51869
LJ           5.15038       -0.235453        -2.51227
LJ            6.3073         3.32271        -6.08968
LJ          -1.32741         1.47292         4.04566
LJ          -6.15205        0.662022        -4.49391
LJ          0.176143       -0.742309         5.24021
LJ          -3.08592         2.88405        -4.44076
LJ       -0.00820883        -5.63935        -4.04143
LJ           5.79411         5.88412        0.805353
LJ         -0.308135           5.579          3.2682
LJ           6.33359         3.89017         4.79011
LJ           3.02938       -0.928839        -2.45652
LJ           2.85516        -5.12805          5.5683
LJ           2.73485         4.27085        -5.94168
LJ         -0.399542         1.94678         2.23117
LJ          -3.86073        0.509524        -5.49166
LJ          -2.10389       -0.385032         3.28463
LJ          0.491373          4.6284         3.68813
LJ           2.57392        -1.37492        -1.29147
LJ           -0.2607         -2.5844        -1.10872
LJ           1.62378         4.89083        -6.02045
LJ           5.81547       -0.524234         2.52182
LJ           2.47981       -0.162009        0.166184
