108
#Comment!
LJ          -2.01744         6.25789        -3.83097
LJ         -0.814004          -5.279        -6.34792
LJ          -1.47514        -2.14137        -5.92656
LJ           -2.1652         1.20169        -3.85926
LJ          0.700576        -5.76043        -5.27052
LJ          -3.69188       0.0425388        -5.92061
LJ            4.1018         3.17513        -2.15298
LJ          -4.78699        0.149082        -5.51058
LJ          -2.51177        -2.69444        -5.89711
LJ          -2.66672        0.297681         6.30985
LJ         -0.457914        0.970052        -4.37579
LJ             2.254        -5.70521         2.09034
LJ           6.08687        -5.74156         4.38623
LJ          -3.94868        0.686523        -3.65371
LJ          -2.23332        -3.51598        -4.85029
LJ           6.13484        0.959275       -0.753574
LJ          0.224627       -0.536531        -2.58577
LJ           6.28259         4.70336        -6.19535
LJ           6.04691        -2.23152        -1.66796
LJ          -3.56921           1.272        -4.79478
LJ         -0.843673        -2.26121        -4.07914
LJ          -1.20673          5.1993        -3.65148
LJ           1.65051          4.1158         5.34645
LJ            3.0448        -5.25598         2.75537
LJ          0.929211        0.959781         2.72228
LJ           6.17938         2.00491         1.20465
LJ          -1.98969          -1.107        -2.76538
LJ          -2.95646        -5.15356        -3.25916
LJ          -2.25592        -5.37918        -4.29269
LJ          -6.00789        -1.54296        -1.86899
LJ          -4.93565       -0.926531        -5.70338
LJ          -4.41819        -3.18443         -1.7491
LJ          -2.58278       -0.105924        -5.57661
LJ          -3.72682        -4.29943        -5.98654
LJ          -0.21014         5.72577        -6.22641
LJ          -1.82032          2.9422        -4.43186
LJ          -1.76344        -1.94945        -3.50141
LJ           1.20883         4.67183         3.80164
LJ          -5.73697        -2.86648        -2.03242
LJ          -5.35039        -2.07218        -1.30362
LJ           3.42333        -6.36965         3.45924
LJ          -5.18776        -3.38907        -5.19847
LJ           1.43087         4.96665        -2.44104
LJ          -4.89415        -5.87779           3.038
LJ         -0.741898         6.20775        -3.97503
LJ        -0.0845774         4.62115         4.54308
LJ         -0.404111         5.70026        -4.89903
LJ          0.679658         3.28174         5.73851
LJ          -3.93774        -2.75175        -4.72541
LJ           3.04813         4.99885         1.92528
LJ           5.88332       -0.841053         1.55436
LJ           5.76495         1.36329        0.337485
LJ           6.13055         4.78004        0.718358
LJ          -4.07945         0.53486        -2.52817
LJ         -0.730183         6.43654        -5.56142
LJ           -5.9358        -0.67744        -3.83644
LJ           1.06233         5.91327         5.77059
LJ          -6.40501        0.587895        -3.58906
LJ          -5.05358        -0.78591         5.38756
LJ          -4.77363        -4.77705        -5.94775
LJ         -0.676553         2.35617        -4.58161
LJ          -6.21569         -6.0329        -4.37678
LJ           -2.0656         4.66962        -4.46676
LJ          -6.26562         4.05132         1.53815
LJ           6.08687       -0.284642        -2.95559
LJ          0.987381        -1.80301        -1.79813
LJ           -1.4783        -4.49106         -4.7823
LJ          -2.88873          1.0919        -5.69329
LJ           4.97995        -2.05046        -5.54545
LJ           2.18266        -4.16332       -0.416092
LJ           5.22208        -6.27026         2.88486
LJ           -5.9145        -4.99442        -5.76311
LJ          -2.99377         1.27519        -3.26627
LJ          -6.27309         3.94619        0.258532
LJ           5.37983         -5.3237         3.34444
LJ          -1.01245        -3.45263        -5.33526
LJ          -5.39088      -0.0828116        -2.96754
LJ         -0.790359       -0.567032         4.33473
LJ          -1.80596        -3.40375        -6.36019
LJ           4.91973         3.47745        -2.78277
LJ            1.2887        -4.97305        -5.94174
LJ          -2.66584         1.95162        -4.66892
LJ         -0.535435        -4.94473         5.38034
LJ         -0.154521         5.37116        -3.36636
LJ           5.12921         0.38574        -2.88529
LJ           3.19475        -4.79704        -1.30528
LJ           3.46952          6.4243         2.07408
LJ          -5.30929        -1.21307        -3.07146
LJ          -3.16204       -0.438791        -4.81277
LJ          -3.00687        0.551906        -4.16222
LJ          -3.55042        -3.20017        -5.69282
LJ          -4.25844        -1.01748        -4.64707
LJ          -2.07329        -2.47595         -4.8022
LJ          -4.76272        -1.84751        -5.07848
LJ         -0.973263         4.87032        -5.63719
LJ         -0.280924         2.23745         2.90103
LJ          -4.73386        -1.11323        -1.69236
LJ           4.50791          6.2532         1.61038
LJ          0.565577          5.2932           5.169
LJ          -0.79254         4.33055        -4.34928
LJ          -4.15575        0.302838        -4.70742
LJ          0.511759        -1.99176        -3.19838
LJ          0.798693         4.38926         5.95184
LJ          -5.89211        0.281815        -1.99965
LJ           2.29286         0.47935         3.16791
LJ          -1.44051         5.56208        -4.83256
LJ          -5.58053       -0.789247       -0.983087
LJ          -5.26406        -3.84097        -1.34422
