108
#Comment!
LJ          -2.64932         5.92275        -5.12359
LJ          -2.95727        -4.18383        -6.10426
LJ           2.39578        -1.91604        -1.85982
LJ          -1.73052        -2.44407        -3.74086
LJ          -1.41389        -3.61853        -3.59342
LJ          -3.66048        -3.88233        -3.48571
LJ           -3.2512         2.02145        -6.12465
LJ             -5.97        -2.76138          5.4876
LJ              -4.9        -4.28217        -6.08656
LJ          -1.90051        -1.34046        -4.43739
LJ           -4.4131        -5.53448        -6.08492
LJ           2.76093         5.04672       -0.537299
LJ           4.05105         5.28865         0.15669
LJ          -2.75437        -3.35482        -3.64065
LJ         -0.970391        -2.93389         6.45727
LJ          -6.02102         6.05373        -3.97762
LJ          -3.82406         -3.4298        -4.61057
LJ          -1.93312         5.32322       -0.681702
LJ          -3.19725       -0.939101        -5.24828
LJ          -2.30551        -5.69896        -6.19329
LJ          -2.48734        -4.94098        -5.10691
LJ          -2.77148        -6.37353         4.88041
LJ          -4.14761         6.24116        -6.14346
LJ           4.87381         5.77807        -1.02152
LJ          -1.82196         4.29352        -1.19157
LJ      -0.000131371          1.8996       -0.571046
LJ         -0.227242        -2.28196          5.9971
LJ         -0.801854        -4.14539        -5.68605
LJ           -2.2718         4.84022         3.46268
LJ          -2.04347        -2.25492        -1.02386
LJ          -1.97445        -4.91402        -3.77977
LJ          -2.52729         6.39793         2.33465
LJ          -4.26764        -1.70956        -4.81169
LJ          -4.03211         -3.6811        -6.02515
LJ          -1.13332        -3.07896       -0.700078
LJ           1.99584        -1.86527         6.31308
LJ           3.94981        -2.79429        -5.07634
LJ          -3.57191        -6.33444        -5.18311
LJ          -2.49589        -3.33381         6.00777
LJ          -2.29739        -4.92793         5.86531
LJ            2.2628         4.30698        -1.29927
LJ          -4.67771        -5.48904        -4.70756
LJ           5.08917         6.38482        -2.21371
LJ          -3.87562        0.399652         3.28047
LJ          -2.96441        -5.81623        -4.52491
LJ           5.59303         1.88209       -0.918378
LJ          -3.34059         -4.4052         5.33822
LJ         -0.935664        -2.12952         3.08626
LJ           -3.2868        -1.18474        -4.19316
LJ          -5.70012        -1.64868      -0.0986065
LJ           3.20345        -3.67004         3.88723
LJ           5.94251         6.10127        -3.42122
LJ           1.35845         4.08594        -2.32567
LJ           -3.2999        -2.41733        -4.20077
LJ          -3.62026        -4.95409         6.35644
LJ           5.87439        -4.12348         5.94384
LJ           -3.4225       -0.948112        0.648833
LJ          -3.82442        -2.49206        -5.47829
LJ           4.25544         6.41491       -0.206601
LJ           -3.9463         -4.6458        -5.35818
LJ          -2.90915         5.90205         3.97977
LJ           1.49702         5.66378         -1.5974
LJ          -3.27452        -5.48754        -5.62376
LJ           5.19153         5.85397        0.842439
LJ           5.16717        -2.58495        -3.48939
LJ           1.00918          6.0157         4.24808
LJ           5.27602         4.68938         1.83089
LJ           4.13458        -5.79391        -4.47179
LJ         -0.645046        -2.78777        -3.97212
LJ          -5.11052         1.43512        -6.27731
LJ           1.34007        -6.27911        -6.40802
LJ             5.951        -1.66669         5.58204
LJ          -2.83358         -5.3759        -3.05776
LJ           0.70357         2.77997        -2.68539
LJ           3.75448         4.83766       -0.902706
LJ          -2.73233        -3.92904        -4.52168
LJ          -2.45523         -2.0132        -6.04446
LJ         -0.536624         4.66053         2.77297
LJ          -3.17323        -4.80342        -3.88839
LJ          -6.44878         4.92434        -3.79645
LJ         -0.914023         1.36565        -5.47343
LJ          -2.71579        -1.59141        -1.63085
LJ           4.59454         -5.2434       -0.914864
LJ          -1.87673        -3.88973        -5.07054
LJ         -0.466151       -0.293401        -4.20006
LJ          -3.52727         3.05973         4.44997
LJ           4.63814         5.58835         2.03493
LJ          -1.71276        -4.10656         5.95955
LJ           -2.7281        -2.23473        -5.07198
LJ          -3.03529        -2.31278        -3.05566
LJ         -0.102825         5.91092        0.566001
LJ           1.29058        -1.20676        -1.52311
LJ          -5.23953         0.36876        -5.20685
LJ          -5.04326        -4.45869         5.16269
LJ          -1.10359         -4.1783        -4.44619
LJ           1.64353         5.94728         5.22084
LJ          -1.78157         -2.8439        -4.98613
LJ          -2.93861        -3.19892         -5.5381
LJ          -1.74122        -4.56799        -6.03434
LJ         -0.668273         5.90811         3.74013
LJ          -4.27633        -4.50501        -4.12804
LJ          -1.90382        -3.55181        -6.08949
LJ          -3.47779        -6.01303         6.37161
LJ          -5.21115        -2.33527         6.29858
LJ         -0.371868          1.3211        0.313901
LJ          -3.37033        -5.95282         3.98704
LJ          -3.72965        -4.90941         3.66587
LJ           1.07347         2.05779        -1.35681
