108
#Comment!
LJ          -1.38383        -5.65669        -6.08155
LJ         -0.257297         5.96827         -4.0381
LJ          -1.64161       -0.286193        -4.46548
LJ          -2.30101         0.57469        -4.66327
LJ           2.23893         4.98075        -2.75792
LJ          -2.91437        -1.42104         5.12164
LJ           4.25047         4.65388         -2.2929
LJ          -2.84872        0.788576         6.30876
LJ          -1.06533        -3.58932          -4.594
LJ          -1.92463        -2.14566         5.57789
LJ          -1.12267        -1.83717         -3.8395
LJ            3.2869          5.8505         2.09986
LJ          -6.19911        -6.00794         3.46312
LJ          -4.40181         4.12058        -3.51758
LJ          -2.72485         6.35892       0.0831604
LJ          -5.74695        -1.40717       -0.720781
LJ           2.21891        -1.81134         6.15919
LJ            2.4689        -6.05265        -6.17321
LJ          -6.22849         -2.6621        -2.43411
LJ          -4.21221         1.53327        -5.15975
LJ          -2.73624        -2.70427         -3.1359
LJ           1.30412         5.65591        -4.60296
LJ           2.23917        -6.27419         4.39469
LJ          -1.66797           4.998        -5.25406
LJ          -6.14118         1.86209        -2.47376
LJ           2.51433        0.693397         5.48215
LJ          -2.46614        -3.63559         -4.7178
LJ          -1.24879        -5.84603        -4.47953
LJ          -3.24555        -4.84194        -3.53566
LJ          -5.52156        -0.69742        -1.76601
LJ          -2.11443        -1.93298        -4.19487
LJ            4.1697        -1.37336        -2.55946
LJ          -2.26339       -0.882825         6.20305
LJ           6.16676        -4.75598         3.82433
LJ           1.82008         -1.1634        -5.96538
LJ          -3.56206         1.58648        -4.27899
LJ          -1.67215        -2.89337        -3.83916
LJ          0.722044         4.28267         3.48637
LJ          -6.44568        -2.93488       -0.999303
LJ           6.00947        -1.44971        -1.44782
LJ           5.04371        -5.39729         3.58391
LJ          -6.04071        -4.69737         5.89545
LJ           3.10836         5.74684         -2.4224
LJ          -5.74175        -3.11885         2.82487
LJ         -0.653644          6.2655        -5.31276
LJ          0.984455          3.1906         4.64358
LJ          0.440061         6.30065        -4.85893
LJ          0.886339          4.2743         4.65163
LJ          -3.72859        -4.24203         5.78884
LJ           1.09261         5.29976         3.51215
LJ           -6.2432        -1.52497         3.73652
LJ          -5.10657        -1.41916        0.320768
LJ          -6.32112         3.15509        0.472978
LJ          -4.92182         3.21175        -3.86795
LJ          -0.56205        -5.58634        -5.18236
LJ          -6.03693        -1.35534        -2.45194
LJ           1.44952        -6.24751        -5.24602
LJ           4.76354       -0.368353        -2.84291
LJ           1.88862         0.07945        -5.43042
LJ          -4.96214        -4.51198         6.09657
LJ         -0.456182          1.8306        -2.13566
LJ          -5.76002        -5.57603         5.42196
LJ        -0.0446915         5.19299        -4.98877
LJ          -5.74591         3.50874         1.93334
LJ           4.81771       -0.722091        -1.62647
LJ           1.87361        0.921005        -4.61908
LJ          -1.57478        -1.86442         3.87416
LJ          -1.98307        -1.45936        -5.43246
LJ           3.55137        -4.13479        -2.38358
LJ           1.93709        -5.02595         1.00817
LJ           4.29776        -6.45465         1.78755
LJ          -5.49505        -6.08009          6.4154
LJ          -3.54115          3.0667        -3.63351
LJ          -5.26767         3.20287        0.856665
LJ           4.69656         -4.2875         3.62996
LJ         -0.308915        -3.07695        -5.11686
LJ          -3.96058      -0.0358011        -6.42812
LJ          -3.32902         2.50099        -4.68555
LJ         -0.500186        -1.18896        -4.84569
LJ           3.89909         3.57615        -2.01082
LJ         -0.978628       -0.612114        -3.64431
LJ          -4.68595         1.91324         -4.1647
LJ           3.94531        -1.89578        -3.54631
LJ           1.90553         3.87178        -3.00452
LJ           2.92311       -0.525544       -0.578715
LJ           1.48606        -4.12355        0.567975
LJ          -6.12715         5.33165       0.0567604
LJ          -3.72957        0.616846        -5.59342
LJ           -2.8104        0.166623        -5.69751
LJ          -2.91972         1.46621        -5.38716
LJ          -2.30944        -2.53068         -5.0586
LJ          -3.57685          1.6357        -6.20498
LJ          -1.14432        -2.29218        -4.95623
LJ          -4.07402        -4.70822        -6.15275
LJ          0.391361         5.40545         5.47695
LJ          -4.25414         3.13923         5.62668
LJ          -4.86941        -1.64073        -1.90776
LJ            3.3716         6.40422          3.1249
LJ          0.744721         6.15343        -3.77784
LJ         0.0214109         3.46194         5.24875
LJ           -1.6188         1.80776        -5.19716
LJ           1.68085        0.378657        -3.46724
LJ         -0.296297         4.76399         5.03758
LJ           5.73194        0.141467        -1.62732
LJ           1.42423          -0.449         2.08709
LJ          0.780755         6.04841        -5.89954
LJ           5.71057       -0.509214        -0.79704
LJ            4.5313        -2.47585        -2.51399
