108
#Comment!
LJ          -1.94286         5.90792        -4.25564
LJ          -1.53295        -4.77594        -6.28986
LJ          -2.08712        -2.95134        -5.48506
LJ          -1.68757       -0.544483        -3.73921
LJ          0.105039        -4.03404        -4.13341
LJ          -3.80835        -1.00439        -5.53489
LJ           4.23026         2.70483        -2.30537
LJ          -4.89074      0.00779389        -6.14111
LJ          -3.13707        -3.00238        -5.61965
LJ          -3.66113       0.0018698        -6.05766
LJ         -0.232945         1.93399         -5.0191
LJ           1.97187        -5.70735         1.84461
LJ           5.53479        -5.95753         4.18973
LJ          -3.87085        0.597307        -3.26476
LJ          -1.74946        -3.05201        -4.26245
LJ           5.28439         1.29584       -0.999323
LJ         -0.535687         -0.7332        -2.16035
LJ          -6.29364          4.0602         -6.1639
LJ          -6.28945         -2.3066        -2.11543
LJ          -3.36627        0.868015        -4.22564
LJ          -1.66599        -2.01239        -5.26123
LJ          -1.29821          5.4397        -3.33173
LJ           1.49483         4.64083         4.86803
LJ           3.63845        -4.90956         1.60202
LJ          0.179999        0.631386         4.09962
LJ           5.87997         2.72177        0.578767
LJ          -1.83737        -1.91012        -3.21851
LJ          -2.53432        -5.10862        -3.33677
LJ          -2.10702        -4.20005        -4.46749
LJ          -6.38647        -1.35494        -2.52776
LJ          -5.54266        -0.66261        -5.39912
LJ          -4.36993        -2.45439        -1.51176
LJ          -2.55345        0.393135        -5.59084
LJ          -3.81121        -4.29838         6.09144
LJ           -1.0803         4.93341        -6.38068
LJ          -2.44967         3.29396        -4.39507
LJ          -1.66324        -1.66119        -4.33189
LJ          0.856338         4.48442         3.81604
LJ          -5.24927        -2.39778         -1.9962
LJ          -5.21111         -1.7077       -0.987919
LJ           3.21615        -5.84498         3.42498
LJ          -4.45304        -3.08673        -5.60923
LJ           1.22528         4.49475        -1.79497
LJ          -4.78203        -6.41683         3.08578
LJ          -0.65272         5.75857         -4.1164
LJ          0.608331          3.5129         4.14526
LJ          0.159893         5.15784        -4.54135
LJ        0.00837442         3.51285         5.69245
LJ           -3.3182        -1.47849        -4.70153
LJ           2.87935         4.50929         2.00725
LJ           5.72894       -0.551246        0.935766
LJ           6.36101         1.87214       0.0618187
LJ           6.08549         5.05171        0.873363
LJ          -3.76359       -0.652029         -2.5245
LJ         -0.852994        -6.29604        -4.87574
LJ          -5.19843       -0.108171        -3.71431
LJ           1.38193         6.32091         5.83845
LJ          -6.12324        0.438288        -4.22452
LJ          -3.57092        -0.94461         5.50736
LJ          -4.53515        -4.01639        -6.16526
LJ         -0.378415         3.22853        -5.42615
LJ          -6.34783         -5.6988        -3.86485
LJ          -1.91623         4.67295        -4.05839
LJ           6.43941         4.09761         1.33525
LJ          -6.20245        0.673785        -3.14702
LJ          0.963913        -2.68491        -1.41199
LJ          -1.01828        -4.02988        -4.50813
LJ          -3.52646         2.02043        -5.07684
LJ           5.47383        -1.48509        -6.17632
LJ           2.70793        -4.68743       -0.496872
LJ           5.52223         5.95873         3.44367
LJ          -5.47372        -5.10708        -4.73938
LJ          -2.85222        0.753463        -2.79417
LJ           6.22052         4.01476        0.212575
LJ           5.16058        -5.79089          3.2507
LJ          -1.29896        -3.73985        -5.69161
LJ          -5.89144       -0.394811        -2.69993
LJ           -0.8825        -1.22589           3.578
LJ          -2.88889        -4.17319        -5.68849
LJ           4.99082         3.55413        -2.74358
LJ           1.52197         6.13877        -5.74012
LJ          -2.82743         2.07246        -4.11927
LJ          -1.38425        -5.24506         4.37054
LJ         -0.451413         6.19656        -3.18016
LJ           5.56821        0.148262        -3.01541
LJ           3.15581        -4.27835        -1.87416
LJ           3.31337        -6.32493          2.1395
LJ          -3.97556        -1.57069        -3.65993
LJ          -2.73168        -0.82564         -3.5477
LJ          -2.58196        0.407966        -3.73431
LJ          -3.07902        -3.10551        -4.45073
LJ          -4.58644        -1.12366        -4.75381
LJ          -2.53961        -2.18036        -4.70389
LJ          -4.52946        -2.00899        -5.51909
LJ            -1.521         4.37172        -5.46955
LJ          0.858528         1.72456         2.46547
LJ          -4.52436        -1.87652        -2.72992
LJ           5.00894        -5.25049         1.76186
LJ         0.0723829         5.66009          4.7202
LJ         -0.859251         4.80801        -4.60331
LJ          -3.58795       -0.486782         -4.3134
LJ         -0.677573        -1.88902        -2.86716
LJ         -0.229458          4.4311         6.11764
LJ          -4.87841        0.316544        -1.15331
LJ            1.7523         1.05898         3.05652
LJ          -1.73971         5.61704        -5.29889
LJ          -5.44794        -1.24881        -1.93954
LJ          -4.51108        -3.28686       -0.428744
