108
#Comment!
LJ          -2.14424        -4.49981        -5.15971
LJ          -1.95424        -3.60344        -5.66549
LJ          -4.79851         1.46998        -2.95203
LJ          -2.86426        -3.53182        -3.40464
LJ          -1.76074        -6.22678        -3.64782
LJ          -1.07756        -1.94323        -3.38444
LJ           1.47397       -0.911632         4.20439
LJ          -5.29963        -2.87703         5.94363
LJ          -5.32647        -2.94646        -5.92005
LJ           5.74948        -2.06124        0.934978
LJ          -4.73458         4.45983         -5.1308
LJ          -1.18046          2.8542        -1.28567
LJ           5.35474         6.07669         2.55847
LJ          0.263247        -2.57166        -3.88294
LJ          -1.97371        -5.48632        -4.95203
LJ          -3.61061        -5.69368        -2.25331
LJ          -2.07826        -1.60688        -4.49106
LJ           1.36039         6.06683         3.33721
LJ          -2.70881        -5.68433        -3.57206
LJ          -2.77087        -2.96291         5.25543
LJ          -1.13498        -4.57297        -4.51692
LJ           4.61099        -1.71371        0.326167
LJ          -1.14185        -4.89239         -5.7115
LJ           3.32394         6.12898       -0.555177
LJ          -1.74651         -5.9062        0.176071
LJ          0.303685         0.73481        -1.19406
LJ           -3.5595        -3.79439        -5.16066
LJ          -2.75169        -4.01527         5.86792
LJ          0.476648         5.69594         3.88383
LJ           5.11829         3.92828         5.28822
LJ         -0.428111        -3.89842         3.71809
LJ          0.171326        -3.57505        -2.68783
LJ          -3.00311        0.497518           1.551
LJ          -3.74076        -2.04537        -5.28815
LJ            4.1183         2.91743         4.92388
LJ          -3.40542        -6.26469        0.609561
LJ          -3.89928         5.85059        -6.43807
LJ            5.1625        -5.78005        -1.25243
LJ          -3.68597        -3.32046        -6.18883
LJ          -2.85897        -4.49258        -5.97826
LJ         -0.107517         1.88064        -2.40961
LJ          -3.78423        -5.70422        -4.22079
LJ          -2.44019        -6.37271        -5.90184
LJ          -4.54588        -3.83041          5.5398
LJ          -3.09043        -4.34252        -4.26529
LJ           5.99805         2.42836        -4.43538
LJ          -2.78472        -3.10097        -5.73615
LJ          -1.82296        -4.36244        -6.31495
LJ           2.48497        -1.35323         5.79581
LJ           1.25868        -1.55329         1.44601
LJ           2.47995         2.33405        -1.78244
LJ          -5.47867        -3.56509        -4.33728
LJ         -0.867878         3.10875        -2.37484
LJ              -2.7         2.12982         3.81162
LJ          -3.81232        -5.84932        -6.18431
LJ           6.41329         5.49078         2.43686
LJ           5.14546        -4.43508        -2.70065
LJ          -2.35188        -5.37224        -1.73073
LJ           1.72709         5.78791        -2.05722
LJ           -0.1323         -5.8292        -5.94316
LJ          0.105582         4.53884         3.63912
LJ         -0.980727        0.706734        -3.11831
LJ          -3.10191        -6.16352        -5.08781
LJ          0.107501         1.94814        -3.59924
LJ          0.464757        0.200711         5.18681
LJ         -0.782192        -3.62639         -4.1856
LJ           3.23045         5.97111        0.576945
LJ           4.36879        -3.46801         2.21267
LJ          -2.54333        -5.51302         6.43996
LJ          -3.01634        -5.15933        -5.04141
LJ          -1.51386         1.75632        -3.78627
LJ           5.83986         2.05799          4.7005
LJ          -1.79952        -2.86964        -4.39258
LJ         -0.867274        -1.02291       -0.890609
LJ          0.278778        0.609178        -3.63748
LJ         -0.966109        -3.64797        -5.29616
LJ          -1.94238        -3.17564         6.36484
LJ           5.95824       -0.734793         5.73002
LJ           4.48287         2.59809         -2.0013
LJ          -3.89023          -4.543        -6.42847
LJ           2.42571        -2.06868         -2.3374
LJ           1.32921         5.43423        -1.05524
LJ          -2.35834        -4.62802        -3.48841
LJ           -4.6343        -5.07068          5.3427
LJ           1.87733         -5.9502         6.00695
LJ         0.0999708         5.60752         5.24129
LJ         -0.681122        0.778006        -2.10889
LJ          -2.35028        -3.84366         4.25585
LJ         0.0591297        -4.16828        -4.80467
LJ          0.408798        -2.91021        -4.97051
LJ           2.44197         5.99389         3.20168
LJ           3.06092        -1.69587        -3.13853
LJ            5.2535        -3.31703        0.406607
LJ          -2.82516        -3.32164        -4.68312
LJ          -3.39403        -5.07152         5.68475
LJ         -0.426586        -3.60542        -1.39587
LJ          -1.62422        -3.65635         5.54428
LJ         -0.889783        -2.22145        -4.51294
LJ          -3.38391        -6.29355         5.82068
LJ         -0.992871        -3.68721         -2.2832
LJ          -1.24669        -5.03233        -3.53601
LJ          -4.93339        -1.50106         4.26467
LJ          -1.89036        -3.88134        -4.33651
LJ          -1.82279        -2.07607        -5.83181
LJ          0.230605        -3.81036        -3.82806
LJ            6.3615         6.06086         5.81266
LJ          -4.51913         4.68201        -1.60316
LJ         -0.615294      -0.0830037        -1.46994
