108
#Comment!
LJ           -2.1575        -4.23951         -5.1289
LJ         -0.842731        -3.58874        -5.87956
LJ          -3.96035         5.10504        -5.00137
LJ          -6.29002        -3.58241          -4.029
LJ          -1.67878        -5.63653        -2.78335
LJ          -2.11237        -2.67754        -4.06345
LJ         -0.655495        -6.07116         3.64891
LJ           4.55687        -1.79186         4.70469
LJ           5.58675        -1.89684        -4.87349
LJ           2.11253        -1.02883         2.27259
LJ          -3.83363          3.6458        -4.76611
LJ          -3.25761        0.325637        -4.66958
LJ           -5.5185         5.35323         3.47958
LJ         -0.609343        -2.61552        -3.79376
LJ         -0.542037        -4.69665        -5.82878
LJ         -0.788362        -5.36651        -3.73239
LJ           2.16423         4.04375         2.56384
LJ           3.14204         5.59867         5.55984
LJ          -1.98367        -5.31804        -4.63705
LJ          -3.33011        -3.62519        -5.42147
LJ          -1.29268        -4.56569        -4.18851
LJ          -5.65641        -2.77185        -6.23638
LJ         -0.144963        -5.25086        -4.70115
LJ           0.48666         3.38755       -0.720844
LJ          -1.68456         4.30711        0.549791
LJ         -0.605386         -1.5618        -2.79162
LJ          -2.82407         6.14011        -4.37475
LJ          -1.13768        -4.14648         5.24705
LJ           3.27808         5.64628        -6.24735
LJ          -3.53846         6.18775        -3.20479
LJ         -0.189952        -2.55183         2.43682
LJ          -1.74975         -2.4263        -2.35585
LJ          -3.67143         6.30133         5.46457
LJ         -0.251856         -2.4568        -6.20068
LJ            3.9082        -1.58055        -6.36518
LJ          -2.95977        -1.62844         4.02258
LJ          -3.18862        -6.13599        -5.35743
LJ           3.60339        -5.17832       -0.538215
LJ           -3.3219        -4.52263        -4.39758
LJ          -2.23176        -2.35136         6.39527
LJ          -1.50841        -1.40927        -2.31679
LJ          -3.21585        -4.92907         -5.3741
LJ           -3.6273        -5.12744         4.05217
LJ           5.97531        -6.14695         6.09434
LJ          -2.68105        -5.10677        -3.21109
LJ           5.72975         2.73831         6.36106
LJ          -2.54663        -3.40686          -4.612
LJ          -1.85482        -3.48381         6.13515
LJ           2.31945         1.34903         4.05488
LJ           1.86906        -1.59626         3.23632
LJ           1.73278        -1.01137         1.35603
LJ          -4.39604        -4.08134        -4.46545
LJ         -0.350306       -0.314017         -2.4514
LJ          -2.99427         4.08554       -0.994621
LJ          -2.22503        -5.06223        -5.70531
LJ           3.21942         5.04104       -0.437041
LJ           2.54839         1.31587       -0.438494
LJ          -1.51201        -5.07309        -1.54076
LJ         -0.632453         3.72871       -0.110531
LJ          -4.30071        -1.46124         0.48095
LJ         0.0771609         1.12042          4.9665
LJ          -4.42539       -0.667222        -4.65991
LJ            -1.483        -4.50262        -6.46194
LJ          0.188329          2.5942        -5.19334
LJ           1.89482          2.3304         -5.0113
LJ          0.799242        -4.10455         5.66034
LJ           0.70296         4.52481         -4.6643
LJ            6.1664        -2.93576         3.24162
LJ          -2.01278        -2.81668        -5.65058
LJ          -3.08399        -5.55852        -4.33202
LJ          -3.76563        0.155832        -3.67024
LJ           5.02112        -2.49804        -5.80971
LJ           0.82459        -2.31321        -5.01569
LJ          -2.17437       -0.342683        -2.06583
LJ          -2.40982        -1.61054        -1.54182
LJ           1.93299          -1.337         6.06261
LJ          -3.08055        -2.48024        -5.61167
LJ           3.71703        -2.77686         5.58653
LJ          0.138064       -0.814648        -3.19591
LJ          -2.49877        -4.09635        -6.13479
LJ           5.46657        -1.52326          6.1091
LJ         -0.206551         4.11922        -1.33147
LJ          -1.29923        -4.59003        -3.04339
LJ          -5.07587         5.93328        -6.36377
LJ           2.81529         -6.0651         4.57775
LJ           2.08534          6.2778        -6.15588
LJ        -0.0858375        -1.67526        -4.08512
LJ           -3.1505        -5.11624         5.81047
LJ          0.739845        -4.53033        -4.35117
LJ          0.216754        -3.91368        -5.92244
LJ           1.83481          -6.282          5.4502
LJ           4.46871       -0.131718        -5.35445
LJ           3.96033        0.588974         2.44929
LJ          -1.03426        -2.52437        -4.92147
LJ          -2.69813        -5.91022        -6.32536
LJ         -0.694752        -2.13179        -1.56838
LJ         -0.769955        -5.28979         6.19536
LJ          0.021229        -3.03631        -5.36794
LJ          -1.71946        -5.67839        -6.43174
LJ          -1.73969        -3.62406        -3.33129
LJ         -0.249681        -4.15934        -3.52382
LJ           4.10584       -0.637712         5.20825
LJ           -1.3629        -3.51731        -4.66108
LJ         -0.282891        -3.60138         5.78248
LJ         -0.532654        -4.02721         -4.9814
LJ          -4.20565        -5.85141        -3.00996
LJ           -2.5097        -5.20746        -2.06549
LJ          -1.17344         -1.1017        -1.03868
