108
#Comment!
LJ          -1.90866        -4.31892        -4.62113
LJ          -1.21917        -3.83718        -5.41489
LJ           -4.3007         2.35017        -4.14584
LJ          -3.10597        -3.25406        -3.74186
LJ          -1.05279         -6.1223        -3.91044
LJ          -1.10915        -2.30926        -3.68299
LJ          0.927908        -2.69761         4.16257
LJ           6.26325        -2.92623         5.68864
LJ          -6.26328        -2.27228        -5.56181
LJ           5.32343        -1.68092         1.77831
LJ          -4.59176         4.38033        -4.44655
LJ           -1.4411         2.35844        -2.53182
LJ            6.0939         5.95711         3.09055
LJ         0.0537022        -3.21763         -4.1075
LJ          -2.30514         6.39817        -4.67301
LJ          -2.05296        -5.36221         -2.9543
LJ         -0.388319        0.573896        -6.41264
LJ           1.75328          6.1616         4.30839
LJ          -1.92104        -5.32286          -3.903
LJ          -3.52891        -3.63254           6.336
LJ          -0.75716            -4.2        -4.06982
LJ           5.84546        -2.59113         3.33468
LJ          -1.03222        -5.01638        -4.90942
LJ           1.76387         4.82464       -0.937887
LJ          -1.74274         6.19737        0.445031
LJ          0.278286        0.363772        -2.05783
LJ          -3.76624        -4.63254        -4.30901
LJ          -2.77427        -4.25782         6.09715
LJ           1.43991         5.40027         5.13032
LJ             5.659         4.98487         6.15041
LJ         -0.288521        -3.43744         3.20501
LJ         0.0370293        -2.41722        -3.00195
LJ          -3.35697         2.45497         3.02127
LJ          -2.58437        -2.37473        -4.52212
LJ           5.29959         2.84125         6.06625
LJ           -3.5759        -4.46187         1.92772
LJ          -3.47877         5.94778        -5.95662
LJ           4.65965        -5.53612        -1.01055
LJ          -3.78456        -3.60005        -5.57373
LJ          -2.42488        -3.86167        -5.75146
LJ         -0.247487         0.49929        -3.18429
LJ          -3.90133        -5.37433        -5.48472
LJ          -2.25914        -5.52645          5.1406
LJ          -4.84474        -5.07334         5.72495
LJ           -2.7579        -4.29999        -3.79459
LJ           5.95609         2.53689        -5.02484
LJ          -2.94878        -2.81719        -5.55106
LJ          -1.62852        -3.90832        -6.38788
LJ            1.9383       -0.669847          4.7984
LJ           1.46436        -1.25216         2.76311
LJ           2.15949         1.16567       -0.567713
LJ          -4.85542        -3.59163        -5.25051
LJ         -0.310312         1.25219        -2.39161
LJ          -2.34473         2.86761         1.91959
LJ          -3.78599        -5.80126         6.19248
LJ            5.2902          5.1766         1.19748
LJ           4.27502        -2.43458        -1.88761
LJ          -3.21482         -5.3312         -3.8133
LJ          0.643457         5.43513        -1.43718
LJ           -1.5025        -5.13653         4.15325
LJ         0.0265259         3.44435         4.20163
LJ           -2.8903       0.0556837        -3.94882
LJ          -2.86442        -5.91389        -5.68923
LJ         -0.495084         1.98249        -3.25119
LJ           1.07286          1.0231         6.15115
LJ         -0.211594        -3.07341        -5.25644
LJ           2.86959         5.98131        -1.06701
LJ           4.72829        -3.10172         2.43202
LJ          -1.97022         -4.7814        -5.66258
LJ          -2.62266        -5.08042         -4.6398
LJ          -2.09879        0.909232        -3.84816
LJ            5.5803        0.421881         5.44978
LJ          -1.09264        -1.61004        -4.67677
LJ         -0.745771       -0.648313        -1.26004
LJ          -1.40786      -0.0611292        -3.26093
LJ          0.545007        -2.50237         6.45032
LJ          -2.34669        -3.17963          6.1963
LJ            4.8049        -1.45057         5.87338
LJ           3.17883         1.49625        -2.47252
LJ          -3.26331        -4.89662        -6.15539
LJ           3.27803       -0.778173        -3.54277
LJ          0.747785         4.25417       -0.987957
LJ          -1.80037        -4.29731        -3.11517
LJ           -5.4257         6.38942          5.9682
LJ           2.15847        -5.80563          5.4366
LJ          0.360964         5.39898         5.60921
LJ         -0.892882        0.350161        -2.02352
LJ          -3.35035        -3.41342         5.40788
LJ        -0.0184818        -5.01804        -5.09549
LJ          0.549472        -3.78264        -4.89957
LJ           3.17158         6.17621         3.35331
LJ           3.70068         -2.0161        -4.08931
LJ           4.91129        -1.84383        0.795805
LJ          -2.35733        -3.39956        -4.83464
LJ          -3.42142        -5.68958         5.13557
LJ          -0.73138        -2.46948        -1.43754
LJ          -1.55921        -4.61402         5.31267
LJ         -0.124315        -1.99987        -4.18184
LJ          -2.77273        -6.22307         5.93889
LJ         -0.643938         -3.5104        -3.22393
LJ         -0.853345        -4.56137        -2.41155
LJ           6.35174        -1.12399         3.89844
LJ          -1.90452        -3.52472        -3.86508
LJ          -1.90235        -2.73746        -5.57112
LJ          0.268555         -4.4377        -4.05802
LJ          -6.31518         4.77964        -6.19656
LJ          -4.30468        -6.30847        -2.25216
LJ          -0.92847       -0.108149       -0.307659
