108
#Comment!
LJ          -1.51153        -4.92006        -5.04451
LJ          0.373915          5.0775        -4.55753
LJ          -1.51734        -1.09522        -4.31722
LJ           -3.1765        0.799296        -4.72837
LJ           2.72338         4.79604        -2.67522
LJ          -1.76996        -1.98968         4.76426
LJ           4.25797         4.51372        -2.76749
LJ          -3.07493         2.03024        -6.34438
LJ          -1.22625        -4.02258        -4.51102
LJ          -1.86648        -1.01888         6.16886
LJ         -0.627457        -3.05544         -3.9194
LJ            3.6014         5.29644         2.60077
LJ           6.33611         6.25183         3.31291
LJ          -4.49354          3.8261        -5.46035
LJ          -3.07885         5.17613         1.62415
LJ            5.1957        -2.73792         -1.8534
LJ           2.63039          -1.825         5.57583
LJ           1.59112         6.39911        -5.94588
LJ          -6.42047        -2.46542        -2.17975
LJ          -5.54698          2.0019        -4.93842
LJ          -2.44768        -2.80641        -4.76909
LJ           1.43172         5.50724        -4.43736
LJ           3.18444        -5.92417         3.84933
LJ          -2.69427         6.39591        -4.04944
LJ          -4.35788         1.67611        -3.22422
LJ          0.115946       -0.137398        -5.93624
LJ          -1.89105         -2.7932        -5.66271
LJ          -1.64785        -6.17427        -4.55657
LJ          -2.85137        -3.34652        -3.52569
LJ           -5.8997       -0.451454        -1.84936
LJ          -1.86029         -2.0889        -4.15236
LJ           3.15249       -0.607198        -1.45636
LJ         -0.549654        -1.48742         5.97478
LJ           6.19286         -4.4545         3.72936
LJ           2.99262        -2.24916        -4.49545
LJ          -3.92369          1.7794        -5.20209
LJ          -1.80224         -3.3778        -3.77733
LJ           2.46851         4.40304         4.61455
LJ           6.45046        -3.24063        -1.20156
LJ           5.21713        -1.47603        -1.51903
LJ           5.39495        -3.61643         3.57532
LJ          -5.74516        -5.16748         5.93494
LJ           3.39067         5.46579         -1.6116
LJ          -6.31278        -2.19343          2.8896
LJ         -0.335272        -5.98853        -5.58766
LJ           1.37213         3.87892         4.29471
LJ        -0.0710238        -6.30116        -4.59146
LJ          0.608437         3.05046         4.61609
LJ          -3.99348        -4.69067         5.27347
LJ          0.330333          5.8137         2.88629
LJ          -5.80286        -2.00316         4.42527
LJ          -3.61892        -2.53344        0.093071
LJ           -6.1237         2.80974        0.646349
LJ          -4.65243         2.28603        -4.13065
LJ         -0.767938        -5.26833         6.34567
LJ          -6.33066        -1.46651        -1.90004
LJ            1.6454        -6.33181        -4.86777
LJ           4.72658       -0.439637        -1.95342
LJ           0.58345        0.692265        -3.84194
LJ          -4.79664         -5.4276         5.49611
LJ         -0.478999         1.71605        -1.62532
LJ          -4.74402        -5.20977         4.16384
LJ          0.660122         6.05085        -5.43764
LJ           -5.7558         3.35779         1.69293
LJ           5.91092       -0.389371        -1.58176
LJ           1.80511         1.64417        -5.23307
LJ          -2.69706        -1.41374         3.88262
LJ           -1.6909        -2.04276        -6.41313
LJ           3.72633        -4.12319        -1.13874
LJ           1.01198        -4.57371         2.11956
LJ           4.14255        -6.31588         3.19782
LJ          -5.69683        -4.83275         4.85749
LJ          -3.41577         3.57304        -4.67356
LJ          -4.90731         3.05725         1.01588
LJ           4.25834        -4.08102         3.61667
LJ          0.308952        -4.11599        -4.16587
LJ          -3.47737         1.11473         5.66109
LJ          -2.94916          2.3235        -5.04594
LJ         -0.774244        -0.80303        -3.62051
LJ           3.46821         4.27571        -1.36412
LJ          -1.71076       -0.535672        -2.88933
LJ          -4.84286        0.469759        -5.10012
LJ           5.11179        0.368627        -2.97063
LJ           2.82431         3.45465         -2.5602
LJ           2.92146       -0.904777       -0.288679
LJ           1.90313        -4.79276        0.723507
LJ          -5.24601         4.38738       -0.859067
LJ          -4.59907         1.54727        -5.95485
LJ           -3.2123        0.835396        -5.94335
LJ          -2.10114         1.19546        -4.46597
LJ          -1.23704        -1.92731        -5.38281
LJ          -4.02565         2.88494          -5.675
LJ          -1.28881        -3.04474        -4.77646
LJ          -4.55301        -5.39699        -6.25607
LJ           0.21656         3.98982         4.76013
LJ          -4.95436         3.11126        -6.16716
LJ          -5.24861        -1.35679        -2.21586
LJ           3.12103         6.24678          2.4417
LJ          0.604386         6.14226        -3.84468
LJ         -0.776871         3.49378         4.70144
LJ          -2.46622         2.74678        -4.03426
LJ           1.02391       0.0908602         -5.4381
LJ         0.0669976         5.41731         3.99165
LJ           5.62465       -0.717259        -2.75594
LJ           1.12267       -0.707404         1.64714
LJ           2.15725         5.59966         -5.3335
LJ           5.68559         -1.4091       -0.361476
LJ           3.82291        -1.61786        -1.77902
