108
#Comment!
LJ          -1.67341         5.48463        -4.56681
LJ          -2.98136        -4.39945        -5.47159
LJ          -2.44959        -2.92151        -5.30317
LJ          -2.30638        -1.76339        -3.49892
LJ         -0.892377        -1.66843        -3.32451
LJ          -3.04536       -0.822743        -4.76989
LJ           5.58444          2.1683        -1.41395
LJ          -5.15683        -1.66703        -5.51696
LJ          -3.85814        -2.67709         6.12369
LJ          -4.65552         1.23502        -3.55636
LJ         -0.135381         4.55159         5.70437
LJ          0.965932        -4.92081        0.882553
LJ           4.40304         5.56246         3.14828
LJ          -2.49078        -1.35649         -1.8356
LJ           -1.4538        -3.90508        -4.97739
LJ           4.59927         2.84684        -1.71739
LJ          -1.32341         -1.2086        -1.39786
LJ          -5.34018         2.34307        -6.01924
LJ          -4.69624        -1.51597        -2.82083
LJ          -4.08617        0.891134        -4.69551
LJ          -3.84581        -4.05001         -5.8034
LJ           -1.4748         5.49733        -3.34919
LJ         -0.321979         4.53272         4.72793
LJ           3.56177        -5.79411         0.93428
LJ          -1.43866        0.233396        -6.11823
LJ           5.28349         3.48893       -0.691931
LJ          -1.47414        -2.03123        -4.26873
LJ         -0.899313         6.24649        -2.97927
LJ         -0.787403        -5.76246        -3.81169
LJ          -6.23816        -0.58183        -3.57544
LJ          -5.23135       -0.756466         -6.1023
LJ          -2.56959        -2.26032        -2.46334
LJ          -2.10155        -1.13863         -4.3109
LJ          -2.92608        -2.74062        -6.16913
LJ          -2.39336           4.518         5.86485
LJ          -5.41661         3.01048        -2.37247
LJ           -1.5143       -0.543129        -5.45711
LJ          -1.04365         4.33673         3.97103
LJ          -3.49131        -1.72705        -2.84269
LJ          -4.01405       -0.449283        -1.90993
LJ           3.98445        -4.62337         2.58129
LJ          -5.04676        -1.56652         5.76614
LJ           0.63305           3.252       -0.219357
LJ          -4.65095         5.13282         3.21909
LJ         -0.151493         6.22047        -3.62993
LJ           2.71893         1.85134         3.03436
LJ         -0.436821         5.44621         -5.4261
LJ         -0.568797         3.34282         5.07465
LJ          -3.70698        -1.49812        -5.65697
LJ           2.44315         3.53058         2.42806
LJ           5.39589        0.381668       -0.860996
LJ           6.03889            3.13        -1.35586
LJ           5.93346         4.37625          1.5829
LJ          -5.05147       -0.379866        -2.27728
LJ          -2.21971        -4.92401        -4.84265
LJ          -4.75469       -0.981931        -3.93413
LJ           1.41295        -5.84548         5.00593
LJ          -4.06408        0.261267        -3.35599
LJ         -0.248475        0.350951        -4.51569
LJ          -3.79668        -2.78914        -5.66802
LJ         -0.739828         5.38103          6.4117
LJ           5.73707        -5.23484         -2.0759
LJ         -0.498053         5.24045         -4.2064
LJ            5.4517         4.68123        0.466494
LJ           5.56395       -0.688387        -5.17359
LJ           1.03019         -4.9112       -0.843921
LJ          0.484638        -1.11542        -2.43359
LJ          -4.93392         2.35964       -0.879591
LJ          -5.30509       -0.518948         5.76569
LJ           3.94723        -4.46931         -2.5931
LJ           5.01029         6.09828         4.15876
LJ          -5.39171        -4.88211        -1.90533
LJ          -1.44968      -0.0613801        -4.02606
LJ           5.43725         5.28663       -0.675762
LJ           4.31362         -6.1851          1.7713
LJ          -2.66238        -4.21633          -4.096
LJ          -5.27685        0.281783        -3.29471
LJ          -1.05161         -2.7686          1.6709
LJ          -3.83371        -3.34224         -4.7753
LJ           4.66925         2.95843        -2.76703
LJ         -0.349102         2.17871        -4.04251
LJ          -2.61986        0.255024        -3.13084
LJ          -3.49612        -5.96167         1.77608
LJ          -1.66889        -6.28753        -4.81245
LJ          -5.63673      -0.0316137        -4.28967
LJ           2.81083        -4.49855        -1.07374
LJ           4.21758        -4.80516         1.52202
LJ          -3.52967        -2.25528        -4.73042
LJ          -2.94409       -0.402004        -2.19377
LJ          -2.72445       -0.724539        -3.51898
LJ          -2.26891        -3.27133        -4.32508
LJ          -2.89068        0.353305        -4.09821
LJ          -3.47684        -3.23327        -3.77969
LJ          -5.98612        -1.33607         6.43924
LJ          -1.75882         4.40004         -4.2126
LJ           1.40369         2.01866       -0.687456
LJ           -3.9692        -2.14464        -3.80727
LJ           -6.0197        -4.04712         3.63361
LJ         -0.239463         5.75083         4.60737
LJ         -0.665376         6.33539        -4.66429
LJ          -2.10747        -1.81799        -5.37933
LJ          -2.63555        -3.21443        -2.93841
LJ          -1.24711         4.36209          5.9255
LJ          -1.56201         0.18303        0.888349
LJ           1.97624         1.03827         5.41937
LJ           -1.4807         5.35324        -5.58838
LJ          -5.72548        -1.09673        -2.80323
LJ          -3.24589        -2.41091         2.58893
