108
#Comment!
LJ          -1.53857         6.11793        -4.96175
LJ         -0.876366         5.21695        -5.40991
LJ           -1.9733       -0.417308        -2.33291
LJ          -2.73846         3.51316        -5.01378
LJ           3.11137         4.35487        -2.12119
LJ          -2.75893       -0.101464         5.55946
LJ           5.81918         5.30245         0.42291
LJ          -1.64821         3.92975         6.25433
LJ          0.202322        -4.51981        -5.03339
LJ         -0.238718        -1.09667         5.28775
LJ         -0.986225        -4.14483        -4.32579
LJ           3.21432        -6.17985         3.40214
LJ          -5.48892         5.37031         3.71147
LJ          -5.84948         3.72177         5.53214
LJ          -4.02663         1.55495          5.9667
LJ           4.70881        -0.38875        -2.75187
LJ           3.53716        -1.78149         4.58209
LJ           1.68138        -5.90674        -5.04591
LJ           5.95175        -1.77628        -1.88541
LJ          -4.79033        0.179533        -2.14062
LJ          -1.56409        -2.54171        -2.73592
LJ           0.77591        -5.50679        -4.57809
LJ            1.1153         6.09647         2.28359
LJ          -2.37293        -1.98462        -3.02153
LJ         -0.336979         2.20542        -2.26088
LJ         -0.173129        -1.97517        -5.97423
LJ         -0.287109        -2.39857         4.89518
LJ          -2.07287         4.49886        -4.36582
LJ          -1.49711        -1.49675        -2.90809
LJ           5.54086       -0.525796       -0.334329
LJ          -2.31342        -1.08406        -3.57526
LJ            3.5007        0.474951       0.0918298
LJ          0.344424        -2.38468         5.82242
LJ          -4.70302        -3.35024         5.40908
LJ           4.43533         -3.4058        -2.96214
LJ           6.34372         2.74124         5.78932
LJ         -0.980243        -3.79555        -3.33761
LJ           3.27434         2.95085         4.91944
LJ           4.31192        -1.48007      -0.0203376
LJ           5.38139        -1.59946       -0.716529
LJ            5.8243        -1.65785         4.70336
LJ           5.68403        -5.63414         3.79632
LJ           2.70815         3.38275        -2.10682
LJ           4.80333        -1.51061         3.91176
LJ          0.529611         6.07999        -4.42958
LJ           1.70604         4.05561         4.41431
LJ          0.142342        -6.25172        -6.04268
LJ           2.27284         4.05259         2.94435
LJ          -5.62449         6.38301         3.50923
LJ          -1.26202        -6.45228         1.80966
LJ          -5.41261        -2.40378         5.45581
LJ          0.186666         -5.5557        -1.54153
LJ            -5.063         2.17445         0.87769
LJ          -4.77715       0.0843958        -3.27199
LJ         -0.510263         -5.4189        -5.79282
LJ           5.00419        -1.31563        0.987056
LJ            1.2968        -5.87795         6.24734
LJ           4.37929       -0.606436        -1.19506
LJ          0.563417         2.58197       -0.939448
LJ           5.98876        -6.26785         2.91461
LJ         -0.187712         1.28164        -1.47499
LJ          -1.02371        -3.67797        0.619205
LJ        -0.0304111        -6.10884        -5.03835
LJ          -5.65324          3.0637         1.12548
LJ           6.26403       -0.897848        -1.02017
LJ          0.775877         3.74935        -3.67748
LJ          -3.13573        -1.45565        -4.33744
LJ           -3.2018       0.0157706         4.53874
LJ           5.61039        -2.27877        0.927497
LJ           2.62434        -5.96838         2.57217
LJ           4.69233        -5.78672          4.0494
LJ          -5.66648        -3.84423         4.66229
LJ          -3.78123          1.4468        -5.54657
LJ          -4.26362         2.90492        0.876938
LJ            5.3068        -3.21327         2.25639
LJ          -2.28272        -4.23008        -1.19718
LJ          -1.95579         2.59363         6.12858
LJ          -2.91229         1.75147         5.42318
LJ          -3.15193       -0.429311        -2.60514
LJ           4.14013         5.09552         -2.5717
LJ          -1.72939        -2.06727        -3.80921
LJ          -2.22918         1.86281         3.76163
LJ           5.32203        -3.55022        0.347173
LJ           3.67113         3.81199        -1.36569
LJ           3.77554        -1.82123        -1.58526
LJ           2.20076        -5.38165         4.99573
LJ          -5.01371         1.82033        -2.44261
LJ          -6.14562         3.46974        -6.34646
LJ           -1.5839         1.84345         4.90824
LJ          -4.42536        0.539458        -4.62235
LJ          0.938533         -1.1758         5.89072
LJ          -3.83775         3.08414        -4.94209
LJ           0.81589        -5.68663        -5.62205
LJ          -5.78683         5.98582         2.38147
LJ          0.479526         5.38891         3.20218
LJ           6.16258         4.20697         6.05483
LJ           4.50602        -1.36681        -3.48374
LJ           3.09454        -5.93902         4.55321
LJ         -0.488077         5.84221        -4.40671
LJ          -1.11937         2.23255         3.08515
LJ          -4.70243         1.01982        -5.67631
LJ          -2.70301       -0.815919         3.76766
LJ          0.891338         4.71893         3.94476
LJ           3.88667        -1.60388        -2.53529
LJ          0.422977        -1.49465        0.203725
LJ           1.87628         5.98232        -5.66652
LJ           6.14159        -1.76077       -0.206208
LJ           3.25313       -0.776136        -2.00162
