108
#Comment!
LJ           -1.3395        -5.70125        -6.05509
LJ         -0.281826         5.95406        -3.98728
LJ          -1.68594       -0.273359        -4.47509
LJ          -2.28744        0.582982        -4.70231
LJ           2.22709         5.02708        -2.75636
LJ          -2.88356        -1.39713          5.1655
LJ            4.2533         4.62826        -2.27855
LJ          -2.79868        0.761708         6.26029
LJ          -1.10236        -3.52533        -4.54661
LJ          -1.94882        -2.13324         5.57658
LJ          -1.15555        -1.77303        -3.81713
LJ           3.23907         5.86007         2.09999
LJ          -6.18011        -6.00985         3.46752
LJ          -4.40908         4.07737        -3.45911
LJ          -2.71296         6.39952       0.0299994
LJ          -5.71242        -1.39916       -0.676964
LJ           2.19882        -1.80054         6.20484
LJ           2.55249        -6.06524         -6.1793
LJ          -6.20656        -2.68261         -2.4291
LJ          -4.29144          1.5061        -5.15718
LJ          -2.69541         -2.7157        -3.10068
LJ           1.28463          5.6471        -4.61103
LJ            2.2149        -6.29428         4.39438
LJ          -1.60368         4.97485        -5.29123
LJ          -6.20944         1.86923        -2.41357
LJ           2.58231        0.697954         5.41017
LJ          -2.48241         -3.6408        -4.68895
LJ          -1.31839        -5.81283        -4.43694
LJ          -3.24148        -4.87985        -3.54226
LJ          -5.52712       -0.680934        -1.78106
LJ          -2.12847        -1.93114        -4.23926
LJ           4.19545        -1.39143        -2.57945
LJ          -2.35398       -0.910419         6.21743
LJ           6.14055        -4.72868         3.84002
LJ           1.77935        -1.11199        -6.03245
LJ          -3.55452         1.59837        -4.27111
LJ          -1.66624         -2.8233        -3.87679
LJ          0.658918         4.25395         3.44711
LJ          -6.44252        -2.88552       -0.986292
LJ           6.06471         -1.4975        -1.41889
LJ           5.01884         -5.4454         3.59059
LJ          -6.03237        -4.70726         5.88029
LJ           3.08633         5.76274        -2.44984
LJ          -5.72768        -3.14833         2.82179
LJ         -0.644329         6.27184        -5.30983
LJ          0.920785         3.18923         4.68338
LJ          0.387811         6.34489        -4.91479
LJ          0.933997         4.33587         4.62183
LJ          -3.75651        -4.23157          5.8126
LJ            1.1267         5.27996          3.5608
LJ          -6.25431        -1.51521          3.7151
LJ           -5.1721        -1.37921        0.306843
LJ          -6.34475         3.17096        0.469345
LJ          -4.88869         3.23074        -3.86376
LJ         -0.562486         -5.5656        -5.20494
LJ           -6.0248        -1.31051        -2.45429
LJ           1.42995        -6.23699        -5.32402
LJ            4.7983       -0.397926        -2.83511
LJ           1.99698       0.0829855        -5.46485
LJ          -4.95408        -4.54049         6.11154
LJ         -0.455572         1.83366         -2.1547
LJ          -5.80414        -5.56076         5.44562
LJ        -0.0314771         5.13126        -4.96043
LJ          -5.74919         3.51286         1.93002
LJ           4.84857       -0.692918        -1.67336
LJ           1.86561        0.884921        -4.58609
LJ          -1.54773        -1.88731         3.90799
LJ          -2.00946        -1.46626        -5.35697
LJ           3.54746        -4.13085        -2.42685
LJ           1.98365        -5.05078        0.956295
LJ           4.31934        -6.43911         1.74831
LJ          -5.52118        -6.10512        -6.45223
LJ             -3.57         3.07317        -3.56829
LJ          -5.25985         3.21041        0.857164
LJ            4.7542        -4.32474         3.62634
LJ         -0.291896        -3.04213        -5.18112
LJ          -3.95526      -0.0424894        -6.38927
LJ          -3.30188         2.49696        -4.69072
LJ         -0.517781        -1.23829        -4.90565
LJ           3.91907         3.57506        -2.03031
LJ         -0.956547       -0.654292        -3.67513
LJ          -4.59801         1.99105        -4.19263
LJ           3.87987        -1.94723        -3.63192
LJ           1.86738         3.85207        -3.03291
LJ           2.93156       -0.513811       -0.600114
LJ           1.45863        -4.09277        0.577162
LJ          -6.15746         5.35901       0.0913437
LJ          -3.72977        0.580631        -5.51623
LJ          -2.76844        0.194681        -5.67993
LJ          -2.85444         1.40689        -5.38301
LJ          -2.36969        -2.56375        -5.09331
LJ            -3.587         1.53175        -6.22288
LJ          -1.13872         -2.2301        -4.96469
LJ          -4.02039        -4.63495        -6.13791
LJ          0.378032         5.44802         5.50132
LJ          -4.21012         3.13196          5.5898
LJ          -4.92822         -1.6541        -1.89863
LJ            3.3913         6.40939         3.14443
LJ          0.747573         6.12736        -3.73621
LJ         0.0930735         3.42788         5.26907
LJ          -1.64885         1.74775        -5.23713
LJ           1.66328        0.370377        -3.41714
LJ         -0.319395         4.77545         5.06224
LJ           5.69334        0.200984        -1.61239
LJ           1.43498       -0.440196         2.10178
LJ           0.74363         6.07092        -5.91632
LJ           5.75762       -0.506102       -0.802035
LJ           4.56548        -2.55387        -2.48828
