108
#Comment!
LJ           -2.7402         5.97653        -5.02547
LJ          -2.58829        -4.27257         -6.2189
LJ            2.0903        -1.89834        -2.02001
LJ          -1.97697        -2.36392        -3.83725
LJ          -1.57963        -3.60155        -3.33913
LJ          -3.75488        -3.99733        -3.31134
LJ          -3.01775         2.09506        -5.99285
LJ          -6.01438        -2.68531         5.36589
LJ          -4.98028        -4.30576        -6.26295
LJ          -1.52838        -1.65362        -4.56659
LJ          -4.52198        -5.55633        -5.98812
LJ           2.69473         5.02026       -0.375391
LJ           3.88328         5.33563        0.236165
LJ          -3.09833        -3.19245        -3.72045
LJ          -1.32857        -2.63182        -6.41098
LJ          -6.04381         5.84663        -3.99182
LJ          -3.80231        -3.19732        -4.49681
LJ          -2.05394         5.12721       -0.727201
LJ          -3.13458       -0.797663        -5.24396
LJ          -2.34077        -5.98337         -6.1179
LJ           -2.4699        -4.70716        -5.01704
LJ          -2.74515         6.42264         5.19286
LJ          -4.19371         6.29223        -6.10929
LJ           4.92097         5.95372        -1.11357
LJ          -1.81341         4.29941        -1.41832
LJ         0.0119402         1.94263       -0.491991
LJ         -0.140541        -2.41769         6.17442
LJ         -0.964595        -4.33722        -5.88971
LJ           -2.2004         4.74816         3.40797
LJ          -1.95678        -2.40821        -1.04126
LJ          -2.24717         -4.8225        -3.79921
LJ          -2.68477           6.408         2.15901
LJ          -4.11253         -1.6684        -4.77078
LJ          -3.71958        -3.81156        -5.91198
LJ          -1.45405        -3.35246       -0.919055
LJ           2.14806        -2.09663         6.17617
LJ            3.6361         -2.7081        -4.98854
LJ          -3.55049        -6.29527        -5.31547
LJ          -2.58074        -3.24254         6.14202
LJ          -2.35446        -4.92839         5.47211
LJ           2.30859         4.60269        -1.33212
LJ          -4.48992        -5.29268        -4.52323
LJ           4.76961         6.44769         -2.0823
LJ          -3.89619        0.495751         3.28143
LJ          -2.44618         -5.7972        -4.77704
LJ           5.56291         1.86127       -0.827509
LJ          -3.28253        -4.45725         5.53448
LJ         -0.899434        -2.16251         3.03798
LJ          -3.61702        -1.05839        -4.07836
LJ          -5.84615         -1.5736       -0.347978
LJ           3.20861        -3.48895         3.70016
LJ           5.86853         6.00716        -3.43585
LJ           1.55817         4.07748         -2.1782
LJ            -3.497        -2.15821        -4.06591
LJ          -3.79586        -4.85049         6.35025
LJ           5.83364        -3.97836         5.91725
LJ          -3.31412        -1.16963        0.780499
LJ          -3.73124        -2.30702           -5.64
LJ           4.16717         6.39167        0.207952
LJ          -4.05425        -4.71843        -5.42002
LJ          -3.15068         5.94371         4.23988
LJ           1.50049         5.64883         -1.6795
LJ          -3.07507        -5.26682        -5.71001
LJ           5.30568         5.75047        0.667778
LJ           5.29172        -2.65476        -3.70818
LJ           1.01399         5.85246         4.59578
LJ           5.29445         4.68909         1.77114
LJ           3.97387        -5.86659        -4.71588
LJ         -0.887601        -2.57512        -4.02301
LJ          -5.33756         1.30893         -6.2464
LJ            1.3696        -6.14618         6.36907
LJ           5.99163        -1.58251         5.70596
LJ          -2.82573        -5.37538        -2.95618
LJ          0.868787         2.91197        -2.66296
LJ           3.70054         4.81872         -0.9237
LJ           -2.7657        -3.84695        -4.54466
LJ           -2.2524        -1.95079         -6.0039
LJ         -0.533705         4.74906         2.53224
LJ          -3.24191        -4.77586        -4.26679
LJ            6.4457         4.93838        -3.73249
LJ         -0.903926         1.24591        -5.48098
LJ          -2.41505        -1.52016        -1.76547
LJ            4.6578        -5.52727       -0.991872
LJ          -1.76691        -3.96342        -5.14043
LJ         -0.519771       -0.797673        -4.25203
LJ          -3.15502         3.31832         4.52444
LJ           4.97672         5.75792         1.98727
LJ          -1.37141        -4.18849         5.84172
LJ          -2.90892        -2.07747        -4.97578
LJ          -2.90124        -2.27131        -3.23072
LJ          0.177998         5.99186        0.342865
LJ           1.39907        -1.24161        -1.55963
LJ          -5.23283        0.338481        -4.92479
LJ          -5.10875        -4.37887         5.06803
LJ           -0.9472        -4.43639        -4.38567
LJ           1.66102         5.86945         5.49007
LJ          -1.98782        -2.72682        -4.78578
LJ          -3.14699        -3.21443        -5.26911
LJ          -1.78595        -5.05627         -5.8914
LJ         -0.721241         6.10651         3.79344
LJ          -4.25624        -4.31043        -4.34513
LJ          -1.66574        -3.63137        -6.16153
LJ          -3.27679        -6.05463         6.28611
LJ          -5.42051        -2.56241         6.24737
LJ         -0.182317          0.9972         0.21693
LJ          -3.11955        -5.91166         4.30674
LJ          -3.74826        -4.94151         3.91655
LJ           1.00815         2.11392        -1.29355
