108
#Comment!
LJ          -1.49755        -5.16378        -5.86592
LJ        -0.0257348          5.5873        -4.51364
LJ          -1.54655       -0.529947        -4.74191
LJ          -2.90153        0.390621        -4.72151
LJ           2.65817         4.75204         -2.7115
LJ           -2.6662        -1.94518         4.81504
LJ           4.15697          4.6805        -2.64851
LJ          -3.03495         1.60476          -6.036
LJ           -1.2825        -4.12275         -4.5348
LJ          -1.98428        -1.55914         5.68962
LJ         -0.397344        -2.55545        -3.89325
LJ           3.44696         5.34038         2.29682
LJ          -6.45429        -6.36959         3.35384
LJ          -4.28135         4.12756        -4.53368
LJ          -2.91742         5.70828        0.933506
LJ           6.19471        -2.09394        -1.00875
LJ           2.46199        -1.84634         5.74894
LJ          0.964174        -6.21589        -5.73146
LJ           6.17789        -2.57403        -2.28888
LJ           -4.8728         2.31204        -5.16819
LJ          -2.73874        -2.83547        -4.36323
LJ           1.50719         5.46462        -4.29006
LJ           2.69792        -6.02795          4.2407
LJ          -2.38844         5.60179        -4.62646
LJ          -4.97094         2.00105        -3.34981
LJ           1.39362        0.586172        -6.21885
LJ          -2.38761        -3.15488        -5.24872
LJ          -1.49836        -6.09911        -4.27726
LJ          -3.20951        -4.10426        -3.51164
LJ          -5.38561       -0.533681        -1.70096
LJ          -1.47968        -1.90084        -3.79237
LJ           3.63992       -0.887528        -1.94999
LJ          -1.09028        -1.01457         6.14844
LJ           6.40964         -4.7291         3.73935
LJ           2.47777        -1.78757        -5.08637
LJ          -3.50854         1.29649        -4.63558
LJ          -1.74379         -3.2356        -3.86543
LJ           1.59763         4.51654         4.38328
LJ          -6.39096        -3.39338        -1.28111
LJ           5.42267        -1.87621        -1.98676
LJ           5.33183        -4.32957         3.48729
LJ          -5.92635         -4.6019         6.28034
LJ           3.35652         5.59478        -1.84438
LJ          -6.01462        -2.52691         3.01022
LJ         -0.414358         6.36856        -5.51317
LJ            1.5252         3.33088         4.12503
LJ          0.233468        -6.31116        -4.73213
LJ          0.667453          3.4459         4.96394
LJ          -3.72548        -4.52288         5.64939
LJ          0.679857         5.70254         2.99503
LJ          -6.03015        -1.83551         3.95768
LJ          -4.25679        -2.04067        0.236675
LJ          -6.13361         3.00415        0.726693
LJ          -4.68312         2.66545        -4.05984
LJ        -0.0917883        -5.47956         -5.9094
LJ          -6.12734        -1.51765        -2.28367
LJ           1.81296        -6.35363        -4.96136
LJ           4.47192       -0.356412        -2.37368
LJ           0.61698        0.274599        -4.53324
LJ          -4.90825        -4.59025         5.67753
LJ         -0.466766         1.77452         -1.8441
LJ          -5.05829         -5.5948          4.5986
LJ          0.446327         5.73196        -5.54232
LJ          -5.83668         3.36863         1.69134
LJ           5.04276        -0.75746        -1.54694
LJ           1.75728         1.07711        -5.43707
LJ          -2.12431        -1.50553         3.55504
LJ          -1.56437        -1.85938         -6.0777
LJ           3.63781         -4.1491        -1.69687
LJ           1.36677        -4.85888         1.84934
LJ           4.27552        -6.29075         2.57314
LJ          -5.63199        -5.74587         5.52988
LJ          -3.83379         3.07249          -4.402
LJ          -5.06292          3.1041        0.921594
LJ           4.08407        -4.09162         3.67094
LJ          0.183345        -3.33303        -4.38825
LJ          -3.42329         0.68244         6.20278
LJ          -3.18283         2.57081        -5.01748
LJ         -0.720726        -1.21764        -3.83432
LJ           3.51009         3.88942        -1.77889
LJ          -1.35292        -0.36759        -2.99356
LJ          -5.16263        0.959003        -4.40072
LJ           4.58336       -0.591573        -3.51886
LJ           2.45144         3.70788        -2.62803
LJ           2.85298       -0.727613       -0.293616
LJ           1.76423        -4.39866        0.419253
LJ          -5.64071         4.84422       -0.473308
LJ          -4.48963         1.37198        -5.89777
LJ          -3.02607        0.140663        -5.75752
LJ          -2.52346         1.70656        -5.06038
LJ          -1.95037         -2.0029        -4.80578
LJ          -3.91514         2.18654        -5.93122
LJ          -1.21408        -3.07607        -4.87762
LJ          -4.42712        -5.29879        -6.35606
LJ          0.709382         4.72846         4.96601
LJ          -4.82842         3.08141         6.38175
LJ          -4.72296        -1.35872        -2.02083
LJ             3.246         6.35447         2.65115
LJ          0.894735         6.31209        -3.94683
LJ         -0.779558         3.44853         4.97234
LJ          -1.86298         2.42613        -4.58256
LJ           1.78953         0.35224        -4.49564
LJ         -0.363636         5.11146         4.39686
LJ           5.89921       -0.139081        -2.23434
LJ           1.25439       -0.590661         1.84881
LJ           1.48594         5.74836        -5.50375
LJ           5.55115       -0.791681       -0.351802
LJ            4.3464        -1.72872        -1.92798
