108
#Comment!
LJ          -2.60505         5.99032        -5.22362
LJ          -3.27263        -4.08525        -5.95056
LJ           2.64605        -1.89793        -1.68253
LJ          -1.60544        -2.51151        -3.75906
LJ          -1.38367        -3.56009        -3.69939
LJ          -3.48264        -3.69554        -3.63844
LJ          -3.49476         1.94351        -6.25744
LJ          -5.94203        -2.80738         5.62851
LJ          -4.76991        -4.47767        -5.87471
LJ          -2.09141         -1.1552        -4.37183
LJ          -4.22362        -5.48126        -5.99139
LJ           2.69499         5.08993        -0.65058
LJ           4.22609         5.19115       0.0347897
LJ          -2.34947         -3.3337        -3.62762
LJ          -0.77787        -3.36178        -6.44981
LJ          -5.99202         6.20899        -3.97217
LJ          -3.82192        -3.66413        -4.73829
LJ          -1.80739          5.4808       -0.650422
LJ          -3.26047        -1.23864         -5.3254
LJ          -2.36592         -5.5689        -5.83819
LJ          -2.51187        -4.85854        -5.07044
LJ          -2.80306        -6.20526         4.59931
LJ          -4.23803         6.16687        -6.03626
LJ           4.77555         5.55989       -0.938247
LJ          -1.83172         4.32687       -0.948636
LJ         0.0460056         1.85605       -0.680586
LJ         -0.296981        -2.14379         5.81646
LJ         -0.794542        -3.83526        -5.48431
LJ          -2.34591         4.96453         3.52771
LJ          -1.94986        -2.31406       -0.854589
LJ          -1.86313        -4.88008        -3.89413
LJ          -2.37643         6.37607          2.5485
LJ          -4.37966         -1.6239         -4.8013
LJ          -4.15117        -3.44522        -6.07638
LJ         -0.880167        -2.74568       -0.507013
LJ           1.84102        -1.63521         6.45028
LJ            4.2673        -2.87991        -5.15988
LJ          -3.82186         6.26747        -5.06284
LJ          -2.73316          -3.339         5.91356
LJ          -2.53487         -4.7588         6.01308
LJ            2.2003         4.07004        -1.28987
LJ          -4.69058        -5.64306        -5.02246
LJ           5.42086         6.28839        -2.31028
LJ          -3.85492        0.303755         3.27957
LJ          -3.44642        -5.74659        -4.20331
LJ           5.62294         1.90333        -1.00919
LJ          -3.33825        -4.36704         5.26934
LJ         -0.972135        -2.09685         3.13544
LJ          -3.19985         -1.4609        -4.19437
LJ          -5.55233        -1.72328        0.150959
LJ           3.19833        -3.85111         4.07476
LJ            5.9988         6.13212        -3.37712
LJ           1.18626         4.08227        -2.42187
LJ          -3.14222        -2.92932        -4.15734
LJ           -3.5303        -4.83089         6.20783
LJ           5.93204        -4.25577         5.96708
LJ          -3.53093       -0.728157         0.51454
LJ          -3.81075        -2.82336        -5.32245
LJ           4.38519        -6.38149       -0.624186
LJ          -3.88061        -4.55921        -5.28129
LJ          -2.66772         5.91227          3.6931
LJ           1.52454         5.62483        -1.50328
LJ          -3.34939        -5.50449        -5.50742
LJ           4.97124         5.90496         1.04916
LJ           5.03878        -2.51612        -3.27603
LJ            1.0158         6.17411         3.94169
LJ           5.28749         4.63759         1.84064
LJ           4.29836        -5.72262        -4.22524
LJ         -0.517943         -3.0266        -3.96342
LJ          -4.87665         1.53272        -6.27707
LJ           1.31887         -6.4354        -6.29985
LJ            5.9498        -1.79108         5.45845
LJ          -2.68285        -5.51493        -3.02912
LJ          0.567205         2.67036        -2.66177
LJ           3.97991         4.87927       -0.934556
LJ          -2.85509        -4.04004        -4.53573
LJ          -2.59067        -2.16794        -6.24827
LJ         -0.552846         4.60573         3.03997
LJ           -3.1862        -4.72254        -3.88296
LJ          -6.42909         5.04274        -3.84415
LJ         -0.924948         1.48125        -5.46302
LJ          -3.13649        -1.52443        -1.65777
LJ           4.52578        -5.02278       -0.826235
LJ          -2.03758        -3.98698        -5.23446
LJ         -0.431863        0.197549        -4.15406
LJ          -3.89816         2.80263         4.37562
LJ           4.29515          5.5196         2.01881
LJ          -1.69114        -3.94972         5.86039
LJ          -2.55899        -2.29636        -4.98595
LJ          -3.10441        -2.33884        -2.97486
LJ         -0.385828         5.82801        0.787805
LJ           1.23642        -1.20763        -1.50415
LJ          -5.23734        0.425878        -5.51926
LJ          -4.94164        -4.53341         5.29886
LJ          -1.05061        -4.15457        -4.55644
LJ           1.58718         6.05208         4.94566
LJ           -1.6346        -2.88413        -5.12235
LJ          -2.90769        -3.16718        -5.54335
LJ          -1.63942        -4.48968        -6.05137
LJ         -0.610166         5.67766         3.66855
LJ          -4.26594        -4.74825        -4.23783
LJ          -1.76585        -3.22344        -6.12715
LJ          -3.41121        -5.91972         6.35369
LJ           -5.0004        -2.14048         6.35646
LJ         -0.550443         1.65784        0.387767
LJ          -3.50333        -6.24629         3.74134
LJ          -3.79917         -4.6884         3.37366
LJ            1.0626         2.01234        -1.40236
