108
#Comment!
LJ           -1.7954         5.78414        -4.74878
LJ          -2.87004        -4.15565        -5.52586
LJ          -2.80906         -3.0624        -5.01721
LJ          -2.37904        -1.87365        -3.14415
LJ         -0.814867        -1.06026        -3.31645
LJ          -3.03798        -1.39503        -4.15808
LJ            5.5767         2.35655       -0.922568
LJ          -5.17025         -1.4662        -5.58829
LJ          -3.34535        -2.93062         5.56125
LJ          -4.12226        0.637131        -3.37979
LJ           -0.4233         4.88921         5.92922
LJ          0.580652        -4.71064        0.453579
LJ           4.41084         5.41419         3.09184
LJ          -2.31653        -1.29936        -2.02724
LJ          -1.76887        -3.75939        -4.20229
LJ           4.79552         2.59992        -1.87982
LJ          -1.54476         -1.5187        -1.40152
LJ          -5.07947         1.86429        -5.93906
LJ          -4.37936        -1.28345        -3.34364
LJ          -3.41301          1.2637        -3.98575
LJ          -4.52196        -4.52531        -5.31694
LJ          -1.23969          5.2998        -3.16723
LJ         -0.303159          4.4528         3.76593
LJ            3.6415        -5.75018        0.760012
LJ          -1.89236        0.556924        -5.86189
LJ            5.1445         3.56824        -1.01635
LJ          -1.11583        -2.30516        -4.60914
LJ         -0.464313         6.04103        -2.85448
LJ         -0.939537        -6.00793        -3.35848
LJ           6.15053       -0.803714         -3.3169
LJ          -4.49277        -1.03941        -6.38902
LJ          -3.11922        -2.85086        -2.76841
LJ          -1.96369        -1.71192        -4.08991
LJ          -3.00844        -2.20239         6.40182
LJ          -2.31101         4.72162         5.99861
LJ          -6.33095         2.62929        -1.47803
LJ          -1.92236        -1.02715        -5.25214
LJ          -1.57168         4.17925          4.0792
LJ          -3.37706        -1.26406        -2.84272
LJ          -3.89293       0.0578428        -1.95577
LJ           4.31516        -4.60108         2.34036
LJ          -5.46069        -1.71421         6.12872
LJ          0.682203         2.64118        0.046454
LJ          -4.62473         4.81007         3.24067
LJ          0.663744         5.81174        -4.32847
LJ           3.20519         1.58747         2.73941
LJ         -0.482913         6.45407        -5.54237
LJ         -0.477207         3.67986         4.70271
LJ          -3.69594         -1.1138        -5.38449
LJ           2.34365         3.12179         2.61434
LJ           5.34221        0.759483        -1.36881
LJ            5.8803         3.60202        -1.86186
LJ           5.69963         4.14921         1.39225
LJ          -4.65083       -0.347446        -2.90252
LJ          -2.23113        -4.80624        -4.28399
LJ          -4.50943        -1.58457        -4.40833
LJ           1.30989        -5.64394         4.81855
LJ          -3.44016       -0.162399        -2.98937
LJ         -0.421315        0.538329        -3.56768
LJ          -4.64917        -2.68406         6.45008
LJ         -0.744459         6.05233         6.28639
LJ           5.00671        -5.21334        -1.57904
LJ         -0.844699          5.3015        -4.34833
LJ           5.43731         4.93659        0.678134
LJ           5.17995       -0.831072        -5.68667
LJ           1.25858        -5.40939       -0.540054
LJ        -0.0335334        0.042865        -1.81577
LJ          -5.38089         2.50427       0.0760559
LJ          -4.77603        0.121333         5.88339
LJ           3.95761        -4.17903         -2.9028
LJ           4.48941          6.1684         3.81874
LJ          -5.32068        -4.79286        -1.03841
LJ          -1.30742        0.308669        -5.02729
LJ           5.34211         5.78259       -0.904301
LJ           4.43687        -6.34079         1.96313
LJ          -3.12415        -3.85576        -4.47118
LJ          -5.64603        0.182281        -3.61536
LJ          -1.11503        -3.14338         1.20502
LJ          -3.67428        -3.43718        -5.61741
LJ           4.73226         2.73004          -2.973
LJ          -1.24706         1.18193        -3.71572
LJ          -1.91461       -0.158025        -2.92521
LJ          -4.02646        -6.15081         1.15605
LJ          -1.99951         6.45488        -5.67655
LJ          -5.33091       -0.271668        -4.67514
LJ           2.84473        -4.86437       -0.971955
LJ            4.2616        -4.59501         1.00253
LJ          -3.54201        -2.31656        -5.14946
LJ          -2.77056       -0.244778        -1.86685
LJ          -2.64455       -0.747093        -3.42646
LJ          -1.84248        -2.66503        -3.45847
LJ          -1.99416       0.0817899        -3.99033
LJ          -2.78907        -2.37472        -4.04225
LJ          -6.32704        -1.41028          -6.199
LJ          -1.68659         4.64238        -4.14722
LJ           1.31691         2.42879        -1.35263
LJ           -3.7024        -2.25504        -3.42153
LJ          -5.63363        -3.83858         4.12919
LJ         -0.562085         5.62054         4.89688
LJ         -0.968302         6.38893        -4.48741
LJ          -1.67708        -2.45859        -5.56898
LJ          -2.86601        -3.78643        -3.42949
LJ          -1.51211         4.18582         6.43477
LJ         -0.819738        0.233924         1.67765
LJ           2.04835         1.11133          5.9617
LJ          -1.35653         5.64242        -5.82044
LJ          -5.45668       -0.930151        -3.29863
LJ          -2.91397        -2.18039         3.29853
