108
#Comment!
LJ          -2.47248        -4.39104        -5.10583
LJ          -3.04941        -3.82819        -6.07186
LJ          -5.67343       0.0172643       -0.812322
LJ           -3.6645        -4.04179         -4.0107
LJ          -2.62977        -5.25958        -2.73379
LJ          -2.89159        -2.81725        -3.79574
LJ        -0.0577579         1.21038           4.292
LJ          -4.08274        -2.03757         5.09246
LJ          -4.78052        -3.23755        -5.39672
LJ           2.77371         -2.7691        -1.71267
LJ          -4.63324         5.21275         6.44997
LJ         -0.032967         3.08968         -2.0203
LJ           4.76875         5.74237         1.11821
LJ          -1.75928        -3.55306        -4.97604
LJ          -2.16683        -5.15487        -5.70935
LJ          -3.19306        -5.28126        -1.71702
LJ          -3.10986        -3.54104        -4.98986
LJ          0.226491         5.63905          3.0873
LJ          -3.65522        -5.17429        -3.43514
LJ         -0.685216        -4.11956         5.09732
LJ          -2.27791         -5.2859        -4.70903
LJ           5.92295        -1.87387        -4.28493
LJ           -0.7253         -5.4714        -5.27164
LJ           4.81498        -6.07856         2.20152
LJ         -0.295159         -4.8902         2.56906
LJ          0.298578         1.69927       -0.224519
LJ          -3.91834        -3.16437         5.20753
LJ          -2.08183        -3.25127        -6.32171
LJ         -0.793357          5.2248         2.67108
LJ           3.11304        0.691835         3.57771
LJ        -0.0178727        -4.88282         5.36695
LJ        -0.0294033        -4.59354        0.451658
LJ           -2.1882        -2.79106       -0.937772
LJ          -3.39018        -1.65687        -5.33603
LJ           2.53072         1.97842             2.9
LJ          -2.26685         4.09666        -2.19279
LJ          -3.62465        -4.45939          6.2586
LJ           6.00608        -6.25976        -2.67983
LJ          -3.91457        -1.91622         6.20851
LJ          -2.89248        -3.67007         5.49281
LJ         -0.853346         3.46765        -2.58793
LJ          -2.82886        -6.11393        -5.36223
LJ          -3.64108         6.03969        -4.53477
LJ          -3.57421        -2.79825         3.94332
LJ          -3.73006        -4.89417        -4.66063
LJ           6.10414         2.26595        -3.33497
LJ          -4.31388        -2.14794        -5.62581
LJ          -1.30293        -4.11012         6.06087
LJ           4.00137        -1.98163        -4.67797
LJ         0.0658689        -2.05177        0.377387
LJ           2.99315         4.43845        -4.08571
LJ          -4.69269        -4.70883        -2.23627
LJ         -0.990727         3.30284        -1.39961
LJ          -3.43342        0.547925        -5.96928
LJ          -3.78467         6.43853        -5.85495
LJ          -5.46061        -6.18385         4.94509
LJ          -6.41714         4.88569        -2.93811
LJ          -4.91913        -5.76566        -1.42043
LJ           3.45375        -6.31853        -2.07248
LJ          -1.58829        -5.25027        -3.42237
LJ          -1.30246         5.86151         1.98453
LJ           1.49242         2.72809        -2.35733
LJ          -3.13597        -5.85566        -4.05135
LJ           1.30587          3.9492         -2.0439
LJ           1.27633       -0.848147         2.74238
LJ          -1.26483        -3.93021        -1.59178
LJ           5.05785        -5.55791         1.31216
LJ           4.44268        -3.67071        0.554087
LJ          -2.41529        -4.42408          6.3829
LJ          -4.01463        -5.90188        -4.97256
LJ        -0.0425893         2.55233        -3.67561
LJ           6.19302         5.29778         3.32199
LJ          -2.11345        -3.93338        -3.53753
LJ          -1.05443        0.238731        -1.47748
LJ           2.14293         1.21062        -3.46221
LJ          -1.62024        -4.22303        -5.78965
LJ          -3.07223        -2.71016        -5.98599
LJ          -4.69342        0.457539         5.45775
LJ          -6.45147         4.53219        -1.11789
LJ          -3.19823         -5.0007         -5.5616
LJ           1.79175        -3.94632        -1.83966
LJ           3.28149         -5.2092        -1.92406
LJ          -3.46543        -4.35911        -2.78072
LJ          -4.16921        -6.22211         4.91048
LJ          0.843437        -6.34211        -6.14776
LJ           0.68491        -4.63954         3.13616
LJ          0.994745         1.73705        -1.16554
LJ          -1.87445        -3.42431         5.33291
LJ         -0.543637        -4.09682        -5.27194
LJ          -0.88193        -3.11631        -5.30144
LJ           1.84952          5.8679         2.99014
LJ           1.38261        -1.97065         -1.0939
LJ            5.4145        -4.57607         1.29936
LJ          -4.02809        -4.31342        -5.72291
LJ          -2.85883        -4.89728         5.28994
LJ          0.363205        -5.22795       -0.708621
LJ         -0.997981        -2.68988         5.55657
LJ          -1.39872        -2.17204         -5.9765
LJ          -3.24158        -6.00232         6.15127
LJ         -0.439746        -6.20255       -0.320108
LJ           -2.7482        -4.74866        -3.74858
LJ          -3.19332        -2.68882          5.8366
LJ          -1.40222        -4.63716        -4.47421
LJ          -2.20705        -2.66333        -5.29981
LJ          -1.33149        -4.61191        -2.64296
LJ          -5.94682        -2.37946         4.41002
LJ          -4.84522         1.23986       -0.526784
LJ         0.0445499       0.0185412        -1.78864
