108
#Comment!
LJ          -2.43981        -4.32124        -4.98426
LJ          -3.08409        -3.82062        -5.93006
LJ          -5.64387       0.0625349       -0.912198
LJ          -3.61869        -3.91544        -3.91343
LJ           -2.6446        -5.36813        -2.62672
LJ          -2.84837        -2.61237        -3.80857
LJ         0.0385676         1.15869         4.29145
LJ          -4.10426         -2.0577          5.0447
LJ          -4.74651        -3.32916         -5.4706
LJ            2.8201        -2.81299        -1.61975
LJ          -4.66219          5.1436        -6.42485
LJ        -0.0819826         3.00917        -2.05822
LJ            4.7859         5.74498           1.151
LJ             -1.66        -3.59009        -4.98725
LJ          -2.14021        -5.26728        -5.62726
LJ          -3.16632          -5.296        -1.72689
LJ          -3.08434        -3.40046        -4.93393
LJ          0.222126         5.65288         3.12087
LJ          -3.63119        -5.27484        -3.49825
LJ         -0.687271        -3.94528         5.00236
LJ          -2.34807        -5.40765        -4.55388
LJ           5.86565        -1.85779          -4.092
LJ         -0.771025        -5.55518        -5.36384
LJ           4.79847        -6.04203         2.21212
LJ         -0.239598        -4.90097         2.53553
LJ          0.320784         1.66492       -0.269556
LJ          -3.87439        -3.19315         5.19981
LJ          -2.08017        -3.14499        -6.40025
LJ         -0.714804         5.24438         2.79586
LJ           3.24965        0.804283         3.68492
LJ        -0.0861042        -4.86429         5.29768
LJ          -0.10361        -4.50288        0.267189
LJ          -2.23321        -2.64158       -0.818762
LJ          -3.34648        -1.62156        -5.23851
LJ           2.55556         2.04657         2.95698
LJ          -2.34161         4.20943        -2.06126
LJ          -3.52358        -4.44304         6.11605
LJ           5.95498        -6.20883         -2.5765
LJ          -3.93115        -2.01297         6.28622
LJ          -2.93927        -3.74095         5.57905
LJ           -0.9012         3.50071        -2.67041
LJ           -2.7923        -6.22477        -5.38384
LJ          -3.45548         6.02233        -4.70274
LJ          -3.58973        -2.87899         4.10341
LJ          -3.67138        -4.78485        -4.72218
LJ           6.09926         2.27205        -3.38601
LJ          -4.23543        -2.14133        -5.58353
LJ          -1.46414        -4.29359         6.09562
LJ           3.93156        -1.95398        -4.78868
LJ          0.194634        -2.03241        0.303794
LJ            2.9867         4.34605        -3.98921
LJ          -4.80036        -4.63039        -2.31366
LJ         -0.995927         3.29324        -1.39056
LJ          -3.39454        0.623653        -6.10585
LJ          -3.77735        -6.43857        -5.87868
LJ          -5.55294        -6.24619         4.82324
LJ          -6.46315         5.01876        -2.97735
LJ          -4.82469        -5.79894        -1.29653
LJ           3.38408        -6.35746        -2.09134
LJ          -1.53023        -5.25994        -3.50226
LJ           -1.2559         5.81323         1.96648
LJ           1.41353         2.62826         -2.4041
LJ          -3.10532        -5.81354        -4.20279
LJ           1.30144         3.96502        -2.11805
LJ           1.21075       -0.844165         2.84779
LJ          -1.23522         -3.8485        -1.69862
LJ           4.96421        -5.59078         1.18603
LJ           4.43391        -3.65727        0.641822
LJ          -2.53055        -4.56526         6.32929
LJ          -3.94497        -5.80014        -4.96737
LJ        -0.0945419         2.48964        -3.56653
LJ           6.17605         5.15357         3.38466
LJ          -2.11018        -3.77067        -3.69047
LJ          -1.05135        0.165798        -1.44287
LJ           2.07837         1.16218        -3.49136
LJ           -1.4537        -4.21078        -5.80819
LJ          -3.17611        -2.68526        -6.02255
LJ          -4.80322        0.407526         5.46508
LJ           6.38656         4.44292        -1.14941
LJ          -3.13884        -4.86787        -5.61564
LJ           1.88069        -3.73525        -1.78007
LJ           3.18843        -5.31289        -1.86971
LJ          -3.40991        -4.46068        -2.71971
LJ          -4.17613        -6.19997         4.91483
LJ          0.904825        -6.33053        -6.18066
LJ          0.535295         -4.7986         3.12622
LJ          0.906754         1.66018        -1.16749
LJ          -1.96107        -3.49898         5.26399
LJ         -0.391545        -4.11377        -5.21473
LJ         -0.741914        -2.95505        -5.25021
LJ           1.91044         5.86872         2.99162
LJ            1.4132        -2.00312        -1.11333
LJ           5.38431        -4.61169         1.24894
LJ          -4.03026        -4.17532        -5.54227
LJ          -2.89642        -4.91841         5.15785
LJ          0.421519        -5.22002       -0.736478
LJ         -0.950558         -2.7455         5.59201
LJ           -1.3879        -2.27608        -5.92828
LJ          -3.21425        -6.07772         6.24877
LJ         -0.484199        -6.15025       -0.380039
LJ          -2.77748        -4.69608        -3.80852
LJ          -3.22464        -2.69486         5.88642
LJ          -1.42934        -4.57381        -4.48718
LJ           -2.4247        -2.62268         -5.3689
LJ          -1.14637        -4.57506        -2.69823
LJ           -5.9957        -2.58009         4.46691
LJ          -4.82092         1.41064       -0.568641
LJ       -0.00567581      -0.0299886        -1.79071
