108
#Comment!
LJ          -1.82184         6.04974        -5.19371
LJ          -2.82486        -3.57527        -5.64977
LJ          -2.76787        -2.77687         -4.8528
LJ          -2.54579          -1.872        -3.49371
LJ        -0.0715971        -1.22534        -3.02043
LJ          -3.52283        -1.59728        -4.31259
LJ            4.3133         2.41347       -0.676928
LJ          -4.68064        -1.47906          -5.763
LJ          -3.03642         -3.5047         5.14546
LJ          -4.47353        0.361294        -3.44785
LJ         -0.757855          5.1538         6.15394
LJ          0.572098        -4.90628       -0.512453
LJ            4.4081         5.52806         2.71587
LJ           -2.1039        -1.34772        -2.45752
LJ          -1.54687         -3.7935        -3.92193
LJ           5.62854         2.56628        -1.73298
LJ          -1.64198        -1.86253        -1.61835
LJ          -4.69345         1.08412        -5.86763
LJ           -4.3676       -0.653776        -3.75634
LJ          -1.34857         1.75599        -3.75766
LJ          -4.68513        -4.36394        -4.74655
LJ          -1.04372         5.33994        -3.38095
LJ          -1.10302         4.40113         3.16835
LJ           4.05114        -5.69573        0.920283
LJ          -2.88083        0.841584        -5.85903
LJ           5.10113          3.5394        -1.19584
LJ          -1.23093        -2.54036        -4.69442
LJ         0.0167015         5.97505        -3.19351
LJ          -1.09857         6.35768        -3.10784
LJ          -6.23694       -0.873211        -3.13374
LJ          -4.44941        -1.37356         6.11468
LJ          -3.56422        -3.02937        -2.72025
LJ           -1.4288        -1.78684        -3.92772
LJ          -2.54743        -2.09409         5.72604
LJ          -2.09384         5.15687         6.35891
LJ          -6.44285         2.75082        -0.85701
LJ          -2.46217        -1.60598        -4.49693
LJ           -1.6205         4.34901         4.08926
LJ          -3.09464        -1.31537        -2.66884
LJ          -3.62028        0.522704        -1.72469
LJ           4.68856        -4.95698         1.78606
LJ          -5.91578        -1.14975        -6.21051
LJ          0.914917         1.77739       0.0391782
LJ          -4.59037         4.40987          3.2627
LJ          0.864049         5.20754        -5.15373
LJ           3.70586          1.4363         2.36135
LJ          -1.26848        -6.04409        -5.48526
LJ         -0.212479         4.22865         4.51809
LJ          -4.02724       -0.836536        -4.77517
LJ           2.32421         2.43979         2.85477
LJ            5.1881         1.48584        -1.99677
LJ           5.21369         3.39364          -2.292
LJ           5.35294         4.06694        0.989912
LJ          -4.19945       -0.674672        -2.47433
LJ          -2.51172        -4.20222        -4.40336
LJ          -4.52121        -1.64464        -4.26776
LJ           1.15535        -5.41787         4.59232
LJ            -3.487       -0.241552        -3.14474
LJ         -0.914244        0.782238        -2.35747
LJ          -4.10552        -3.06198         5.64845
LJ         -0.745224         6.39533         6.22938
LJ           3.96661        -5.21585       -0.921253
LJ          -1.01166         5.70982        -4.59918
LJ           5.42054         5.15984        0.858663
LJ            5.0469         -1.1293        -6.40664
LJ           1.29792        -5.49494        0.201927
LJ         -0.864689         1.37844        -1.39437
LJ           -6.0723         2.71658          1.1088
LJ          -4.08016       0.0909266         -6.3579
LJ           4.00015        -3.86786        -3.20532
LJ           3.88677         6.31458         3.19123
LJ          -5.23992        -4.69801       0.0501014
LJ          -1.24865        0.374474          -4.424
LJ           5.19993         6.30845       -0.990588
LJ           4.30473        -6.35765           2.167
LJ          -3.61153        -3.87533        -4.81834
LJ          -5.76321     -0.00451991        -3.91926
LJ           -1.1829        -3.62021        0.611659
LJ          -3.84239        -3.97342        -5.95134
LJ           5.02125         2.50024        -2.91239
LJ          -2.15537        0.481364        -3.66012
LJ           -1.7257       -0.245705        -2.54294
LJ          -4.70256        -6.37617        0.373663
LJ          -1.75296         6.14133         6.39845
LJ          -4.51968       0.0703425        -4.43765
LJ            2.8326        -5.40797       -0.748154
LJ           4.30298        -4.53374        0.578071
LJ          -3.15999        -2.52927        -6.38969
LJ          -2.99378       -0.272418        -2.24946
LJ          -2.28394       -0.854009        -3.43684
LJ          -1.31835        -2.06304        -2.67106
LJ         -0.748544       -0.867291        -4.14906
LJ          -2.72919        -3.26269        -3.86264
LJ           6.10147        -1.04215         -5.6866
LJ          -1.64851         4.93861        -4.20936
LJ           1.02918         3.02561        -1.84867
LJ          -3.75955        -2.15914        -3.49356
LJ          -5.10879        -3.55149         4.79587
LJ          -1.19248         5.58913         5.24473
LJ          -1.19444        -6.15439        -4.38542
LJ          -1.69268        -2.16615        -5.84024
LJ          -3.41911        -4.24088        -3.40291
LJ          -1.65678         4.54528        -5.76986
LJ          0.108858        0.296621         2.65879
LJ            2.1372         1.20394        -6.28894
LJ         -0.864902         5.82571         -5.8303
LJ          -5.67075        -1.52408        -4.56271
LJ          -2.50882        -1.91436         4.24763
