108
#Comment!
LJ         -0.154737         -5.8278         5.82915
LJ          -2.30071         5.48101        -5.33835
LJ           -3.4647       -0.819306        -1.72329
LJ          -3.20291         4.66212        -4.22778
LJ           3.44452         4.20043        -2.21597
LJ          -3.42794       -0.219876         6.29789
LJ           5.98579         3.87212         1.22989
LJ          -4.22817        0.454659         4.37817
LJ         -0.528281        -5.32118        -5.19106
LJ           1.15297        -1.66175         5.59657
LJ         -0.684551        -2.00629        -3.10119
LJ           4.01996        -6.14791         4.08647
LJ          -4.69666         5.46618         3.75295
LJ           6.45691          4.4862         5.84193
LJ          -5.27484          2.5811        -4.78856
LJ           2.69212       -0.301363        -1.27271
LJ           4.02479        -1.88275         4.21914
LJ            2.8826        -5.17932         -3.7226
LJ           6.24793        -2.52094        0.386058
LJ          -2.01665        0.408447        -4.72563
LJ         -0.333557        -3.39418        -3.22108
LJ          0.798109         5.67789        -5.59995
LJ           1.24852        -6.36242          1.4263
LJ          -1.92027       -0.726467        -2.56473
LJ           2.16433         4.11492        -1.22838
LJ           1.67233        -2.21812         4.26592
LJ          0.304396        -1.81811         4.93234
LJ          -2.17159         4.33141        -3.47977
LJ         -0.454445        -2.60653        -2.25638
LJ           6.44621        -2.79742       -0.838621
LJ           -2.5353       -0.190922        -1.04098
LJ           4.64854       -0.860303         1.39892
LJ          0.684592        -2.65373         3.80759
LJ           -4.2383        -3.87379         5.48044
LJ           4.24207        -2.49844        -3.91913
LJ           5.47754         3.91382         5.58402
LJ          -1.34571        -2.96174        -2.77177
LJ           3.40023         2.27447          4.8976
LJ           5.49028        0.841069         1.05202
LJ           5.70557        -3.06561          -2.211
LJ           5.91943       -0.816093         5.20084
LJ           5.15838        -5.31074         3.60233
LJ            3.1827         4.23144        -0.12942
LJ           5.06787        -1.37199         4.70947
LJ          0.847182         6.33783        -4.33254
LJ           2.16854         3.28365         4.57019
LJ         -0.990659        -5.56889        -6.19531
LJ           3.48012         2.86355         1.50663
LJ           5.51972         5.30475       -0.122093
LJ          -1.72833        -6.22542         1.46553
LJ          -5.46067        -2.86001          5.5577
LJ           1.96519         5.02096        -4.64529
LJ          -4.54124         1.96137        0.966523
LJ          -4.33221         -1.6607        -3.28278
LJ          0.398503        -5.26643        -5.87641
LJ           6.31997        -1.31059         1.42936
LJ         -0.214757        -6.44678        -6.20316
LJ           4.11043       -0.453467         -3.0996
LJ           2.91324         2.72982        -2.25804
LJ           5.57485         6.33189         2.84445
LJ          0.863463        0.670877          -1.397
LJ           3.37179        -1.79211        -3.50892
LJ          0.185992        -6.18574        -5.19981
LJ          -5.14839         2.75483        0.539713
LJ           1.74562        -2.21053         2.34567
LJ        -0.0507098        -6.23869        -2.61164
LJ          -4.21118         -2.6784        -3.96819
LJ          -2.96473        -1.24236         4.12642
LJ          -4.47988        -1.64561         0.80048
LJ           3.95347        -6.36658         2.92688
LJ           2.91513        -5.85323         4.42648
LJ          -5.55057        -3.71709         4.82984
LJ          -4.78239          1.1413         6.43979
LJ          -3.97649         2.89688        0.875193
LJ           5.22961        -2.47496       -0.150246
LJ          -4.16864        -2.69821         1.35293
LJ          -2.53757         3.89883         5.51389
LJ          -2.43832          1.1584         3.97426
LJ          -3.12778        0.596252        -4.05133
LJ           2.67573          3.3311        -3.48432
LJ          -2.22969      -0.0434119        -3.62895
LJ          -1.41683         2.52132          4.3061
LJ           2.57206        -3.24344         2.00853
LJ           4.20098         4.53095       -0.563928
LJ             4.696        0.131937        -1.11263
LJ         -0.264005        -4.56199        -4.56935
LJ           5.00023       -0.240434        -2.55249
LJ           6.30358         3.34464        -6.15682
LJ          -1.45631         1.42087         3.99747
LJ          -6.13421        0.678868        -4.49877
LJ           0.14361       -0.674299         5.25896
LJ          -3.08167         2.86931        -4.42899
LJ         0.0610493        -5.76958        -4.16244
LJ            5.8588         5.91704         0.89323
LJ           -0.2968         5.57179         3.27039
LJ           6.35307         3.90101         4.82866
LJ           3.03995       -0.913748        -2.38816
LJ           2.76437        -5.09724         5.61393
LJ           2.54011         4.37318        -5.89058
LJ         -0.414134         1.94321         2.26497
LJ          -3.84464        0.535358        -5.50362
LJ          -2.12536       -0.434198          3.3317
LJ          0.487479         4.63424         3.68926
LJ           2.61954        -1.36655        -1.35641
LJ         -0.265917         -2.5607        -1.18816
LJ           1.59885         4.97871        -6.09247
LJ           5.74774       -0.627664         2.53644
LJ           2.49166        -0.17775       0.0445727
