108
#Comment!
LJ          -1.04105        -6.16385        -5.81369
LJ          -0.25806        -6.41136         -3.8988
LJ          -2.13464       -0.753267        -4.98827
LJ          -1.86966         0.49848        -4.72486
LJ           1.77164         5.32834        -3.03611
LJ          -2.67756       -0.826206         5.39678
LJ           4.22795         4.47127        -2.12095
LJ          -2.56339        0.286334         6.22017
LJ          -1.68204        -2.87094        -5.14474
LJ          -2.11667        -1.84752         5.75335
LJ          -1.15144        -1.47338        -3.78445
LJ           2.90597         6.43522         2.32148
LJ          -6.09968        -5.80243         3.63482
LJ           -4.3677         3.58009        -2.53663
LJ          -2.49979        -5.79638        -0.92968
LJ          -5.13471       -0.881266       -0.189167
LJ           1.89065        -1.59586        -6.12469
LJ           3.76086        -6.33814        -6.15646
LJ           6.37358        -2.68861        -2.12755
LJ          -4.17078         1.40865        -4.86851
LJ          -2.19452        -2.81276        -2.41665
LJ          0.771965          5.5601         -5.2389
LJ           1.76124         6.14654         4.34969
LJ          0.254267         4.92238         -6.0837
LJ           5.38198         1.78436        -1.28142
LJ           3.78977        0.763459         4.14603
LJ          -2.27867         -3.3707        -4.42551
LJ           -2.0344        -5.41565        -4.23589
LJ          -2.98993        -5.50852        -3.78231
LJ          -5.91172       -0.965735        -2.00287
LJ          -2.71939        -1.67522        -4.27363
LJ           5.17732        -2.05567        -2.73963
LJ          -2.72675        -1.92839        -5.94739
LJ          -6.32684        -4.87895         4.41697
LJ           1.29533        0.266213         6.24386
LJ          -3.24549         1.84344        -4.33141
LJ          -1.27828        -2.44676        -3.54449
LJ          0.276537          4.0882         3.93746
LJ          -6.04292        -2.30352         -1.0912
LJ           6.09252        -1.73631        -1.77949
LJ           4.85463        -6.01578          3.6914
LJ          -5.45064        -4.13981         6.27375
LJ           2.70462         5.88486        -2.92225
LJ          -5.52652        -3.67231         2.82265
LJ          -0.66475         5.74708        -4.71285
LJ           1.10293         3.42004         3.99233
LJ        -0.0868226        -6.21146        -4.96581
LJ          0.577489         4.01309         4.90525
LJ          -4.45689        -3.97035          6.1283
LJ           1.81392          5.5083         3.26249
LJ          -6.43514        -1.39589         3.30478
LJ          -6.02866       -0.652883        0.480993
LJ           6.42687         3.56121        0.661328
LJ           -4.6357         3.46488         -3.6134
LJ         -0.914659        -5.39204        -5.16373
LJ          -6.44507       -0.891627        -2.87325
LJ          0.870057         6.34951        -5.99999
LJ           5.48767         -1.0401        -2.99349
LJ           3.45517      -0.0235738        -5.94726
LJ          -4.78212        -4.94452         -6.3966
LJ         -0.440151         1.87924        -2.51571
LJ          -6.02227        -6.31149         5.75486
LJ         0.0488693         4.87393        -4.68585
LJ          -5.88178         3.54345         1.71152
LJ           5.87845       -0.736066        -2.04483
LJ           1.79716       -0.219554        -4.00838
LJ          -1.28826        -2.25531         4.91328
LJ           -1.8046         -1.0233        -5.98912
LJ           3.61296        -3.89635        -3.18503
LJ           2.45322        -4.97541     -0.00825274
LJ           4.17653        -6.36366         1.41731
LJ          -6.02615        -6.00121         -5.9361
LJ          -4.14645         2.59644        -3.16101
LJ          -5.32737         3.34059         0.74241
LJ            4.7089        -5.01008         3.22153
LJ          -1.16448        -2.06216        -5.67818
LJ          -4.22574        -0.68728        -4.87531
LJ          -1.80737         2.13111        -5.43215
LJ          -1.15709        -1.26111        -4.85809
LJ           4.18643         3.38265        -2.32785
LJ          -1.04502      -0.0275529        -4.92419
LJ          -4.01667         2.87271        -4.34326
LJ           2.93171        -2.74858        -4.70231
LJ           1.37026         4.18791        -3.39161
LJ           3.12754       -0.307213        -1.01657
LJ           1.35142        -4.07918        0.788459
LJ           6.22244         5.79659        0.733563
LJ          -3.30949        0.299874        -5.04454
LJ          -2.69312       -0.416497        -5.83511
LJ          -2.92551         1.32175        -5.43559
LJ          -2.87323        -2.70996         -5.2204
LJ          -3.44518        0.400174        -6.05595
LJ          -2.12881        -1.91074         -5.1655
LJ          -3.80551        -3.66898        -6.00316
LJ          0.217318         5.82217         5.98238
LJ          -3.40318         2.96338          4.9629
LJ          -5.13767        -1.55923        -1.05135
LJ           3.81691         6.45489         3.13457
LJ          0.760889         5.54202        -4.05654
LJ        -0.0734901         3.99107         6.44345
LJ          -2.10865        0.689445        -5.81954
LJ           1.41869        0.375894        -2.96743
LJ        -0.0128075         4.81787          5.6901
LJ           5.22012        0.762516        -1.47115
LJ           1.63013       -0.281733         2.36663
LJ         -0.274022         5.98748        -5.79799
LJ            6.4215       -0.151659       -0.882563
LJ           4.94102        -3.19309        -2.29116
