108
#Comment!
LJ          -2.83431         6.38055        -4.80522
LJ          -2.12186        -4.45831         6.41377
LJ           1.69563        -2.08944         -2.5098
LJ          -2.39911        -2.28224        -3.98346
LJ          -2.13728        -3.37985        -3.35493
LJ          -3.61973        -4.15466        -3.32937
LJ          -2.54841         2.23586        -5.72932
LJ          -6.29376        -2.53234         5.10029
LJ          -5.22223        -4.36358        -6.39905
LJ           -1.4473        -2.02816        -5.46549
LJ           -4.5529         -5.5861        -5.83984
LJ           2.50641         5.01232        -0.18377
LJ           3.59248          5.0555        0.270377
LJ          -2.99523        -2.87128         -3.2291
LJ          -1.53305         -2.5078         6.33882
LJ          -6.07951         5.76164        -4.03019
LJ          -4.36007        -2.46829        -4.70464
LJ          -2.27923         4.73366       -0.841962
LJ          -3.13388       -0.906336         -4.9831
LJ          -2.69137         6.33313        -5.99417
LJ          -2.24363        -4.50191        -5.15081
LJ          -2.69478          6.0975         5.80221
LJ          -4.17628          6.3361        -6.21646
LJ           5.07003         5.77237       -0.942039
LJ          -1.80655           4.314        -1.84612
LJ           0.13655         1.84602       -0.312381
LJ         -0.184645        -2.72425        -6.34818
LJ          -1.29481        -4.64916        -6.04527
LJ          -2.06243         4.60839         3.32785
LJ          -1.76036        -2.60259       -0.996986
LJ          -2.77788        -4.39118        -3.77011
LJ          -2.99695         6.41817         1.83748
LJ          -3.98244        -1.54782        -5.09867
LJ          -3.10585        -4.08498        -5.69034
LJ          -2.00578        -4.12553         -1.3634
LJ           2.44901        -2.56284         5.90777
LJ           3.01559        -2.53488        -4.81122
LJ          -3.55083        -5.81141        -5.52361
LJ          -2.76267        -3.23443        -6.24023
LJ          -2.20009        -4.87766         5.15022
LJ           2.52448         5.08709        -1.35099
LJ          -4.54242        -5.63625        -4.57811
LJ           4.05278        -6.25438        -2.01182
LJ          -3.93696        0.687835         3.28339
LJ          -2.10679         -5.7456        -4.93143
LJ            5.5022         1.82072       -0.645644
LJ          -3.07158        -4.23964         5.96798
LJ         -0.827878        -2.22924         2.94315
LJ          -3.93514       -0.717495        -3.98368
LJ          -6.13598        -1.42313         -0.8468
LJ           3.21886        -3.12644          3.3279
LJ           5.86429         5.79058        -3.54351
LJ           1.98599         4.10957        -1.77828
LJ          -3.68059        -1.95313        -3.75217
LJ           -3.7433        -4.92158         6.41218
LJ           5.82189        -3.63423         5.84771
LJ          -3.09558        -1.61482           1.039
LJ          -3.53758        -1.95706         -6.0339
LJ           4.27904        -6.39673        0.889758
LJ           -3.9918        -4.79272        -5.44875
LJ          -3.51572         5.98197         4.87186
LJ           1.46114         5.52775        -1.86949
LJ          -2.78938        -5.03429         -5.9517
LJ           5.23152         5.55714        0.504098
LJ           5.53225        -2.79536        -4.15504
LJ          0.991334         5.55067         5.28239
LJ           5.39551         4.73547         1.52241
LJ           3.65604        -6.01355        -5.20065
LJ          -1.19967        -2.92071        -3.72263
LJ          -5.78039         1.01534        -6.12703
LJ           1.44627        -5.97688          5.9437
LJ           6.19183        -1.56341         5.91291
LJ          -2.80929        -5.15247        -3.07073
LJ           1.29718         3.28122        -2.46285
LJ           3.53981         4.91675       -0.808908
LJ          -2.52271        -3.49925        -4.33927
LJ          -2.51856        -1.67856        -5.36307
LJ         -0.558959         4.95172         2.08555
LJ          -3.20168        -4.83936        -4.78309
LJ           6.20823         4.68979        -3.48805
LJ         -0.892859         1.00239        -5.49454
LJ           -1.9855        -1.32817        -2.25604
LJ           4.69335        -5.77493        -1.11128
LJ           -1.3568        -3.86922        -5.20523
LJ         -0.717455         -1.9454        -4.31311
LJ          -2.39882         3.85975         4.65565
LJ           5.59054         6.13554         1.65622
LJ         -0.989494        -4.38198         5.83978
LJ          -3.15135        -2.07138         -4.6042
LJ          -2.90954        -1.79754        -2.63623
LJ          0.744659          6.1464       -0.110383
LJ           1.39636        -1.08376        -1.46473
LJ          -5.20086        0.294401        -4.41384
LJ          -5.15293         -4.2139         5.01601
LJ          -1.11771        -4.78077        -4.48368
LJ           1.68192         5.79188         6.15303
LJ          -2.06798        -2.71899        -4.99901
LJ          -3.27099          -3.004        -5.33471
LJ          -1.34166        -5.80809        -6.08662
LJ         -0.831205        -6.45562           3.893
LJ          -3.86787        -3.77495        -4.93752
LJ          -1.52445        -3.61412        -6.34139
LJ          -3.28221        -5.76231          6.3767
LJ          -5.73639        -3.01979         6.25621
LJ          0.228817        0.555697       -0.103588
LJ          -2.60771        -6.04868         5.01119
LJ          -3.86498          -4.759         4.46019
LJ          0.747767         2.26155        -1.14722
