108
#Comment!
LJ         -0.979913         6.38849        -5.18491
LJ         -0.963733         5.08769        -5.25374
LJ          -3.37048        -1.07845        -2.44217
LJ          -3.19386         4.39371        -4.81518
LJ           3.65323         4.01825        -2.37993
LJ          -3.27027       0.0353138         5.78566
LJ           5.97053         5.03594        0.896046
LJ          -2.18852         3.01214         6.39397
LJ          0.309622         -4.7938        -5.59084
LJ          0.190568        -1.19731         5.50734
LJ         -0.739599        -3.70532        -4.37088
LJ           3.59968        -6.01935         3.77308
LJ          -5.07355         5.31979         3.84403
LJ          -6.05628         3.95974         5.90904
LJ          -4.60584         1.71825        -6.42225
LJ           4.52172       -0.831746        -2.25098
LJ           3.60769        -1.82738         4.42327
LJ           1.71276        -5.89913        -4.21355
LJ           5.58283        -1.80392       -0.600571
LJ          -4.23737        0.481917        -3.16583
LJ         -0.438342        -2.90198        -2.64109
LJ           1.02395         6.20924        -4.66265
LJ           1.14925         6.37284         1.77979
LJ          -2.47599        -1.85191        -2.74333
LJ           1.37052         2.55153        -1.60569
LJ         -0.342551        -2.51091         5.55132
LJ          0.215013        -1.94697         4.74251
LJ          -1.93835         4.43532        -4.31617
LJ          -1.11858        -2.05117        -2.74335
LJ            6.1672       -0.992275       0.0857091
LJ          -2.14677       -0.632119         -2.7348
LJ           3.78252      0.00553545        0.161406
LJ          0.745748        -2.72599         5.38028
LJ          -4.49175        -3.47729         5.50293
LJ           4.08175        -2.77821        -3.09687
LJ           5.85362         3.39813          5.9445
LJ          -1.47356        -2.84076        -3.36934
LJ           3.39108         2.65174         4.94146
LJ           4.96603      -0.0650396        0.399487
LJ           5.18887        -2.30355        -1.99903
LJ           5.80336        -1.29826         4.84842
LJ           5.59004        -5.89144          3.5668
LJ           2.84907         3.59076        -1.63124
LJ           4.89247         -1.4518         4.21493
LJ           1.18839         6.39246        -3.41927
LJ           1.96212         3.67632         4.64837
LJ         -0.136336         6.27659          6.3275
LJ           2.79461          4.4806         2.54787
LJ          -5.78541         6.40824         2.14135
LJ          -1.46989         -6.3566          1.6654
LJ          -5.30241        -2.62877          5.5443
LJ           0.95199        -6.25355        -2.45553
LJ          -4.86791         1.95253        0.893737
LJ          -4.30835       -0.785462        -3.24036
LJ         -0.207295        -5.05111         6.24032
LJ            5.1791        -1.22013         0.23439
LJ          0.709112        -5.89819         5.91837
LJ           3.88955         0.12194         -1.5558
LJ          0.163006         2.50714        -1.17211
LJ           5.65826        -6.31174         2.57685
LJ        -0.0805367          1.3845        -1.42044
LJ          0.215025        -3.15553       -0.425994
LJ         0.0872655        -6.05096        -5.18129
LJ          -5.45341         3.00207        0.924436
LJ           4.39947        -1.11207       -0.395731
LJ          0.470769         4.40608        -3.13958
LJ          -3.77534        -1.84309        -3.55666
LJ          -3.40259       -0.365379         4.41929
LJ          -5.79422        -2.49376         1.51045
LJ           3.00352          5.9371         2.58396
LJ           4.29316        -5.49994         4.55536
LJ          -5.72044        -3.84606         4.62916
LJ          -4.10605         1.26189        -5.46793
LJ          -4.19939         2.96891        0.907211
LJ           5.12868        -2.89615         1.50378
LJ          -2.78067        -3.91266       -0.465305
LJ          -2.14086         3.02127         5.30623
LJ          -2.95059         1.29742         4.75226
LJ          -3.15362        0.898756        -2.59229
LJ           3.61908         5.00345        -2.86863
LJ          -1.45701        -1.91585        -3.80944
LJ          -2.15837         2.20108         4.27587
LJ           4.54005        -3.62395        0.884715
LJ           3.79953         3.89313        -1.26659
LJ           4.18012        -1.93491        -1.08692
LJ           1.24497        -5.31353         -6.1313
LJ          -5.68117         1.09728        -2.44068
LJ          -6.15152         3.32821        -6.16166
LJ          -1.09991         1.57447         4.00493
LJ          -4.94394        0.865233        -4.83975
LJ          0.751091       -0.563328         6.21537
LJ          -3.59748         2.83981        -4.43508
LJ           1.02707        -5.43731        -5.04198
LJ           6.23356         5.85349         2.05485
LJ         0.0415989         5.45991         3.27317
LJ           6.05127         4.15689         5.03303
LJ           3.92613       -0.955991         -3.1884
LJ           2.95944        -5.83132         4.54651
LJ        -0.0546699         5.83816         -5.4455
LJ         -0.839307         1.99192         3.00435
LJ          -4.20568        0.232295        -5.90637
LJ          -2.27738       -0.370052         3.58783
LJ          0.579525         4.70475         3.85618
LJ            3.5875        -1.66185        -2.25223
LJ          0.221741        -1.79044       -0.209188
LJ          0.704852          6.3173         -5.8242
LJ          -6.34393        -1.92046        0.760808
LJ           3.16024       -0.751371        -1.95963
