108
#Comment!
LJ          -1.52516         6.17999        -4.99245
LJ         -0.641788         5.49877        -5.31704
LJ          -1.91721      -0.0416298        -2.33751
LJ          -2.68667         3.11433        -5.18322
LJ           3.01876         4.67438        -2.16929
LJ          -2.33356       -0.511854          5.2808
LJ           5.75341           5.327        0.190794
LJ           -1.5759         3.84607         6.11117
LJ          0.128296        -4.85235        -5.17142
LJ         -0.182424        -1.25415         5.37014
LJ          -1.23138        -4.31562        -4.33388
LJ           3.25585        -6.36789          3.1923
LJ          -5.64399          5.1348         3.59013
LJ          -5.89276         3.68668         5.57081
LJ          -3.92496         1.86021         5.75942
LJ           4.76134       -0.241757        -2.93818
LJ           3.73478        -1.72429         4.51294
LJ           2.22291        -5.93219        -5.14801
LJ           5.69405         -1.5759        -1.88067
LJ          -4.97569       0.0665862        -2.02491
LJ           -1.7489        -2.88452         -2.9867
LJ           0.90091        -5.48778        -4.33194
LJ            1.2922         6.13394         2.38978
LJ          -2.86499        -1.94853        -2.80376
LJ         -0.854136         2.31166         -2.3426
LJ         -0.175722        -2.07328        -5.82791
LJ         -0.390844        -2.24665         5.19146
LJ           -1.9881         4.69127        -4.39444
LJ          -1.10798         -1.3599        -3.14227
LJ           5.54893       -0.352179       -0.469176
LJ          -2.16775       -0.970374        -3.49663
LJ            3.4804        0.502783        0.161796
LJ          0.181006         -2.2223         6.08771
LJ          -4.94172        -3.29418         5.29512
LJ           4.53307        -3.45707        -2.86967
LJ           6.42636         2.76861         5.80589
LJ         -0.943643        -3.72144        -3.14336
LJ           3.18705         3.08771         4.89213
LJ            4.3218        -1.70145       0.0250196
LJ           4.87944        -1.67926        -1.17471
LJ           5.72533        -1.81128         4.54652
LJ           5.76552        -5.45216         3.76254
LJ           2.80997            3.38        -2.23655
LJ           4.70375        -1.57223         4.04582
LJ          0.557208         5.95309        -4.73516
LJ           1.96418         3.95269         4.35595
LJ         0.0141893        -6.31442        -6.04553
LJ           2.00757         3.96302         3.25233
LJ          -5.53885        -6.25779         3.68567
LJ          -1.17683         6.43848          1.8636
LJ          -5.35974        -2.23338         5.51803
LJ        -0.0521568        -5.34361         -1.2919
LJ          -5.17382         2.05057        0.838344
LJ          -4.73374        0.502951        -3.30464
LJ         -0.810374         -5.2624        -5.69721
LJ           5.08176        -1.15626         1.03407
LJ           1.37995        -5.92932           6.313
LJ           4.20632       -0.963832        -1.18068
LJ          0.616292         2.37774        -1.18239
LJ          -6.45568         -6.3092          3.2247
LJ         -0.152964         1.27771        -1.32283
LJ           -1.4189        -3.81944         0.93658
LJ          -0.16654        -5.80361        -4.82554
LJ          -5.55453         3.15831         1.17509
LJ           6.38165        -1.24446       -0.906092
LJ          0.870601         3.55836        -3.84369
LJ          -3.17882         -1.5319        -4.80159
LJ          -3.05293       0.0769804         4.53781
LJ            5.1714        -2.33467        0.423364
LJ           2.25425        -5.65922         2.37371
LJ           4.39297        -5.94478         4.05906
LJ          -5.61344         -3.9349         4.64333
LJ          -3.58917         1.48715        -5.25114
LJ          -4.40218         3.01009        0.915131
LJ           5.22955        -3.33008         2.37538
LJ          -2.10257        -4.31547        -1.43718
LJ          -1.93893         2.58763          6.3086
LJ          -2.85535         2.03076         5.78241
LJ          -2.86933       -0.895337        -2.71951
LJ           4.12334          4.8678        -2.29578
LJ          -1.75649        -2.17926        -3.82601
LJ          -2.33251         1.63921         4.06198
LJ           5.67319        -3.28996        0.325565
LJ           3.55201         3.75973        -1.47361
LJ           3.73117        -1.80484        -1.54503
LJ           2.25308        -5.45374         4.70804
LJ          -4.86212         1.94329        -2.42449
LJ          -5.76734         3.15219        -6.28499
LJ          -2.09309         2.06496         5.04897
LJ          -4.22646        0.619142        -4.74294
LJ          0.825904        -1.27435         5.57634
LJ           -3.8149         3.09473        -5.16907
LJ          0.724179        -5.50262        -5.85166
LJ          -5.66492         6.08278         2.78302
LJ          0.455652         5.38897         3.10798
LJ           6.02981         4.30593         6.02435
LJ           4.87352        -1.58046        -3.74649
LJ            3.3448        -5.96866         4.62578
LJ         -0.758661         5.56486        -4.14083
LJ          -1.06135         2.30458         3.11199
LJ          -4.87592          1.1948        -5.43575
LJ          -2.86481       -0.793549         3.96035
LJ          0.859344         4.79225         3.94681
LJ           3.92481        -1.37705        -2.98711
LJ          0.476826        -1.42964        0.330409
LJ           1.87157         5.94057          -5.609
LJ          -6.24618        -1.70191        0.178044
LJ           3.52798       -0.803641        -1.93068
