108
#Comment!
LJ          -3.47734        -5.29604        -6.11888
LJ          -3.06585        -4.31915        -6.15144
LJ           4.86126        -1.55079      -0.0755221
LJ          -2.84896        -1.94302        -3.73872
LJ          -1.42052        -4.76087        -3.90155
LJ          -2.68624        -3.80961        -4.06188
LJ          -2.93334         2.17877         4.97944
LJ           -5.0637        -2.80401         6.38803
LJ          -4.11318        -3.71551        -6.23931
LJ          0.263425        -1.46292        -3.61348
LJ          -4.22523        -6.24142        -5.84358
LJ           1.80544         4.26856        -2.02688
LJ           5.42662         5.95916         1.50781
LJ          -1.66667        -3.38155        -4.31103
LJ          -1.76235        -5.88717         5.88053
LJ          -5.53621         6.25799        -3.59896
LJ          -3.34716         -3.6193        -4.97197
LJ         -0.877083         5.47676        0.800851
LJ           -4.4711        -3.92239        -4.47592
LJ          -1.63476        -5.69961        -5.80902
LJ          -2.42163        -4.89184        -5.22892
LJ          -4.39975        -3.03915         3.50401
LJ          -3.69789         6.14859        -4.05411
LJ           5.82691         5.55956        0.563474
LJ          -1.48538         -6.4412         1.38953
LJ         -0.124053         2.03649       -0.895269
LJ          -1.86029        -2.90448         5.28661
LJ          -1.34369         -3.6909         6.35599
LJ          -2.06681         4.96794         2.60151
LJ          0.801937       -0.882733         1.15484
LJ          -1.44996        -4.87755        -5.01327
LJ        -0.0029675         5.96595           1.782
LJ          -3.04214        -1.53249        -5.77423
LJ          -4.54178        -2.86999        -5.65567
LJ         -0.317592        -1.11447        0.808417
LJ          0.120769         0.65957        -5.04871
LJ          -5.14971        -3.77527         6.36706
LJ          -4.60614         5.64329        -4.30394
LJ          -3.88272        -2.62019         6.05581
LJ          -2.23944        -3.69609        -6.07675
LJ           1.67133         3.05084        -1.61676
LJ          -4.48685        -5.95537        -4.67749
LJ          -5.41672         5.87603        -2.64262
LJ          -3.67516       -0.674465         3.29618
LJ          -4.54684        -6.00373        -3.37115
LJ           5.90469          2.1557        -1.93587
LJ           -3.1661        -3.57991         5.93471
LJ          -1.41584        -1.97553         4.43843
LJ          -6.13541        -3.01082        -2.04648
LJ           -3.7485        -2.65933         2.47681
LJ           3.13523        -5.72502         6.00301
LJ          -5.80131        -5.72327        -3.05416
LJ          0.136118         3.24702        -2.30014
LJ          -3.38867        -2.99687        -4.05474
LJ          -4.26776        -4.69819         6.39375
LJ          -5.81389        -5.03841         6.27459
LJ          -4.71519         1.38682       -0.932356
LJ          -5.03177        -3.19911        -3.59458
LJ           5.14746        -4.08611        -1.95812
LJ          -3.50838         -6.0251        -5.16238
LJ          -2.32225          6.1128         3.08084
LJ           1.73617         4.94141       -0.885387
LJ          -3.12034        -5.64892        -4.24284
LJ           2.89012         4.94318          0.4126
LJ           3.45417         -1.7796       -0.944774
LJ          0.291813        -5.69721         1.12167
LJ           4.21182         5.53782         0.96444
LJ           5.77373        -4.86414        -1.55064
LJ         -0.648532        -3.59249        -4.95291
LJ          -4.70876         3.23286        -5.84108
LJ           1.07992         4.85634        -5.46027
LJ          -6.00241         -3.8522          4.8619
LJ          -1.43623        -5.54002        -2.85946
LJ         -0.683969         2.06391         -2.1665
LJ           3.65853         3.14742        -2.13713
LJ          -2.17929        -3.84415        -5.08965
LJ          -2.75328        -2.48874         6.34057
LJ          -1.28712         2.25657          4.7864
LJ          -3.79149        -5.59115        -2.47263
LJ          -5.43533        -6.45477        -5.13046
LJ         -0.360546         3.09531        -3.80493
LJ            6.1394        -2.52101        -2.93191
LJ           4.55112        -5.22879        -1.59993
LJ          -2.17024        -5.08616        -6.37216
LJ          -0.72733         4.75858        -4.88407
LJ           5.34475       0.0147451         3.77436
LJ            2.6971         4.08819        0.995207
LJ         -0.793709        -2.61046         6.09773
LJ            -2.454        -2.85068        -5.45741
LJ          -2.71244        -3.16145         -3.0676
LJ         -0.954846         5.79013         2.31225
LJ           1.16003        -1.48221        -1.26858
LJ          -5.97151       -0.844016         3.97806
LJ          -4.08284        -4.07232         5.44446
LJ          -1.08641        -4.72027         -5.9967
LJ          0.289428         -6.0478         2.14941
LJ          -1.28953          -2.807        -5.28533
LJ          -3.38653         -2.5032        -5.77333
LJ          -1.46073        -4.65834         5.81726
LJ        -0.0777256         6.08727         3.34306
LJ          -3.51871        -4.84139        -4.81314
LJ          -1.76115        -2.26278        -6.36374
LJ          -2.37324        -6.20317        -5.13735
LJ          -4.55955        -1.91005        -6.34781
LJ           -1.3622         5.00375       -0.608123
LJ          -3.92894         3.48038          2.9178
LJ          -4.35741        -2.65551        0.966956
LJ           0.67668         1.94183        -1.70283
