108
#Comment!
LJ          -3.09231        -5.76569         -4.5207
LJ          -1.93724        -4.74854         6.37438
LJ            1.1868         -2.2154        -3.00369
LJ          -2.49598        -2.48257        -4.02925
LJ          -2.80119        -3.34253        -2.97168
LJ          -3.76177        -4.03539        -3.33307
LJ          -1.93963         2.38979         -5.3984
LJ           6.38813        -2.36227         5.11028
LJ          -5.47305        -4.47303         6.43174
LJ          -1.32041        -1.91332        -6.17567
LJ           -4.4608        -5.46241        -6.26326
LJ           2.32801          4.9997       -0.442385
LJ           3.68272         4.94151        0.692978
LJ          -3.34209        -2.33853        -2.99796
LJ          -1.69511        -3.09206         5.46321
LJ          -6.19037         5.38201        -3.97501
LJ          -4.55312        -2.17759        -4.86091
LJ          -2.46037         4.13095        -1.19898
LJ           -2.9188        -0.70102        -4.40411
LJ          -3.27658         6.02189        -5.15541
LJ          -2.16433        -4.30434        -5.30356
LJ           -2.8116         5.46979         6.39272
LJ          -3.79024        -6.38143        -6.08928
LJ           5.21589         5.02199        -0.37881
LJ           -1.8918         4.44482        -2.16564
LJ          0.301569         1.32871      -0.0473891
LJ         -0.848239         -2.8632        -5.87869
LJ         -0.844641        -5.07128        -5.78706
LJ          -1.88041         4.39303         3.43201
LJ          -1.58867         -2.8755        -1.08326
LJ          -2.31294        -4.32362        -4.38134
LJ          -3.37991         6.42331         1.44841
LJ          -3.63256        -1.19768        -5.19854
LJ          -3.28522        -3.83469        -5.53051
LJ          -2.69903        -4.97427        -2.01603
LJ           2.82482        -3.14835         5.58325
LJ           2.23732        -2.31882        -4.59379
LJ          -3.55707        -5.56339         -5.4924
LJ          -2.04549        -3.12219        -6.32307
LJ          -2.01904        -4.28229         4.80274
LJ           2.35202         5.54273        -1.54527
LJ          -4.45427        -6.07437        -5.15577
LJ           3.34169        -5.98103        -1.79844
LJ          -3.98747         0.92735           3.286
LJ          -2.17562        -5.72153        -5.28987
LJ           5.42559         1.77205       -0.418273
LJ           -2.8645        -4.12465         6.40808
LJ          -0.74144        -2.31393         2.82636
LJ          -4.26573        -1.10289        -4.26479
LJ           6.43086        -1.23471        -1.47235
LJ            3.2312        -2.67292         2.86756
LJ           5.72059          5.5698        -3.58257
LJ           2.50988         4.35192        -1.23893
LJ          -3.86251        -1.15155        -2.90795
LJ          -3.67491         -4.9369         6.33359
LJ           5.68965        -3.13667         5.76003
LJ          -2.81754        -2.17363         1.35741
LJ          -2.80532        -1.55447        -6.11929
LJ           4.83899          6.2222         1.55214
LJ          -4.10791        -4.56933        -5.57128
LJ          -3.65719         6.33096          5.7747
LJ            1.4477         5.28274        -2.02455
LJ          -2.74293        -5.05723        -5.90336
LJ           4.80352          5.7733        0.402027
LJ           5.83544        -2.97141        -4.72501
LJ          0.982051          5.2962         6.17513
LJ           5.61698         5.19189         1.27682
LJ           3.25105        -6.20179         -5.8097
LJ          -1.64185        -3.61695        -3.41321
LJ          -6.31753        0.621049        -5.93374
LJ           1.52115        -6.05945         5.47056
LJ          -6.33117        -1.77052         6.13196
LJ          -2.96023        -4.70768        -3.21873
LJ           1.93084         3.90025        -2.02896
LJ           3.44227         4.98766       -0.503602
LJ          -2.87256         -3.1643        -4.69405
LJ          -3.00036        -2.00141        -4.87062
LJ         -0.624597         5.21074         1.55997
LJ          -3.12167        -4.74145        -4.91245
LJ           6.12197         4.63008        -3.37632
LJ         -0.908778        0.707715        -5.51198
LJ          -1.68418        -1.33144        -2.94695
LJ           4.44733        -5.69673        -1.31032
LJ          -1.05807        -3.93386        -5.33767
LJ          -1.14153        -2.82146         -4.4656
LJ          -1.44113         4.63929         4.61128
LJ           5.92963         6.06541         0.77808
LJ         -0.560004        -4.49232         5.93501
LJ          -3.74384        -1.95504        -3.89223
LJ          -3.02357        -1.18111        -2.21148
LJ           1.52267         6.26816       -0.735444
LJ           1.39661       -0.988189        -1.46595
LJ          -5.04643        0.138533        -3.80948
LJ          -5.01506        -4.07056         5.27705
LJ          -1.22546         -4.6767        -4.65093
LJ           1.69131         5.88342        -6.03594
LJ           -1.9136        -2.63513        -5.21528
LJ          -2.98491        -2.61756        -5.82491
LJ          -1.15326        -6.11613         6.38792
LJ          -1.00375        -6.01219         4.04433
LJ          -3.68322         -3.9359         -4.4604
LJ          -1.23497        -3.92995        -6.36788
LJ          -2.99662        -5.63412         6.14485
LJ          -6.10964        -3.59013         5.90723
LJ          0.716681        0.468919       -0.590856
LJ          -2.29833           6.413         5.31573
LJ          -4.07051        -4.49894         5.50034
LJ          0.481677         2.43717         -1.0064
