108
#Comment!
LJ           -2.3975        -5.75712        -5.63258
LJ          -2.30776        -3.27123         5.85838
LJ           -2.1078        -2.86784        -3.25083
LJ          -3.07518        -2.74517        -2.88093
LJ          -2.39903        -1.85051        -2.05226
LJ          -3.77443        -2.62334        -4.56398
LJ           1.52403         2.91754        -3.61232
LJ           6.40726         -3.8795        -6.23186
LJ          -3.01277        -3.68907         5.07029
LJ          -3.92267        -1.79426        -5.17587
LJ          -2.13998         6.18012         6.19518
LJ           1.74707        -5.67956        -1.36964
LJ           5.00389        -6.29164         1.82681
LJ          -3.03429        -1.52228        -2.94252
LJ          -1.57545        -5.00977           4.887
LJ           5.98365         3.61794        -3.61257
LJ           -3.3468       -0.918089        -4.40272
LJ          -2.62816         3.35225        -3.99553
LJ          -3.96095        -1.25914        -3.44458
LJ          -6.36176        -2.94999        -3.76181
LJ          -2.54172        -3.26264        -4.67792
LJ           -3.3256         5.31934        -3.64835
LJ           -2.2928         5.09259         5.82243
LJ           4.79193         5.48752         0.66521
LJ          -3.14912         2.73381        -3.21151
LJ           2.55276        0.684051       -0.923989
LJ          -1.10499         -3.3138        -5.72754
LJ          -1.04461        -5.19649         -6.1928
LJ         -0.178865         5.22346         6.38824
LJ          -3.17611        -4.03691        -2.86938
LJ          -3.26016        -3.48266        -3.84908
LJ          -4.73705        -5.60416       -0.815673
LJ          -2.83959        0.208518        -2.85595
LJ          -3.04714        -3.71513        -6.45068
LJ          -3.34547        -5.83318        -5.17051
LJ           5.01354        -6.34966         3.83372
LJ         -0.196337       -0.954731        -4.74846
LJ          -3.65104        -6.29809         -6.0781
LJ          -2.98983        -1.33714        -5.20697
LJ          -2.21217          4.9749         1.55637
LJ            4.6171         6.27804       -0.868154
LJ          -3.85122        -5.19687         6.06398
LJ            2.2376        -3.03219         -0.6644
LJ          -4.26302         2.24149         3.30245
LJ          -1.85551          3.9127        -6.30571
LJ           4.96218         1.59047        0.807675
LJ          -2.17772        -4.99036         6.36393
LJ          -1.01195        -3.56826         2.27714
LJ          -3.16431        0.225964        -4.31599
LJ           4.60265        -0.38492        -5.47495
LJ           3.28065       -0.162516        0.339676
LJ           5.12478          4.3947        -3.64045
LJ           5.93545           5.159       0.0156729
LJ          -4.25805         -2.1059        -2.71827
LJ          -4.49024        -4.18632        -5.49548
LJ          -5.95604        -2.59274        -5.38379
LJ         -0.573941        -4.65261         3.29927
LJ          -1.25047        -1.39408        -4.70294
LJ           -5.7231          4.9661         1.07907
LJ          -4.40203        -4.25344          6.2806
LJ          -1.66308        -5.68739          5.7504
LJ           2.93174         6.08128        -1.02934
LJ          -3.02372         -4.6208        -5.38552
LJ           4.88824         4.32237       0.0993064
LJ            5.4541        -1.11324        -6.24747
LJ           1.66559        -6.24636        -2.73853
LJ          -6.02062         5.10758      0.00636998
LJ           2.25694          4.8432         5.09294
LJ          -1.53133         -1.6581        -3.43123
LJ           4.31808         -1.8564        -4.68093
LJ           1.07558         5.60628         3.36042
LJ          -5.21345        -5.01943               6
LJ          -5.94928        -2.29188         -2.5502
LJ           3.44321        0.331069        -1.44401
LJ           2.56541         6.14511        0.365282
LJ          -2.84746         -2.3078        -5.00068
LJ          -3.40306        -2.13075        -3.77269
LJ         -0.963727        -6.27771        -1.26229
LJ          -3.55542        -3.58765        -4.96969
LJ           5.48406         4.19288         -2.6736
LJ          -1.97339       -0.641925        -5.24104
LJ          -2.40257       -0.765552        -3.81104
LJ           3.51308         6.30463        -2.36908
LJ          -1.14302        -4.36475         6.06313
LJ          -2.11105         5.94475        -3.93655
LJ           1.26597        -6.18193         2.51954
LJ           4.54864         5.28233        -0.32589
LJ         -0.599211        -6.15402        -4.53697
LJ          -3.86811       -0.225778        -3.45889
LJ          -1.63353        -1.14154        -2.08449
LJ           1.03156         -5.1172       -0.345978
LJ          0.992778        -1.07049        -2.32963
LJ          -4.70407        -1.00921        -2.52216
LJ          -5.71792        -3.44769         5.84223
LJ          -1.41946        -5.77439         -5.3778
LJ           1.56813         5.53929        -4.01812
LJ          -2.46516         -1.9034        -4.11264
LJ          -2.19876        -3.08461        -5.64034
LJ         -0.555131        -6.40424         6.24154
LJ          -2.22096        -4.33884         5.49707
LJ          -4.54349        -2.61189        -5.76037
LJ          -1.96658         -4.1499        -5.49577
LJ          -1.41053         5.41975         6.22755
LJ           4.71715        -1.11008         4.32114
LJ           2.44776        0.975296        -2.02109
LJ          -1.62638         5.52944        -5.58937
LJ          -5.26966        -3.76467        -6.11327
LJ         -0.787262        0.937585         1.22772
