108
#Comment!
LJ          -2.67577        -5.17644        -4.69681
LJ          -1.96046         -3.8134         5.90412
LJ           -1.7589        -2.98643        -3.45516
LJ          -2.86094        -2.58192         -3.3166
LJ          -3.49328        -2.25059        -2.60698
LJ           -3.7648        -3.20052        -3.61221
LJ          0.148748         2.71171        -4.32565
LJ            -5.997        -2.72373         5.54029
LJ          -3.65189        -4.72299         5.75811
LJ          -2.49788        -1.85302        -5.21445
LJ          -3.08317        -5.80407         6.44915
LJ           2.27042        -5.94335        -1.04945
LJ           4.76609         5.94983         1.21245
LJ           -2.7976        -1.32727        -2.47358
LJ         -0.858261        -4.08683         5.00892
LJ           6.35885         4.34743        -3.98287
LJ          -3.40983        -1.49561        -4.38503
LJ          -2.46042         3.09004        -3.19087
LJ           -3.7918        -1.98977        -3.46994
LJ          -4.77299        -3.95527        -4.07005
LJ           -2.5489         -2.8555        -5.36099
LJ          -3.32619         5.19268        -4.57657
LJ          -2.24437        -6.41922        -6.00092
LJ           4.71749         4.60936         1.32882
LJ          -2.74687          3.9478        -2.42577
LJ           1.54238        0.367005       -0.708512
LJ         -0.350713        -3.77495        -5.09611
LJ           -1.5763        -5.17801         5.91556
LJ        -0.0168452         5.28409         5.61568
LJ          -1.80283        -3.53634        -2.54931
LJ          -3.04901        -3.52771        -4.41119
LJ          -4.69859         6.38008        0.173072
LJ           -3.1752       -0.651202        -3.71734
LJ            -2.678        -3.90837        -6.13633
LJ          -3.45797        -4.99435         -3.3867
LJ           4.11908         -5.0759          4.5324
LJ          0.446673        -1.29267        -4.80296
LJ          -3.94538        -5.46158        -5.52977
LJ          -1.53263        -1.98103         -5.8024
LJ          -2.23934        -6.36379         2.67003
LJ           4.10687         5.74248        -1.56534
LJ          -4.73639        -5.32706         5.71225
LJ           2.58987        -4.36091       -0.926945
LJ          -4.15287         1.71566         3.29616
LJ          -1.85524         4.57615        -5.47537
LJ            5.1632         1.64254         0.32901
LJ          -2.68576        -4.92942         5.92903
LJ         -0.653008        -2.69451         2.41997
LJ           -3.9772       -0.287039         -4.3438
LJ           5.33785       -0.596442        -3.59281
LJ           3.27024        -1.18058         1.36907
LJ           5.37766         4.88338        -3.69024
LJ           4.63612         4.94971        -1.17478
LJ          -3.83032       -0.959657        -2.76636
LJ          -3.80706        -4.12229        -6.17148
LJ           5.89428        -3.01811        -6.30404
LJ          -1.71084        -3.97236         2.48569
LJ          -1.74643        -1.25388        -4.92208
LJ           5.80684         5.93828         1.62863
LJ          -5.05253        -4.41343        -6.41243
LJ          -2.43249         -6.3796         5.88412
LJ           1.93687         5.55762        -1.49339
LJ          -2.77845        -4.84763        -5.76331
LJ           5.25358         4.82852        0.277351
LJ           5.93537        -1.98321        -5.82107
LJ           1.66087         5.68953        -3.80344
LJ          -5.55478         5.57057        0.245958
LJ           1.02809         5.58935         5.85406
LJ           -2.0945        -2.45816        -2.46709
LJ           4.90752       -0.792438        -5.25505
LJ           1.60594         6.02576         4.30159
LJ          -6.15361        -3.62304        -6.26618
LJ          -4.26581        -3.86613        -2.50337
LJ           3.45237         2.75554        -1.46632
LJ            2.2665         5.91796        0.137684
LJ          -3.57186        -2.58596        -5.48072
LJ          -2.83394        -2.31448        -4.36904
LJ         -0.864385         6.06115         -0.1329
LJ          -3.52621         -4.4112        -4.94469
LJ           5.72413         4.26328        -2.79398
LJ          -1.22242       -0.484904        -5.52758
LJ          -2.44531        -1.68964        -3.48619
LJ           3.23094        -6.30661        -2.53131
LJ          -1.03274        -4.24286         6.21936
LJ          -1.83087        -5.10577        -3.63956
LJ          0.244078         6.21037         3.06389
LJ           4.34213         5.17958       -0.142257
LJ         -0.127321         6.02908        -6.37465
LJ          -4.51847       -0.875964        -3.67644
LJ          -1.90451       -0.891604        -1.96847
LJ           1.46257        -6.07363       -0.246449
LJ           1.07309       -0.755919        -1.58998
LJ          -5.20108       -0.512279        -2.94193
LJ          -5.49207        -4.68218         5.56486
LJ           -1.9425          -5.425        -5.89363
LJ           1.81675         6.15627        -4.82436
LJ          -1.75746        -2.32869        -4.75319
LJ          -2.64202        -2.57105        -6.40351
LJ         -0.425703        -5.99596         5.76394
LJ          -2.18245        -4.62906         5.09349
LJ            -4.045        -3.29953        -4.65019
LJ          -1.57771        -3.82214        -5.68053
LJ          -1.40591         6.33247         6.06747
LJ           5.31398        -2.24818         4.41242
LJ           1.94749           0.808        -1.67357
LJ          -1.22965           5.229         6.43918
LJ          -4.93619        -3.98311        -5.32285
LJ         -0.350659         1.67821        0.327641
