108
#Comment!
LJ          -1.80836         6.12708         -3.9738
LJ          -1.24301        -4.99147        -6.44577
LJ          -1.88134        -2.73408        -5.72916
LJ          -1.59167      -0.0576088        -3.82243
LJ          0.171491        -4.60574        -4.54534
LJ          -3.81387       -0.771591        -5.72902
LJ           4.19939         2.90851        -2.26101
LJ          -5.05371        0.261509        -6.00332
LJ          -2.99909        -2.80324        -5.99951
LJ          -3.20124        0.089126          6.4467
LJ         -0.303447          1.7179        -4.82906
LJ           1.93715        -5.69701         1.90157
LJ            5.8253        -5.86192         4.46568
LJ          -4.14235        0.873189        -3.45464
LJ          -2.06234        -3.43236        -4.54791
LJ           5.52682         1.15481       -0.949084
LJ         -0.242388       -0.575073        -2.26718
LJ          -6.42296         4.29644        -6.17588
LJ           6.20842        -2.34793        -1.91628
LJ          -3.43988         1.23754        -4.37641
LJ          -1.00814         -2.0248        -4.87762
LJ          -1.37956         5.12391        -3.38513
LJ           1.60822         4.36578         4.99398
LJ            3.6659        -5.07919         1.95101
LJ          0.412003        0.701075         3.63573
LJ           5.93101         2.47914        0.899981
LJ          -1.92726        -1.63533         -2.9099
LJ           -2.6835        -5.13252        -3.31209
LJ          -2.08972        -4.72254        -4.31889
LJ           -6.2555        -1.17891        -2.53128
LJ           -5.1564       -0.779315        -5.50032
LJ          -4.37173        -2.56388        -1.55042
LJ          -2.66897        0.254259        -5.49595
LJ          -3.72941         -4.3977         6.24642
LJ         -0.827571         5.23424        -6.41278
LJ          -2.26474          3.0786        -4.37625
LJ          -1.72317        -1.64105        -4.01516
LJ           1.14692         4.60844         3.76508
LJ          -5.48059         -2.7106        -2.05475
LJ          -5.18254        -1.95414        -1.05229
LJ           3.27231         -6.0624          3.4796
LJ          -4.82679        -3.10853        -5.44551
LJ            1.3097          4.6635        -2.02563
LJ          -4.81699        -6.21812         3.06677
LJ          -0.78989           5.829        -4.18803
LJ          0.229111         3.75836         4.48443
LJ          0.107922         5.31702        -4.63699
LJ           0.30565          3.4193          5.4424
LJ          -3.48827        -1.54198        -4.65428
LJ           2.93504         4.65864         1.96911
LJ           5.78411       -0.662973         1.16908
LJ           6.23148         1.61819        0.141978
LJ           6.04586         5.01752        0.734274
LJ            -3.805      -0.0573777        -2.50697
LJ         -0.870932        -6.36247        -5.25679
LJ          -5.70558       -0.174058        -3.70207
LJ            1.3337           6.227         5.94689
LJ          -6.38748        0.595453        -4.09801
LJ          -4.13675        -0.91538         5.37619
LJ           -4.7652        -4.29685        -6.03455
LJ         -0.417441         2.72133        -5.08115
LJ          -6.21175        -5.75096         -4.1587
LJ          -2.10163         4.65427        -4.20977
LJ          -6.33997         4.04841            1.47
LJ          -6.29721        0.240594        -2.91602
LJ          0.996788        -2.37012        -1.51947
LJ          -1.09004        -4.26749        -4.43985
LJ          -3.23846         1.76932        -5.31844
LJ           5.28521        -1.69514         -5.9468
LJ           2.46269        -4.48802       -0.387722
LJ           5.40731         6.19692         3.18775
LJ          -5.70961        -5.16356        -4.99319
LJ          -3.10068        0.612268        -2.67273
LJ           6.40032         4.03315        0.243819
LJ           5.24464        -5.62211         3.22238
LJ          -1.15442        -3.54788        -5.60064
LJ          -5.40904        -0.39481        -2.63723
LJ         -0.854163       -0.991467         3.85707
LJ          -2.41422        -3.73256        -5.86576
LJ           4.94419         3.50067        -2.74966
LJ           1.44979        -6.12827        -5.92876
LJ          -2.82572         2.10426        -4.40823
LJ          -1.08377        -5.14837         4.76595
LJ         -0.216012         6.05553         -3.1088
LJ           5.53191        0.254496        -3.01546
LJ            3.2222         -4.4752        -1.74866
LJ           3.44268        -6.39027         2.12544
LJ           -4.6256        -1.80444         -3.8064
LJ          -3.07523       -0.833083        -4.05256
LJ          -2.68431        0.355078         -3.8025
LJ          -3.12008        -3.28935        -4.65414
LJ          -4.41455        -1.01997        -4.78237
LJ          -2.30288        -2.18481          -4.835
LJ          -4.74468        -2.05317        -4.71299
LJ          -1.21924         4.42854        -5.54082
LJ          0.407786         1.98132         2.58054
LJ          -4.66403        -1.71561        -2.06713
LJ           4.58185        -5.67487         1.68593
LJ          0.166196          5.5415         4.85651
LJ          -1.02379         4.86244        -4.52503
LJ          -3.69194       -0.208995        -4.77935
LJ         -0.165225        -2.00476        -3.01005
LJ          0.151442         4.47633         6.12561
LJ          -5.38264         0.22427        -1.47092
LJ           2.03257        0.831336         3.09349
LJ          -1.60424         5.66268        -5.00635
LJ          -5.29847       -0.983812        -1.72162
LJ          -4.76282        -3.44954       -0.852076
