108
#Comment!
LJ          -3.40508        -5.34127        -5.77748
LJ          -3.64942        -4.29497        -5.90858
LJ           5.48866        -1.46484        0.360808
LJ          -3.06806        -2.15964        -3.22165
LJ          -2.19641        -4.67573         -3.1135
LJ          -2.58595         -4.1296        -4.02687
LJ          -2.34723         2.25378         4.46287
LJ          -4.92706        -2.94862         5.88328
LJ          -3.83755        -3.12734        -5.83453
LJ          0.898105        -1.79443        -3.28968
LJ          -4.46683         6.16155        -5.74107
LJ           1.28327         3.76592        -1.66972
LJ           5.06892         6.12932         1.94775
LJ          -1.26054        -3.88075        -4.16735
LJ          -2.05385        -6.04629         6.09366
LJ          -5.62442         6.26421        -3.13261
LJ          -3.38023        -3.66781        -4.98566
LJ         -0.681514         5.22016         1.49688
LJ          -3.90479        -3.88081        -3.95489
LJ         -0.828903        -5.88325        -6.45511
LJ          -2.55377        -4.92859        -6.06687
LJ          -5.38346        -2.50051         4.37066
LJ          -3.51004        -5.99679        -3.67264
LJ           5.81716         5.58485         1.27317
LJ          -1.45944        -5.49398         2.25821
LJ        -0.0404768         2.25492       -0.924883
LJ          -2.33449        -3.17688         5.64727
LJ          -1.38724        -3.23509         6.06371
LJ          -1.79292         5.26068         1.68659
LJ           0.88353        0.139303         1.50362
LJ         -0.306482        -5.07996        -5.68158
LJ          0.771514         5.61186         1.62323
LJ          -1.88022        -1.75846        -5.00814
LJ          -4.70946        -2.58258         -4.7816
LJ          0.766469        -1.08538         1.52848
LJ         -0.498836         1.42147        -4.52193
LJ          -5.04745        -3.90671         5.40307
LJ          -4.99734          5.7905        -4.87395
LJ          -3.53282        -2.54986         6.06705
LJ          -2.29655        -3.97009          6.2565
LJ           1.04752         2.70438        -2.16073
LJ          -3.98639        -5.82362        -4.76105
LJ          -4.47921         6.13012        -2.73764
LJ          -3.64593        -1.09471         3.30391
LJ          -4.51148        -5.77346        -3.86577
LJ           5.98981         2.25573        -2.24543
LJ          -3.33076        -3.56763         6.12992
LJ          -1.41355        -2.68197         4.76939
LJ           5.79097        -2.87396        -2.14803
LJ          -2.80994        -2.54489         1.96829
LJ           3.10892        -6.36892        -6.26495
LJ           -5.1097         -5.7165        -3.00314
LJ         -0.368524         3.14074        -2.05329
LJ          -3.86111        -3.00288        -4.24777
LJ          -3.86624         -5.5531         6.23447
LJ          -5.08512        -5.52176         6.13744
LJ          -5.14214         2.09966        -1.43721
LJ           -5.4047        -3.44244        -3.86076
LJ           5.10049        -3.91308        -1.86901
LJ           -2.8381        -5.50318        -4.61959
LJ          -1.68899         6.41194         2.54774
LJ            1.9361         4.46856        -1.21822
LJ          -3.15551        -4.90106        -3.77409
LJ           2.31712         4.57194      -0.0993589
LJ           2.99955        -1.51351      -0.0606084
LJ         -0.478046        -6.02075        0.543297
LJ           4.52419         5.91698        0.641112
LJ           5.46038        -4.56304       -0.772492
LJ           -1.2499        -3.86194        -5.64117
LJ          -4.61424         3.92733        -5.75903
LJ          0.882945         4.30219        -5.13966
LJ          -6.08011        -4.57112         4.38183
LJ          -1.17547        -5.34762        -3.03842
LJ          -0.39945         2.04825         -2.0944
LJ           3.37634         2.64779        -2.49703
LJ          -2.40538         -4.1357        -5.38691
LJ          -2.63302        -2.91231        -6.17334
LJ          -1.97938         1.55507         5.30552
LJ          -4.28978        -6.19342        -1.42291
LJ          -5.02153        -6.00601        -4.97266
LJ         0.0759674         4.32442        -3.04588
LJ           5.41735        -3.75305        -2.91034
LJ           5.70855        -4.78169        -2.33995
LJ          -3.18586        -4.72194         5.91381
LJ         -0.845858         5.88778        -5.27244
LJ           4.24859        -1.06665         3.64402
LJ           2.28836         3.73984        0.496751
LJ         -0.718367        -2.49824         5.79923
LJ          -1.90203        -2.98817        -4.96505
LJ          -2.80574        -3.12246        -4.29752
LJ         -0.635591          6.0346         2.75353
LJ           1.14186        -1.57747        -1.14435
LJ          -6.36915        -1.35949         2.78808
LJ          -4.45876        -4.48095         6.32704
LJ          -1.59974        -4.88394        -6.30751
LJ          -0.35459        -5.83936         1.66319
LJ          -1.16504        -2.60527        -5.72121
LJ          -3.27991        -2.44326        -5.19902
LJ          -1.96297        -4.76258         5.63492
LJ          0.407521        -6.12757         2.42239
LJ          -3.54657        -4.77966         -4.7698
LJ          -1.84579        -2.28264         6.15144
LJ          -1.81116        -5.62788        -5.52845
LJ           -4.0117        -1.97851        -5.93115
LJ          -1.58773         5.94996        -1.00448
LJ          -4.43953         2.13015         3.24687
LJ          -4.47353        -1.76547        0.559249
LJ          0.516045         1.65306         -1.6677
