108
#Comment!
LJ          -1.39586         5.68581        -4.49018
LJ          -2.87019        -4.30086        -5.62909
LJ          -1.80964        -2.72726        -5.73118
LJ          -1.38926        -1.14266        -3.16167
LJ          -0.24341        -2.38991        -3.23918
LJ          -3.50597       -0.111863        -5.85504
LJ           4.75769         2.18562        -2.40191
LJ          -4.70988        -1.44341        -5.77401
LJ          -4.34709        -2.97429        -5.04666
LJ          -4.44915          1.5364        -4.75906
LJ        -0.0572787         3.46302        -6.14818
LJ           1.96648        -5.40417         1.30575
LJ           4.79539         6.42279         3.71771
LJ          -2.61635       -0.370772        -1.67802
LJ          -2.01373        -3.46298        -4.82418
LJ           4.87378         2.20877        -1.00831
LJ          -1.52326       -0.715008        -1.85913
LJ          -5.82385         3.21047        -6.11387
LJ          -5.40709        -2.32447        -2.19999
LJ          -3.95052        0.447514         -4.7117
LJ          -3.55938        -2.26142         5.95194
LJ          -1.72095         5.33854         -3.3155
LJ          0.783346         4.94159         5.03162
LJ           2.95376         -5.3477         1.10846
LJ         -0.534876        0.434704         5.61284
LJ           5.68508         3.42613       -0.175929
LJ          -2.25252        -1.75832        -4.03298
LJ          -2.05856        -5.25242        -3.61225
LJ          -1.43224        -4.05386        -3.85201
LJ           6.44035       -0.647668        -3.13355
LJ          -5.42591       -0.569937        -5.35618
LJ          -3.48756        -1.79665        -1.30048
LJ          -2.78028        0.362387         -4.8302
LJ           -2.9097        -3.93265         5.85062
LJ          -1.77087         4.09812         6.13039
LJ          -3.73371         3.46394        -3.52023
LJ          -1.30772        -1.23009         -4.9864
LJ         -0.290472           4.465         3.55052
LJ          -3.81372        -2.03537        -2.53124
LJ          -4.70468        -1.56912        -1.91466
LJ           3.42576        -5.07112         3.09025
LJ          -4.43165        -2.50558        -6.16298
LJ          0.905858          3.9061       -0.997359
LJ          -4.70118         5.79903         3.15773
LJ         -0.243238         5.77436        -3.96286
LJ           1.69849         2.63628         3.56447
LJ        -0.0826774         4.47899        -4.66906
LJ         -0.776111          3.6546         6.03154
LJ          -3.71339        -1.78206         -5.0157
LJ            2.6781         4.05847         2.17526
LJ            5.5486       -0.113457       0.0546971
LJ           6.39144         2.63386       -0.553054
LJ           6.08574         5.01028         1.35328
LJ          -4.54633       -0.598778        -2.36643
LJ          -1.37564        -5.55519        -4.70979
LJ          -3.94455       -0.577029        -3.49885
LJ           1.46921        -6.37721         5.33839
LJ          -4.89175       0.0670483        -3.96037
LJ          -1.68575       -0.590793        -6.19343
LJ          -3.70916        -3.52621        -6.06418
LJ         -0.741625         4.20778        -5.82298
LJ            6.3597        -5.43985        -2.92185
LJ          -0.84396         4.86443        -4.03286
LJ           5.83152          3.8776        0.843431
LJ          -6.08769      -0.0110527        -4.40525
LJ          0.849856        -3.81222        -1.09237
LJ          0.332463        -3.32573        -3.86006
LJ           -4.3462         2.14059        -3.34974
LJ           6.27127       -0.708999         5.99457
LJ           3.74165        -4.99441        -1.65043
LJ           5.61718          5.6911         4.07581
LJ          -4.74056        -4.80234         -3.8608
LJ          -2.19835        0.026305        -2.83668
LJ           5.70701         4.48477       -0.394338
LJ           4.60982        -6.27161         2.32432
LJ          -2.31547        -4.45426        -4.65257
LJ          -5.26789       0.0302491        -2.94005
LJ         -0.961089        -2.01564         2.60276
LJ          -3.91293        -4.50244        -4.39754
LJ           4.86673         3.36837        -2.50994
LJ           1.27239         3.92814        -4.86368
LJ          -3.22665        0.509253        -3.87258
LJ          -2.45325        -5.60154         3.03335
LJ          -1.39518         6.32425        -3.58729
LJ           6.23656        0.277212        -3.54354
LJ           2.72331        -3.96798         -1.4484
LJ           3.84535        -5.28298         1.95128
LJ          -3.36795        -1.40117        -3.84242
LJ          -3.42119       -0.917649        -2.23995
LJ          -2.48792       -0.821743        -3.40141
LJ          -2.55097        -3.54626        -3.91436
LJ          -4.49708       -0.624633        -4.53221
LJ          -3.07267        -2.55647        -3.99258
LJ          -4.87057        -1.78312          5.7156
LJ          -1.69308         4.27618        -4.92703
LJ           1.21495         1.76727        0.893081
LJ          -4.48849        -1.55919        -3.57499
LJ           6.12172        -4.47339         2.64357
LJ         0.0074654         5.79793         4.36711
LJ         -0.493692         5.63708         -5.0302
LJ          -3.29728       -0.473276        -4.27557
LJ          -2.00049        -2.16939        -3.00357
LJ           -1.0588         4.62807         5.57436
LJ          -3.10312       0.0826042       -0.651216
LJ            1.8352        0.949601         4.27189
LJ          -1.80874         5.13376        -5.56775
LJ          -5.35271        -1.26004        -2.64768
LJ          -3.87343        -2.87794         1.16511
