108
#Comment!
LJ          -3.42771        -5.40634        -5.95445
LJ          -3.35985        -4.33067        -5.95936
LJ           5.09464        -1.51811       0.0852542
LJ          -2.86262        -2.03086        -3.49249
LJ          -1.70756        -4.74145        -3.59008
LJ          -2.58806         -4.1523        -4.10932
LJ          -2.80111         2.22354         4.77885
LJ          -4.77215        -2.95243         6.25662
LJ           -4.0458        -3.50458        -5.94962
LJ          0.491739        -1.58055         -3.4997
LJ          -4.21107        -6.20043        -5.98443
LJ           1.61906         4.00974         -1.9633
LJ           5.34637         6.04115         1.72644
LJ          -1.66625        -3.35291        -4.03711
LJ          -1.87085        -6.03891         6.06421
LJ          -5.58681         6.34037        -3.74197
LJ          -3.39474        -3.52788        -5.20961
LJ         -0.698768         5.50722         1.26871
LJ          -4.24572        -4.00963        -4.18111
LJ          -1.19349        -5.79803        -6.01615
LJ          -2.42253        -4.95884        -5.56949
LJ          -4.75476        -2.84105         3.80409
LJ          -3.62349         6.45942        -3.90936
LJ           5.86953         5.55976        0.807492
LJ          -1.40909        -6.14965          1.7127
LJ        -0.0597833         2.09432       -0.827548
LJ          -2.08938        -3.04413          5.6803
LJ          -1.32229        -3.55603         6.19416
LJ          -2.07013         5.14839         2.35879
LJ          0.882982       -0.457179         1.29439
LJ         -0.899075        -5.11828         -5.2129
LJ          0.257401         5.70304         1.64113
LJ          -2.48581        -1.73467        -5.84899
LJ          -4.62564        -2.75375        -5.18229
LJ         0.0166722        -1.16415         1.05369
LJ         -0.100362        0.931168        -4.86254
LJ          -5.16425        -3.89786          5.8985
LJ          -4.63114         5.75572        -4.61259
LJ          -3.75422        -2.68587         6.12418
LJ          -2.36135        -3.83108        -6.20791
LJ           1.51992         2.94494        -1.79503
LJ          -4.33272        -6.20119        -4.61019
LJ          -5.05601         5.84745        -2.59877
LJ          -3.66268       -0.814469         3.30063
LJ          -4.74208        -5.92706        -3.64981
LJ           5.93358         2.19143        -2.04785
LJ          -3.11702        -3.51259         6.11763
LJ           -1.5574        -2.16658         4.95757
LJ            6.4454        -3.00825        -1.95798
LJ          -3.39547        -2.62507         2.29452
LJ           3.12611        -5.95485         6.23812
LJ          -5.53534        -5.59665        -2.98765
LJ         0.0419497         2.95222        -2.20306
LJ          -3.52354        -3.11448        -4.10495
LJ          -4.40067        -5.09307         6.36444
LJ          -5.59836         -5.2895         6.22915
LJ          -4.86415         1.64065        -1.11111
LJ          -5.19965        -3.16604         -3.7429
LJ           5.15014         -4.0029        -1.93674
LJ          -3.23824        -5.84433        -4.99704
LJ          -2.13803         6.05395         2.90332
LJ           1.81223         4.84337       -0.925671
LJ          -3.08814        -5.26272        -4.08202
LJ            2.6943         4.88626        0.157135
LJ           3.28673        -1.68559        -0.63141
LJ         0.0465838        -5.75179        0.811666
LJ           4.24492         5.66835        0.803617
LJ           5.72815        -4.74862        -1.15161
LJ         -0.947401        -3.68965        -5.35007
LJ          -4.67532         3.47674        -5.81315
LJ           1.02248         4.65519        -5.34976
LJ          -5.95087        -4.06363         4.79758
LJ          -1.31181        -5.50075        -2.89312
LJ         -0.603518         2.08222        -2.20788
LJ           3.56715         2.96688        -2.26893
LJ           -2.1527        -3.94742        -5.09233
LJ           -2.7515        -2.59267         6.46319
LJ          -1.45451         1.98719         4.99036
LJ          -3.93275         -5.7826        -2.03394
LJ          -5.46705        -6.33542        -4.72753
LJ         -0.227729         3.46048        -3.44578
LJ           5.83567        -2.92847        -3.07929
LJ           4.89628        -5.08048        -1.93582
LJ          -2.74105        -5.03655         6.33667
LJ         -0.774679         5.15107        -5.01663
LJ           4.94459        -0.36833         3.72877
LJ           2.54304         3.87488        0.887694
LJ         -0.786238         -2.6442         6.03279
LJ          -2.38752        -2.83136        -5.28907
LJ          -2.53014        -3.02929        -3.54193
LJ         -0.703089          6.0193         2.30695
LJ           1.15044        -1.51672        -1.22474
LJ          -6.11066        -1.02673         3.55084
LJ           -3.8652        -4.16897         5.67744
LJ          -1.11812        -4.47445        -6.25063
LJ        -0.0166812        -5.94108         2.00425
LJ          -1.30899        -2.61503        -5.59366
LJ          -3.56874        -2.46516        -5.78108
LJ          -1.68447        -4.70966         5.64432
LJ        -0.0102021         6.26123         3.01738
LJ           -3.6627        -4.65631        -5.08391
LJ          -1.72792        -2.26723         6.45267
LJ          -2.16856        -6.04998        -5.40929
LJ          -4.40276        -1.80425        -6.25165
LJ          -1.44689          5.3395       -0.757923
LJ          -4.11432         2.99878         3.03264
LJ          -4.40766         -2.3353        0.806767
LJ          0.443035         2.15972        -1.82631
