108
#Comment!
LJ          -3.48239        -5.40479        -6.00072
LJ          -3.22823        -4.39371        -6.02775
LJ           5.00358        -1.53077       0.0222383
LJ          -2.85175        -1.97624        -3.58383
LJ          -1.57849        -4.76049         -3.6963
LJ          -2.66053        -3.97463        -4.06203
LJ          -2.86237         2.20611         4.85908
LJ          -4.84635        -2.87257         6.28241
LJ          -4.12178        -3.58869        -6.01249
LJ          0.400717        -1.53335        -3.54523
LJ          -4.14829        -6.16087        -5.94785
LJ           1.69517         4.11837        -2.00423
LJ           5.38356         6.01455         1.65121
LJ          -1.67983        -3.38415        -4.17467
LJ           -1.8551        -5.96179         6.00313
LJ          -5.54848         6.31731        -3.64322
LJ          -3.41341        -3.54674        -5.10373
LJ         -0.768541          5.4784         1.06046
LJ          -4.36639        -3.99083          -4.284
LJ           -1.3507        -5.78776        -5.92758
LJ           -2.3859        -4.87989        -5.39953
LJ          -4.61548         -2.9211         3.68626
LJ          -3.63467         6.30636        -3.94916
LJ           5.86083         5.55623        0.702701
LJ           -1.4607        -6.24516         1.57179
LJ        -0.0705597         2.06834       -0.859543
LJ          -1.95118        -3.03985         5.52737
LJ          -1.38504        -3.59428          6.2198
LJ          -2.08168         5.10964         2.47991
LJ          0.860287       -0.622765         1.24169
LJ          -1.09641        -5.04578        -5.12525
LJ          0.137462          5.8008          1.7136
LJ          -2.71289        -1.61224        -5.80937
LJ          -4.48236         -2.7789        -5.40828
LJ         -0.126911        -1.14884        0.952911
LJ        -0.0118572        0.822548        -4.93722
LJ           -5.0552        -3.91409          6.1231
LJ          -4.60764         5.70622        -4.50058
LJ          -3.85772        -2.64022         6.09766
LJ          -2.33122        -3.79672         -6.1531
LJ           1.59388          2.9824        -1.71862
LJ          -4.42843        -6.14024        -4.63716
LJ          -5.20665         5.85183        -2.62566
LJ          -3.66731       -0.757097         3.29898
LJ          -4.73245        -5.95707        -3.51136
LJ           5.92206         2.17709        -2.00316
LJ          -3.10765        -3.52946          6.0302
LJ          -1.49643        -2.07542         4.73135
LJ          -6.33155        -3.01025        -1.97814
LJ          -3.53179        -2.63888         2.36603
LJ           3.12979         -5.8629         6.14406
LJ          -5.62677        -5.64046        -3.02317
LJ         0.0868806         3.07797        -2.23565
LJ          -3.41923        -3.10663        -4.06568
LJ          -4.44457        -4.79793         6.32035
LJ          -5.70658        -5.20372         6.24664
LJ          -4.80431         1.53904         -1.0395
LJ          -5.14604        -3.16853        -3.67264
LJ            5.1701        -4.04883        -1.92995
LJ          -3.35112        -5.89826        -5.08728
LJ          -2.21528         6.03741         2.95858
LJ           1.77779         4.89231       -0.902974
LJ          -3.10477        -5.43016        -4.16031
LJ             2.775         4.91379        0.259122
LJ           3.35187        -1.72348        -0.75778
LJ          0.148596        -5.72055        0.924458
LJ           4.22232         5.61544        0.864594
LJ           5.74024         -4.7673          -1.321
LJ         -0.790611        -3.63503        -5.18709
LJ          -4.68877          3.3789         -5.8244
LJ           1.04762         4.73545        -5.39463
LJ          -5.97779        -3.97899         4.81614
LJ          -1.35909        -5.52277        -2.87098
LJ          -0.66381         2.06168        -2.20418
LJ           3.60524         3.03879        -2.21669
LJ          -2.14606        -3.90962        -5.09041
LJ          -2.79984        -2.53999         6.40893
LJ          -1.37896         2.09432         4.90902
LJ          -3.86996        -5.70309        -2.19858
LJ            -5.466        -6.37249        -4.90573
LJ         -0.283574         3.31676        -3.60068
LJ           5.94744        -2.75949        -3.03585
LJ           4.73884        -5.15878         -1.8049
LJ          -2.50604        -5.13032         6.37882
LJ         -0.757339         4.99392        -4.96338
LJ           5.10291       -0.214333         3.74701
LJ           2.60364         3.95324        0.935899
LJ          -0.77289        -2.61168         6.06113
LJ          -2.36828         -2.8337        -5.32506
LJ          -2.63005         -3.0745        -3.34938
LJ         -0.745793          5.9228         2.33774
LJ           1.15399          -1.503        -1.24244
LJ          -6.05393        -0.95401         3.72173
LJ          -3.95925        -4.16203          5.5682
LJ           -1.1065        -4.56408         -6.2482
LJ          0.117635        -5.96467         2.05665
LJ          -1.31455          -2.661        -5.48928
LJ          -3.59822        -2.49072        -5.76441
LJ          -1.54268         -4.6799         5.75673
LJ        -0.0584104         6.17847         3.14684
LJ          -3.62322           -4.73        -4.97117
LJ          -1.69797        -2.25503        -6.40604
LJ          -2.23418        -6.14954        -5.29414
LJ          -4.49889        -1.85382        -6.31823
LJ          -1.41408         5.20463       -0.700547
LJ           -4.0405         3.19143         2.98645
LJ           -4.3893        -2.46309        0.867432
LJ          0.527464         2.06815        -1.75589
