108
#Comment!
LJ         -0.153212        -5.51234         5.84988
LJ          -2.44252         5.57908        -5.41231
LJ          -3.53432       -0.786735        -1.64015
LJ          -3.21683          4.3507         -4.1331
LJ           3.47748         4.04366        -2.35712
LJ           -3.4095       -0.248256         6.37778
LJ           5.98474         3.80522         1.31646
LJ           -4.5555        0.101432         3.88552
LJ         -0.740265        -5.30387        -5.41575
LJ           1.03385        -1.57821         5.68474
LJ           -1.1413        -1.59141        -2.89916
LJ           3.72553        -5.96307          4.3072
LJ          -4.65666         5.47992         3.74424
LJ           6.45541         4.37617         5.81436
LJ          -5.27295         2.61627        -4.68278
LJ           2.20472       -0.146573        -1.21577
LJ           3.87506        -2.00364         4.02847
LJ           2.95813        -5.14882        -3.69379
LJ          -6.45944        -2.76456        0.282761
LJ           -2.0138        0.408174        -4.72086
LJ         -0.487195         -3.8888         -3.8396
LJ          0.599339         5.75844        -6.00535
LJ           1.25776        -6.34917          1.4004
LJ          -1.57485       -0.630171        -2.54254
LJ            1.8687         4.17045        -1.20541
LJ           1.97459        -2.39112         4.14425
LJ          0.340059        -1.91866         4.62827
LJ          -2.12323         4.45381        -3.35917
LJ         -0.319026        -2.52631        -2.07056
LJ            6.1816        -2.77669       -0.865615
LJ          -2.60191       -0.134606         -0.8837
LJ           4.83758       -0.945606         1.54878
LJ          0.512929        -2.30082         3.72571
LJ          -4.28696         -3.8427         5.49804
LJ           4.50382        -2.58249        -4.00647
LJ           5.39648         3.96759         5.41461
LJ         -0.920032        -2.79061        -2.96644
LJ           3.18255         2.41599         4.82747
LJ           5.63815        0.699371         1.28364
LJ           5.84325          -3.066        -2.04229
LJ           6.15573       -0.592392         5.35136
LJ           5.01074         -5.2611         3.48779
LJ           3.35268         4.40779       0.0590579
LJ            5.1423        -1.40974         4.81388
LJ           1.12254         -6.4306        -4.39106
LJ           2.39738         3.06975         4.60024
LJ           -1.2072        -5.44832         6.03088
LJ           3.62004         2.51663         1.21385
LJ           5.37444          5.2428       -0.344428
LJ          -1.75086        -6.21363         1.44818
LJ          -5.42791        -2.89551         5.57517
LJ           1.94405          4.9188        -4.68549
LJ          -4.51842         1.98412        0.958705
LJ          -4.37688        -1.76876        -3.37071
LJ          0.496291        -5.41988        -5.97628
LJ           5.88205        -1.71955         1.69276
LJ         -0.479076         6.07183        -6.03389
LJ            3.9054       -0.288116        -3.24588
LJ           3.02014         2.74017        -2.22625
LJ           5.81129         6.13347         2.86166
LJ           1.23242        0.439572         -1.3815
LJ           3.03488        -2.03693        -3.82823
LJ          0.328026         -5.6613        -4.85653
LJ          -5.12339         2.73088        0.496557
LJ           1.71154        -2.45122         2.82499
LJ         -0.132942          -6.336        -2.20997
LJ           -4.2269         -2.6528        -3.94266
LJ          -3.02399        -1.46434         4.23305
LJ          -4.28151        -1.61742        0.507337
LJ           4.07221        -6.05189         3.28656
LJ           2.66395        -5.89534         4.45294
LJ          -5.51953        -3.76134         4.81697
LJ          -4.94787         1.29156         6.25622
LJ          -3.94785         2.88958        0.887432
LJ            5.6062        -2.20898       -0.113573
LJ          -4.65474        -2.21765         1.81039
LJ          -2.58842         3.93266         5.53269
LJ          -2.64857        0.894126         3.79862
LJ           -3.2501        0.631323        -4.35316
LJ           2.72214         3.27107        -3.52426
LJ          -2.09634        0.171306        -3.49341
LJ          -1.37171         2.61421         4.32181
LJ           2.28043        -3.06126         2.06975
LJ           4.46981         4.65348       -0.418884
LJ           4.55847        0.542913        -0.74916
LJ         -0.335989        -4.69764        -4.47902
LJ           5.38993       -0.228142        -2.44248
LJ            6.3109         3.38127        -6.03724
LJ          -1.10878         1.51485         4.13611
LJ          -6.19291        0.623807        -4.48488
LJ          0.211079       -0.847465         5.14582
LJ          -3.10102         3.01856        -4.44945
LJ         0.0772516        -5.82597        -3.85187
LJ           5.68646         5.89833        0.742977
LJ         -0.262022         5.50808          3.3019
LJ            6.3547         3.97305         4.85358
LJ           3.05763       -0.942336         -2.5095
LJ           3.13394        -5.36459         5.21372
LJ           3.03683         4.12548        -6.03723
LJ         -0.367433         1.95471         2.15305
LJ          -3.81994        0.379935        -5.54973
LJ            -2.125       -0.194702         3.25007
LJ          0.426743         4.70262         3.64531
LJ           2.52523        -1.19316        -1.31107
LJ         -0.210815        -2.66177       -0.614402
LJ           1.69162         4.64689        -5.93204
LJ           5.98054       -0.340372          2.2741
LJ           2.45427       -0.140363        0.324005
