108
#Comment!
LJ         -0.186603        -5.39287         5.81721
LJ          -2.54055         5.62197        -5.43032
LJ          -3.48648       -0.714128        -1.54296
LJ          -3.12075          4.3141        -3.98161
LJ           3.33193          3.8417        -2.67413
LJ          -3.42186       -0.234564         6.43514
LJ           5.97911          3.7827         1.35136
LJ          -4.76972       -0.198558         3.48411
LJ         -0.693568         -5.3045        -5.50483
LJ           1.23057        -1.60963         5.86023
LJ          -1.28346        -1.82822        -2.64559
LJ           3.77226        -5.95241         4.44935
LJ          -4.63541         5.48669          3.7404
LJ           6.38513         4.27135         5.92836
LJ          -5.27326         2.63023        -4.63013
LJ           2.31769       -0.181131       -0.822993
LJ           3.87105        -2.03096         3.96599
LJ           2.99936        -5.13093        -3.67841
LJ          -6.32121        -2.84265         0.34323
LJ          -2.13022          0.4793        -4.91327
LJ         -0.722286        -3.74441        -3.92524
LJ          0.847282         5.80537        -6.14735
LJ           1.26196        -6.34251         1.38731
LJ          -1.42972       -0.358415        -2.42824
LJ           1.75278         4.19529        -1.20244
LJ           2.02364        -2.46687           4.167
LJ          0.173696        -2.06659         4.98215
LJ          -2.20099         4.46344        -3.37388
LJ         -0.430306        -2.35343         -2.0278
LJ           6.28893        -2.89708       -0.766977
LJ          -2.71098       -0.164157       -0.881379
LJ           4.98832       -0.732787         1.67494
LJ          0.246506        -2.37798         3.43317
LJ          -4.30273        -3.69738         5.61731
LJ           4.61978         -2.6258        -4.06416
LJ           5.43471         4.01496         5.38411
LJ         -0.528801        -2.57918        -3.15761
LJ           3.39899         2.21513         4.88698
LJ            5.6699        0.614087         1.45532
LJ            5.7774        -3.13373        -2.28395
LJ           6.09336       -0.631509         5.33168
LJ           5.10164         -5.1133         3.47547
LJ           3.15531         4.41089        0.236916
LJ           5.29815        -1.30605          4.9272
LJ            1.1538         -6.2993        -4.32816
LJ           2.18967          3.2308         4.51893
LJ           -1.2825        -5.40663         5.80636
LJ           3.74515         2.24465        0.949345
LJ           5.67821         5.34827       -0.611192
LJ          -1.76229        -6.20773         1.43943
LJ           -5.2083        -3.07837         5.57332
LJ            1.9778          4.9183        -4.47821
LJ          -4.50121         1.80841         1.01895
LJ          -4.41377        -1.71522        -3.34396
LJ          0.619306        -5.50177        -6.11052
LJ            5.5999        -2.03586         1.94368
LJ         -0.758066          5.8203        -6.07483
LJ           3.71952       -0.286297        -3.15578
LJ           3.11687         2.70154        -2.02547
LJ           5.90062         6.06257         2.89805
LJ           1.07611         0.53768        -1.47474
LJ            2.8735        -2.11018        -3.94752
LJ          0.265155        -5.57937        -4.91144
LJ          -5.00787          2.8282        0.481018
LJ           1.85318        -2.38521         2.78142
LJ         -0.177631        -6.36796         -2.0382
LJ          -4.21646        -2.74436         -3.9971
LJ          -3.03668        -1.54462         4.26811
LJ          -4.20533        -1.62317        0.421652
LJ            4.0205        -6.09974          3.1642
LJ           2.28322        -6.02443         4.31964
LJ          -5.71595        -3.74769         4.71192
LJ          -5.00715         1.35111         6.18373
LJ          -4.04337          2.9655        0.823055
LJ            5.8038        -1.77678         0.19362
LJ          -5.00718        -1.77776         2.01371
LJ          -2.61415          3.9476         5.54059
LJ          -2.76523        0.875767         3.78474
LJ          -3.18725         0.65698        -4.52931
LJ           2.85387         3.40334        -3.44991
LJ          -2.04696        0.224509        -3.27869
LJ          -1.35476         2.64696         4.32442
LJ           2.32599         -3.1325         1.95495
LJ           4.40094         4.49334       -0.518224
LJ           4.43998        0.847311       -0.484793
LJ         -0.508976        -4.86557        -4.45473
LJ           5.49873       -0.222484        -2.40379
LJ           6.30916         3.47262        -6.04666
LJ          -1.01172         1.54192         4.19133
LJ          -6.22012         0.59877        -4.48048
LJ         0.0979381       -0.550937         5.05244
LJ          -3.10215         3.03822        -4.50054
LJ          0.259749        -6.04992        -3.71525
LJ           5.69866         6.04293        0.896571
LJ         -0.308876         5.55108         3.28443
LJ           6.35174         3.96567         4.75405
LJ           3.12927       -0.933931        -2.49938
LJ            3.3568         -5.2564         5.36535
LJ           2.97739         4.12649        -6.07908
LJ          -0.34721         1.95958         2.10133
LJ          -3.79503        0.262846        -5.57248
LJ          -2.06862       -0.179223         3.17258
LJ          0.457483         4.66325         3.65414
LJ           2.60526         -1.1723        -1.49473
LJ         -0.182966        -2.71367       -0.383191
LJ           1.87162         4.40609        -6.11285
LJ           6.21462        -0.53944         1.86437
LJ           2.39809       -0.139137        0.187993
