108
#Comment!
LJ          -1.41553        -4.99302        -5.49743
LJ          0.289899         5.34025        -4.56372
LJ          -1.57655       -0.891169        -4.65683
LJ          -2.99945        0.482131        -4.56714
LJ           3.03992         4.79371        -2.53187
LJ          -2.19194        -2.06269         4.79159
LJ           4.04503         4.63593        -2.76308
LJ          -3.23073         1.89108         -6.0526
LJ          -1.34189        -4.09818        -4.43441
LJ          -2.02309        -1.17948         5.93211
LJ         -0.621709        -2.71011        -3.95682
LJ           3.54196         5.23123         2.44435
LJ           6.40198         6.37657         3.32564
LJ          -4.39908         4.06347        -5.00129
LJ          -3.00362         5.42235         1.30544
LJ           5.67578        -2.56613        -1.37273
LJ            2.5533         -1.8352         5.65298
LJ           1.33431        -6.29538        -5.89563
LJ           6.41232        -2.61468        -2.19416
LJ          -5.10075         2.23645        -5.27076
LJ          -2.70756         -2.9895        -4.34503
LJ           1.48843         5.52344        -4.35903
LJ           2.93725        -5.95735         4.07164
LJ          -2.55329         6.01345        -4.32807
LJ          -4.62599         1.79726        -3.19524
LJ          0.671283        0.188687        -6.13601
LJ          -1.99107         -2.8383         -5.6966
LJ          -1.64264        -6.15745         -4.3645
LJ           -3.0552        -3.62089        -3.61649
LJ          -5.59565       -0.459988        -1.75848
LJ          -1.54838        -2.22553          -3.826
LJ           3.31705       -0.693924        -1.71015
LJ         -0.850735        -1.38424         6.14651
LJ            6.3115        -4.58801         3.72138
LJ            2.7567        -2.03839        -4.76703
LJ          -3.66792         1.55302        -5.04562
LJ           -1.7897           -3.23          -3.901
LJ           2.10742         4.47201         4.50205
LJ          -6.43198        -3.27285        -1.31639
LJ           5.15606         -1.6128         -1.8307
LJ           5.42683         -3.9088         3.51752
LJ          -5.73846         -4.9046         6.32518
LJ           3.32565         5.40325        -1.74594
LJ          -6.17958           -2.32         2.95069
LJ          -0.46102        -6.22085        -5.63866
LJ           1.50134         3.60772          4.1812
LJ         0.0396093        -6.17097        -4.52387
LJ          0.684514         3.10468         4.78581
LJ          -3.73287        -4.53185         5.43235
LJ          0.507827         5.78103          2.8875
LJ          -5.89873        -1.94325         4.20188
LJ          -3.91145        -2.30673        0.161444
LJ           -6.2407         2.85852        0.617117
LJ          -4.78956         2.46879        -4.21855
LJ         -0.577939          -5.303        -6.27255
LJ            -6.194        -1.54926        -2.14259
LJ            1.7747        -6.32991        -4.89247
LJ            4.6456       -0.458485        -2.12775
LJ          0.530335        0.521745        -4.09374
LJ          -4.76984        -5.12763           5.448
LJ          -0.47301         1.74458        -1.72416
LJ          -4.79638        -5.38005           4.455
LJ          0.490364         5.73977        -5.51298
LJ          -5.74693         3.37646         1.71659
LJ           5.61568       -0.438044        -1.33228
LJ            1.8196         1.41963        -5.30172
LJ          -2.44988        -1.40989         3.64249
LJ           -1.5503        -2.07239        -6.22647
LJ           3.68314        -4.13975        -1.39633
LJ           1.15933        -4.70603         2.02707
LJ           4.32132        -6.26194         2.93048
LJ          -5.85552        -5.31836          5.1144
LJ          -3.67817         3.23748        -4.83412
LJ          -4.91374         3.10018         1.01975
LJ           4.07559        -4.08967         3.65218
LJ          0.321841        -3.76543        -4.24802
LJ          -3.38027         1.14924         6.11425
LJ          -2.93899         2.45142        -5.10115
LJ         -0.728496       -0.933394        -3.58358
LJ           3.31459         4.21987        -1.71992
LJ          -1.49386       -0.455477        -2.93681
LJ          -5.00766        0.745905        -4.92573
LJ           4.84518       -0.026611        -3.37589
LJ            2.6991          3.5049        -2.50417
LJ           2.86977       -0.826131       -0.235686
LJ           1.85297        -4.60764        0.549843
LJ          -5.42776         4.60356       -0.686412
LJ          -4.79035         1.37024        -5.73103
LJ          -3.11108        0.389177        -5.97541
LJ          -2.20043         1.34314        -4.77395
LJ          -1.51109        -1.87982        -5.10898
LJ          -3.85107         2.70389        -5.62641
LJ          -1.21149        -2.94312         -4.8761
LJ          -4.68267        -5.30363        -6.39522
LJ          0.307863         4.40564         4.88577
LJ          -4.92085         2.96015        -6.16453
LJ          -4.93729         -1.3513        -2.12123
LJ           3.06833         6.31751         2.48771
LJ          0.716966         6.14972          -3.846
LJ         -0.802158          3.4908         4.83498
LJ          -2.25063         2.64734        -4.35624
LJ           1.46008        0.176391        -5.02955
LJ         -0.141079          5.2877         4.21742
LJ           5.71036       -0.393177        -2.52147
LJ           1.18248       -0.653292         1.74135
LJ            1.9615         5.49057        -5.42192
LJ           5.61869        -1.05466       -0.382001
LJ           3.96876        -1.78152        -1.86124
