108
#Comment!
LJ          -2.04818         -4.7296        -4.87078
LJ           -1.1086        -3.68618        -5.17379
LJ          -3.91534         4.53504        -5.19011
LJ          -5.76812         -3.4146        -4.89702
LJ          -1.76741        -5.76511        -3.05521
LJ          -1.66637        -2.44635        -4.05461
LJ         -0.372513        -5.53232         3.69396
LJ            4.7719        -1.99458         4.83824
LJ           5.63244        -1.65004        -5.19299
LJ           2.80494        -1.17215         2.40631
LJ           -4.0436         3.70985         -4.3856
LJ          -2.84798        0.806365        -4.42104
LJ          -5.75153         5.45603         3.40279
LJ         -0.706855        -3.06683        -4.06043
LJ         -0.687974        -4.81743        -5.52714
LJ         -0.785473        -5.45058         -3.3978
LJ           1.85775         3.50895         3.27418
LJ           3.04682         5.30091         5.27574
LJ          -1.67838        -5.45861         -4.0409
LJ          -3.34946        -3.49552         -5.5595
LJ          -1.12687         -4.4819        -4.41397
LJ          -5.75561        -3.11874        -5.80423
LJ         -0.174934         -5.1123          -4.536
LJ          0.832238         3.62442       -0.754253
LJ          -1.74198         4.78891         0.70333
LJ         -0.259792       -0.879938        -2.85435
LJ            -3.358         6.27196        -4.22707
LJ          -1.23458        -4.03028         5.21448
LJ            2.8014         5.78423         6.31036
LJ          -4.27709         5.80333        -3.91187
LJ         -0.193943        -2.67029           2.555
LJ          -1.44519        -2.45867        -2.63263
LJ          -3.61571         5.59296         5.00842
LJ          -0.38799        -2.68732        -6.16296
LJ           3.99038       -0.775459        -6.37548
LJ          -3.16619        -2.05916         3.72522
LJ          -3.70264        -6.04316        -5.37961
LJ           3.78815        -5.23246       -0.622529
LJ          -3.11024        -4.42072        -4.92188
LJ          -2.14021        -2.37986         6.37678
LJ          -1.39537       -0.970441        -2.67236
LJ          -3.41018        -5.04922        -5.70056
LJ            -3.162        -4.96815         4.25514
LJ           6.27137        -5.99319         6.00397
LJ          -2.65241        -4.68227        -3.34814
LJ           5.77626         2.71015        -6.28562
LJ          -2.86586        -3.17689        -4.65268
LJ          -1.83142        -3.43976         6.38326
LJ           1.78243         1.13145         4.21122
LJ           1.72682        -1.56412         3.69105
LJ           1.76475       -0.616409         1.00119
LJ          -4.21193        -4.71734        -4.92119
LJ         -0.617393      -0.0149518        -2.14683
LJ          -2.42729         3.91356       -0.631401
LJ          -2.34255        -5.48743        -5.46588
LJ            3.5818         5.05793       -0.150859
LJ            2.8671        0.664626        -0.70447
LJ          -1.74225        -5.02517        -2.18863
LJ         -0.861826         3.92345          -0.438
LJ          -3.72701        -2.14762         1.00536
LJ          0.382373         1.29178          4.6743
LJ          -4.22387       -0.534644        -4.56005
LJ          -1.60584         -4.8519        -6.35811
LJ         0.0414291          2.4963        -4.81085
LJ           1.79838         2.08443        -5.30473
LJ          0.598591        -3.72576         5.72524
LJ           1.09805         4.79469        -4.05104
LJ           5.94209        -2.95073         3.05751
LJ           -2.2825        -3.32169        -5.59583
LJ          -2.93103        -5.50708        -4.46958
LJ          -3.60535        0.219434        -3.60575
LJ           5.06504        -2.36741        -6.09494
LJ          0.519741        -1.89792        -4.72957
LJ          -2.03413       -0.163785        -1.83435
LJ          -1.99182        -1.46717        -1.72841
LJ           1.75257        -1.45008         5.70868
LJ          -3.02049        -2.42631        -5.68656
LJ           3.85638        -2.60778         5.65484
LJ          0.664579       -0.427502        -3.01733
LJ          -2.50099        -4.29169        -5.75296
LJ           5.18295         -1.0305         6.36893
LJ         -0.133634         4.04604        -1.18577
LJ          -1.58514        -4.61927        -3.26576
LJ          -5.27453         5.96171         6.44383
LJ           2.60406        -5.72313         4.75542
LJ             1.796         6.18716         6.35024
LJ          0.115697        -1.74799        -3.73029
LJ          -3.23319        -4.71993         5.98788
LJ          0.824852        -4.72416        -4.79214
LJ         -0.187047         -3.8858        -5.76894
LJ           2.20371         6.38995         5.42741
LJ           4.18702       -0.503004        -4.84105
LJ           4.17569        0.246088         2.06204
LJ          -1.28655         -2.5754        -5.11681
LJ          -3.06841        -5.73175         6.35369
LJ         -0.992891        -1.77127         -1.3988
LJ          -0.81581        -5.40449         6.11937
LJ        -0.0224446        -2.95373        -4.99165
LJ          -1.98395        -5.81809         6.10405
LJ          -1.49375         -3.3978        -3.35304
LJ         -0.315282        -4.27077        -3.64752
LJ           4.76599       -0.956427         5.05335
LJ          -1.85409         -3.6085        -4.50897
LJ         -0.628853        -3.47979         5.80806
LJ         -0.120946        -4.01582        -4.70039
LJ          -4.57797        -6.05512        -3.49627
LJ          -2.83776        -5.01283        -2.15301
LJ         -0.997004        -1.00421       -0.586165
