108
#Comment!
LJ          -3.17149         6.43602        -6.40469
LJ          -3.03089        -4.19387        -6.06273
LJ           3.92401        -1.66517       -0.630677
LJ          -2.35577        -1.82246        -4.15264
LJ          -1.00384        -4.43051        -3.45312
LJ          -2.74717        -3.79247        -4.27564
LJ          -3.19814         2.04719          5.6026
LJ          -5.81418        -2.19549         6.36881
LJ          -4.21644        -3.99398        -6.05068
LJ         -0.491319        -1.10356        -3.99926
LJ          -4.12545        -6.08517        -6.26022
LJ           2.42402         4.66206        -1.88882
LJ           5.27895         5.66832        0.774478
LJ          -1.54092        -3.44145        -3.74472
LJ         -0.956729        -5.38215         5.58458
LJ          -5.51265        -6.25522        -3.88927
LJ          -3.77349        -3.94036        -5.04519
LJ          -1.10653         5.62681       -0.303483
LJ          -4.55691        -3.17206        -5.31966
LJ          -1.64548        -5.51855        -5.21427
LJ          -2.87134        -4.71908        -4.64502
LJ          -3.65762          -4.306         3.70988
LJ          -4.17005         6.13062        -5.09837
LJ           5.55736         5.48501       -0.345703
LJ           -1.6808         5.39873           0.694
LJ        -0.0326755         1.81085       -0.853286
LJ          -1.16524        -2.05563         5.10327
LJ         -0.522839         -3.8662        -5.98767
LJ          -2.04336         4.85793          3.3805
LJ         -0.242296        -2.14099        0.430198
LJ          -1.64423        -4.36535        -4.43376
LJ         -0.883955         6.39124         1.91662
LJ          -3.68299        -1.30504        -5.47498
LJ          -5.28714        -3.23314         6.25068
LJ         -0.589224        -1.06016          0.2707
LJ          0.818367       -0.221251        -5.62428
LJ           6.36331        -3.42111         -5.7044
LJ          -4.72328         5.44317        -4.01587
LJ          -3.79258        -2.72566         6.08162
LJ          -2.20607        -3.91319         6.38402
LJ            1.7898         3.81611        -1.23284
LJ          -4.27758        -5.82626         -4.6357
LJ           -6.1479         5.89948        -2.20619
LJ          -3.73359       -0.280557         3.28339
LJ           -4.5107        -6.41664        -3.71078
LJ           5.80342         2.04796         -1.5752
LJ          -3.04712        -3.78234         5.66704
LJ          -1.19789        -1.90448          3.5368
LJ          -5.23828         -2.8104        -2.72031
LJ          -4.56378        -2.16387         1.70429
LJ           3.16293        -4.99033         5.25108
LJ          -6.45229        -6.09399        -3.27222
LJ          0.359135         3.54804        -2.49137
LJ          -3.73619        -2.95776        -4.59329
LJ          -3.62795        -4.87892         6.17668
LJ          -6.37671         -4.8353         6.14016
LJ          -4.24538        0.576278       -0.363357
LJ          -4.32685        -3.53513        -3.74974
LJ           4.86011        -4.70172        -2.09458
LJ           -3.6393         -5.4053        -5.45838
LJ           -2.4171         5.84328         3.26433
LJ           1.54395         4.91932        -0.91395
LJ          -3.29501         -6.1532         -4.0343
LJ           3.50399         5.48155        0.929594
LJ           4.16969        -2.08085         -1.9178
LJ          0.787132        -5.94024         2.15523
LJ           4.46108         5.02669         1.63257
LJ           5.61125        -5.52757        -2.62522
LJ         -0.514324        -3.86417        -4.37439
LJ          -4.80798         2.45965        -5.93339
LJ           1.19095         5.49156        -5.78622
LJ          -5.89235        -3.18858         5.51368
LJ          -2.01445        -5.25034         -3.4806
LJ         -0.264027         2.49508        -2.35029
LJ           3.84327         3.75291        -1.68901
LJ          -2.57801        -3.51745        -5.27484
LJ          -2.64298        -2.28209         6.44461
LJ         -0.922344         3.11804         4.14938
LJ          -3.43851        -4.43313        -3.32615
LJ          -5.69878         5.81293        -4.70219
LJ         -0.726709         2.07578        -4.74145
LJ          -5.52213        -1.57884        -2.19313
LJ           4.25193        -5.07846        -0.79199
LJ          -1.89532        -4.64913        -5.61236
LJ         -0.509278         3.35972        -4.42964
LJ          -6.19066         1.16074         3.95916
LJ           3.26971         4.62061         1.49504
LJ            -1.082        -3.07047         5.86531
LJ          -2.84846          -1.892        -5.52278
LJ          -3.19655        -3.50765        -2.84248
LJ          -2.21373          5.5025         2.25427
LJ           1.19113        -1.36803        -1.38935
LJ          -5.60507       -0.204486         5.31265
LJ          -4.42126        -3.69873         5.76701
LJ         -0.764653        -4.94094        -5.76358
LJ           1.02967        -6.21531         3.24118
LJ          -1.14054         -3.3282        -5.11397
LJ          -3.61705        -2.64539        -5.67971
LJ           -1.3232        -4.51887         6.29186
LJ         -0.293214         5.74762         3.67868
LJ          -3.90367        -4.74226        -4.30595
LJ          -1.93372        -2.82392        -5.93699
LJ          -2.78296        -6.24806        -5.07597
LJ          -4.26837        -1.92478        -6.15009
LJ          -1.07654         3.73445      -0.0705926
LJ          -3.18727         5.09104         2.57944
LJ          -4.11453        -3.61741         1.80434
LJ           0.96297         1.78333        -1.51517
