108
#Comment!
LJ          -1.77837         5.51015        -4.55647
LJ          -2.73577        -4.16608        -5.24199
LJ           -2.0784        -2.45103        -5.39017
LJ          -2.36009        -1.74979        -3.48825
LJ         -0.637747         -1.9448        -3.25333
LJ          -3.09951       -0.433252        -5.32551
LJ           5.24434         1.92084        -1.86392
LJ          -4.79357        -1.58964        -5.44508
LJ          -4.30622        -2.45081        -6.00934
LJ          -4.77154         1.35836        -4.05165
LJ          0.217356         4.18768         6.32333
LJ           1.28669         -5.0971          1.0646
LJ            4.4906         5.91279         3.32711
LJ           -2.5342       -0.861294        -1.62029
LJ          -1.65411        -3.89612        -5.12451
LJ           5.05359         2.95236        -1.28627
LJ          -1.21211         -1.0083        -1.59974
LJ          -5.52594         2.67925        -6.06434
LJ          -4.55712        -1.89585        -2.73442
LJ          -4.35755        0.518889        -4.77021
LJ          -3.82512        -3.43875        -6.44365
LJ          -1.54242         5.19996        -3.54136
LJ         -0.099306         4.57414         4.93409
LJ           3.36246        -5.67836        0.977993
LJ          -1.06749        0.285618         6.46157
LJ           5.29941         3.65909       -0.504455
LJ          -1.95418        -1.90827        -4.49041
LJ          -1.39976        -5.90817        -3.00904
LJ          -1.18234         -5.2615        -3.82918
LJ          -6.28917        -0.52448        -3.51607
LJ          -5.43751       -0.538102        -5.76612
LJ          -2.44952        -1.72801        -2.36079
LJ          -2.16735       -0.239458        -4.48569
LJ          -2.65215        -3.25981         6.10888
LJ          -2.26683         4.34989         5.86798
LJ          -4.81212         3.20276        -2.85503
LJ           -1.6158       -0.873341        -5.24511
LJ         -0.796561         4.33688         3.64635
LJ          -3.56025        -1.64109        -2.94321
LJ          -4.24899        -1.05755        -2.19824
LJ           3.70081        -4.70598         2.98004
LJ           -4.6435        -1.77149         6.08388
LJ          0.715734         3.54208       -0.517622
LJ          -4.66988         5.37893         3.19872
LJ           0.01764         5.96722         -3.6375
LJ           2.33558         2.12687         3.23508
LJ         -0.438654         4.80826         -5.2011
LJ         -0.755412         3.53203         5.57051
LJ          -3.70022        -1.71436        -5.26884
LJ           2.53535         3.76137         2.31388
LJ           5.44927        0.179561       -0.504143
LJ           6.07478          2.9379        -1.12364
LJ           5.98965         4.68988         1.46533
LJ          -5.16914       -0.374062        -1.91316
LJ          -1.83809        -5.17666         -4.8019
LJ          -4.49609        -0.65132        -3.10741
LJ           1.46709         -6.0177         5.14381
LJ          -4.33823        0.370615        -3.57593
LJ         -0.599732       0.0972274        -5.26233
LJ          -3.27708        -2.90589        -5.45856
LJ         -0.642799         4.72747        -6.32517
LJ           6.35202        -5.21836        -2.45229
LJ         -0.694564         5.19152        -4.11931
LJ           5.55392         4.23552        0.470463
LJ           5.98134       -0.589623        -4.76329
LJ          0.912486        -4.50046       -0.946384
LJ          0.721896        -2.01347        -2.95477
LJ          -4.66928         2.30301         -1.7253
LJ          -5.93377       -0.421622         5.68214
LJ           3.93761        -4.70365        -2.29941
LJ           5.30548         5.87755         4.17493
LJ          -5.54525        -4.96595        -2.56385
LJ          -1.99229       -0.561619        -3.06356
LJ           5.48866         4.79253       -0.535683
LJ           4.45035        -6.16405         1.95457
LJ          -2.41719        -4.66923        -4.02858
LJ          -5.32763       0.0646135        -3.16958
LJ          -1.01186        -2.48613         2.02112
LJ          -3.93934        -3.91984        -4.55345
LJ           4.72744         3.10864        -2.55604
LJ          0.302129         2.79775        -4.32546
LJ           -3.2174        0.340409         -3.0117
LJ          -3.10154        -5.82352         2.24499
LJ          -1.66042        -6.24918        -4.42248
LJ          -5.53841        0.692101        -4.35249
LJ           2.75096        -4.25136        -1.16831
LJ           4.13419         -5.0343          1.5194
LJ          -3.14959        -2.23927        -4.53568
LJ          -3.13314       -0.728951        -2.51996
LJ          -2.94842       -0.745899         -3.7972
LJ          -2.56531        -3.40745        -4.31633
LJ          -3.56384       -0.223801        -4.41262
LJ          -4.02796        -3.04025        -3.26198
LJ          -5.89055        -1.66119         5.94758
LJ          -1.47415         4.44275        -4.24594
LJ           1.35106         1.87839      -0.0893091
LJ          -4.09898        -1.99782        -3.82615
LJ          -6.30944         -4.2031         3.26328
LJ        -0.0989272         5.91867         4.48321
LJ         -0.298912         6.09568        -4.72789
LJ          -2.71406        -1.44075         -5.0406
LJ          -2.36409        -2.82135        -3.20821
LJ          -1.29893         4.53189         5.46932
LJ          -2.11909        0.138698        0.287737
LJ           1.92209        0.987043          5.0069
LJ          -1.58245         5.25495        -5.59426
LJ          -5.42329        -1.22319        -2.56767
LJ          -3.48671        -2.58588         2.05549
