108
#Comment!
LJ          -1.61118        -6.45785        -4.99642
LJ         -0.235268         5.87985        -4.98382
LJ          -1.86609        0.309911        -2.79185
LJ          -2.48028         2.32929        -5.42549
LJ           2.55775         4.73322        -2.09849
LJ          -1.76828       -0.907298         4.44196
LJ           5.62994         5.36732       -0.239999
LJ          -1.48324         3.67196         5.76564
LJ         -0.345383        -4.96154        -5.00909
LJ         -0.482006         -1.1342          5.6153
LJ          -1.32075        -4.54793        -4.16492
LJ           3.14193        -6.42325         3.16763
LJ          -6.05827         4.95252         3.39583
LJ           -5.6865         3.70242         5.87653
LJ          -3.73868         2.41693         5.44967
LJ           4.76914       -0.273475        -3.05674
LJ           3.45884        -1.73371         4.74538
LJ           2.78353        -6.03145        -5.30057
LJ           5.33452        -1.16334        -1.88876
LJ          -5.20879        0.103003        -2.31236
LJ          -2.04182         -3.3108        -3.52109
LJ           1.09667        -5.98469        -4.45741
LJ           2.04257         6.40197         2.31273
LJ           -3.0621        -2.84925        -2.84945
LJ          -1.66181          2.3561        -2.31088
LJ          -0.23702        -2.08491        -5.53315
LJ         -0.745316        -2.48333         5.49221
LJ          -1.85057         5.30838        -4.76895
LJ         -0.859539        -1.60481        -3.58422
LJ           5.43646        -0.68506        -0.57548
LJ          -1.92974       -0.732548        -3.42137
LJ           3.52083        0.423294        0.186618
LJ          0.133306        -1.69022        -6.45862
LJ           -5.2516         -3.1012         5.19283
LJ           4.71109        -3.42768        -2.66476
LJ           6.36051         3.01406         6.04032
LJ          -1.11996        -3.65606        -3.16584
LJ           3.13324         3.25417          4.8192
LJ           4.30467        -1.82598       -0.343989
LJ           4.74946        -2.36084        -1.08324
LJ           5.73853        -2.15809         4.42811
LJ           5.99048        -5.35086         3.67205
LJ           2.92767         3.67017        -2.62445
LJ           5.01205        -1.54853         3.75928
LJ          0.570826        -6.30212         -5.3685
LJ           1.99636         4.14024         4.66991
LJ         -0.586423        -6.17645        -5.68407
LJ           1.35953         3.81807         3.21084
LJ          -4.99263        -5.90421         4.34946
LJ         -0.990758         6.36389         1.97794
LJ          -5.34524        -1.94759         5.56892
LJ         -0.540129         -4.9243       -0.851641
LJ          -5.28332         2.26891        0.853281
LJ          -4.65139         1.15417        -3.18683
LJ          -1.06271        -5.23226        -5.80521
LJ           4.97399        -1.28841        0.223962
LJ           1.68012        -6.20836         -6.4391
LJ           3.81269      -0.0343178        -1.07691
LJ          0.782599         2.08222        -1.77838
LJ           -6.2588        -6.29773          3.7126
LJ         -0.311058         1.32598        -1.10418
LJ          -2.15143        -4.08889          1.5148
LJ        -0.0655137        -6.11997        -4.43065
LJ          -5.81188         3.17984         1.33098
LJ           5.86665        -1.81889       -0.720512
LJ           1.04236         3.22229        -4.14095
LJ          -3.07583        -1.64233        -5.42656
LJ          -2.43487      0.00212007         4.82144
LJ           5.19955         -2.4849       -0.147122
LJ           1.64223         -5.1376         2.15554
LJ           4.25586        -6.23941         3.76103
LJ          -5.62671        -4.19015          4.5148
LJ          -3.55966          1.9929        -4.97177
LJ          -4.31962         2.91645        0.833283
LJ           5.09664         -3.5161         2.55084
LJ          -1.69185        -4.42818        -1.95637
LJ          -2.04867         2.37966        -6.42652
LJ          -3.32855         2.40562         6.37722
LJ          -2.56505       -0.806197        -2.58719
LJ            4.4106         4.61543        -1.91223
LJ          -1.86039        -2.04564        -3.44334
LJ          -2.50514         1.21651         4.70261
LJ           6.40506        -2.89256        0.206607
LJ           3.35175         3.72665        -1.56186
LJ           3.68454        -1.67621        -1.58363
LJ           2.26303        -5.65684         4.03796
LJ          -4.56052         2.03414        -2.39987
LJ          -5.22993         2.74645          6.3295
LJ          -2.71097          2.6944         5.63107
LJ          -4.08987        0.672304         -4.6876
LJ          0.896711        -1.74395         5.25419
LJ          -3.64081         2.80927        -5.63985
LJ           0.34668        -5.41571        -5.87737
LJ          -5.26884         6.31457         3.34478
LJ          0.296238         5.01452         3.37088
LJ           5.98873         3.98649         5.96646
LJ           5.36542        -1.61804        -3.96524
LJ           3.56354        -6.11555         4.69468
LJ         -0.713804         5.26249        -3.83738
LJ          -1.07772         2.38188         3.27412
LJ          -4.54227         1.65238        -4.91498
LJ          -3.15227       -0.763048         4.37674
LJ           1.13439         4.77428         4.04848
LJ           4.30954        -1.48383        -3.69308
LJ          0.577024        -1.30854        0.561937
LJ           1.81146          6.0159        -5.38742
LJ          -5.73262         -1.6532        0.711711
LJ           3.77746       -0.657343        -2.05206
