108
#Comment!
LJ           -2.3827        -4.54937        -5.10976
LJ          -2.05446        -3.19581        -5.81436
LJ          -5.21942        0.749171         -1.9622
LJ          -2.53782        -3.77755        -3.82966
LJ          -2.33821        -5.77518        -3.58989
LJ          -1.92369        -2.18661        -4.37884
LJ           1.10778        0.472651         4.23039
LJ          -4.66673        -3.09937         5.30402
LJ          -5.12241        -2.97555        -5.79587
LJ           4.25885        -2.54249       -0.261475
LJ          -4.78238         4.66997        -5.77242
LJ         -0.361828          2.8766        -1.51454
LJ           5.12272         5.90352          1.9797
LJ         -0.857516        -3.16402        -4.40126
LJ          -1.67116        -4.95675         -6.1935
LJ           -3.6471        -5.33186        -1.84447
LJ          -2.89506        -2.75675        -3.84599
LJ          0.784575         5.85155         3.31783
LJ          -3.57931        -5.98708        -3.53412
LJ          -1.44287        -2.78632         4.41569
LJ          -1.61122        -5.36108        -4.62003
LJ           5.20782        -1.68668        -1.98446
LJ         -0.791593        -5.32141        -5.73939
LJ           4.35443        -5.98835        0.886597
LJ          -1.26865         -5.3502        0.990476
LJ          0.302494         1.24275       -0.732062
LJ          -3.46653        -3.85903        -5.95362
LJ          -2.14192        -3.31623         6.11074
LJ         -0.373367         5.60394         3.47293
LJ           4.49983         2.30437         4.65236
LJ          -1.05929        -4.11509         4.67861
LJ         -0.362529        -4.52451        -2.34831
LJ          -2.66167        -1.04457        0.425021
LJ          -3.85413        -1.72584        -5.87906
LJ           3.06665          2.5278         3.79704
LJ          -2.94572         5.32982       -0.645972
LJ          -4.01793        -6.03523         6.35547
LJ           5.49515        -5.90322        -1.61123
LJ          -3.82738        -2.93833         6.10619
LJ          -2.58492        -4.24592         6.41446
LJ         -0.745947         2.85342        -2.69269
LJ          -3.03481        -5.44933        -4.67806
LJ          -2.88153         6.19264        -5.47998
LJ          -3.35841        -3.26305         4.84561
LJ          -3.43988        -4.47863         -4.4264
LJ           6.04663         2.34798        -3.93669
LJ           -4.1107        -2.43017        -5.03469
LJ          -1.80639        -4.54504         5.72476
LJ           3.19502        -1.64828        -5.98725
LJ            1.0819         -1.8127        0.365561
LJ           2.83178         3.32297        -2.87569
LJ          -5.33016        -4.02793        -3.27165
LJ          -1.34623         3.61927        -1.82182
LJ          -3.02893         1.40588         5.28305
LJ           -3.7971        -6.08652        -5.51236
LJ          -6.01077         6.03879         3.60107
LJ           5.85963        -6.21561        -3.15889
LJ          -3.35415        -5.74805       -0.523753
LJ           2.61613         6.05518        -2.24923
LJ          -0.47191        -4.76943        -3.52427
LJ         -0.365071         5.14032         2.43801
LJ          0.421169         1.58727         -2.9254
LJ          -3.33704         6.39279        -4.47276
LJ          0.943094         3.19016        -3.01783
LJ          0.491305       -0.678529          4.0574
LJ          -0.85376        -3.78217        -3.51939
LJ           3.61413         6.14759        0.683077
LJ           4.24228        -3.54647          1.6639
LJ          -2.67686        -5.44301         6.16981
LJ          -3.93568        -4.76096        -5.34976
LJ         -0.804836         1.81549        -3.14442
LJ           5.99826         3.61369         4.07726
LJ          -2.08616        -3.21519        -4.65174
LJ          -1.13477       -0.564546       -0.995625
LJ            1.2399         0.77539        -3.67163
LJ          -1.14631        -4.35027        -5.10499
LJ          -2.97255         -2.6881        -6.06604
LJ          -5.93551       -0.162317         5.59367
LJ           5.41747          3.4971        -1.56725
LJ          -3.66068        -4.84252        -6.42696
LJ            2.0964        -3.05971        -1.90116
LJ           2.14923        -6.32402        -1.30338
LJ          -2.95767        -5.18977        -3.09815
LJ          -4.39474        -5.53555         5.30637
LJ           1.47712         -6.1448         6.39556
LJ          0.442066        -6.20986         4.37907
LJ        -0.0273311         1.28883        -1.87722
LJ          -2.18597        -3.86626         4.93208
LJ         -0.106805         -4.1146        -4.43112
LJ         -0.235211        -2.39593        -5.09555
LJ           2.15739         5.88838          3.0754
LJ           2.06094         -1.5567        -1.76402
LJ           5.56782        -3.93074        0.703136
LJ          -3.05505        -3.35266        -5.04235
LJ          -3.63941        -4.10344         5.62537
LJ          0.236446        -4.61045       -0.686913
LJ          -1.08337        -3.76372         5.69373
LJ           -1.3349        -2.46071         -5.2584
LJ          -2.94902         6.38694         6.35415
LJ         -0.773586        -4.94156        -1.07708
LJ          -1.72187        -4.84539         -3.3105
LJ          -3.59459        -2.11407         4.84616
LJ           -1.6256        -4.19468         -4.1592
LJ             -2.44        -2.00588        -5.33651
LJ          0.200008         -3.7999        -3.43572
LJ           -6.3934        -4.77774          5.1376
LJ          -4.65644           3.107        -1.08556
LJ          -0.28533       -0.401035         -1.7997
