108
#Comment!
LJ          -1.55056        -6.27972        -4.95784
LJ        -0.0565925         5.79258        -4.99094
LJ          -1.85059        0.289107        -3.03465
LJ           -2.3916         2.05345          -5.248
LJ           2.45826         4.72968        -2.10966
LJ          -1.60176       -0.931219         4.17662
LJ           5.57781         5.37867       -0.411047
LJ          -1.50445         3.61898         5.60891
LJ         -0.594672        -5.26199        -4.81125
LJ          -0.54513        -1.28357         5.65552
LJ          -1.21082        -4.56347         -4.0725
LJ           2.89893        -6.39933         3.20298
LJ          -6.19336         4.98323         3.35398
LJ          -5.65598         3.72951         5.97822
LJ          -3.79782         2.63134         4.95385
LJ           4.78083       -0.348894         -2.9657
LJ           3.37875        -1.73833         4.81985
LJ            2.7675         -6.2056        -5.44473
LJ           5.03033        -1.24753        -2.00846
LJ           -5.2446        0.228471        -2.52329
LJ          -2.15406        -3.40451        -3.83105
LJ           1.17361        -6.17848        -4.58475
LJ           2.33976        -6.43994         2.34778
LJ          -3.08711         -3.0655        -2.90569
LJ          -1.95353          2.3491        -2.28613
LJ         -0.270298        -2.09991        -5.45675
LJ         -0.736419        -2.31265         5.72252
LJ          -1.84862         5.61261        -5.01516
LJ         -0.955017        -1.68636        -3.76362
LJ           5.46295       -0.562127       -0.648303
LJ          -1.67891       -0.712593        -3.41838
LJ           3.58512        0.313778        0.054445
LJ          0.105134        -1.56707         6.44693
LJ          -5.41805        -3.10918         5.08686
LJ           4.77936        -3.36873          -2.559
LJ          -6.45609         2.87907         6.16462
LJ          -1.14632        -3.79588        -3.20586
LJ           3.20542         3.24845         4.81546
LJ           4.06519        -2.04965       -0.480598
LJ           4.90008        -2.45895        -1.32534
LJ           5.74716        -2.29386         4.38369
LJ           6.12177        -5.37395         3.64139
LJ           3.00283         3.84503        -2.67931
LJ           5.11731        -1.55247         3.66263
LJ          0.442683        -6.24739        -5.48109
LJ           1.85548         4.28238         4.71335
LJ         -0.669949        -6.25616        -5.48413
LJ           1.16872         3.74318         3.18304
LJ           -4.9781        -5.85391         4.42924
LJ         -0.911834         6.33266         2.02681
LJ          -5.35055        -1.89946         5.55734
LJ         -0.765451        -4.74522       -0.714825
LJ           -5.3175         2.35026        0.857906
LJ          -4.64468         1.11797        -3.30239
LJ          -1.10334        -5.17142        -5.77682
LJ           5.11521        -1.65541        0.110784
LJ           1.72702        -6.17576         -6.3513
LJ           3.65791        0.317725        -1.24905
LJ          0.834177         1.99231        -1.98327
LJ          -6.17325        -6.22989         4.00666
LJ         -0.381514         1.33356        -1.06802
LJ          -2.43162        -4.19479         1.73586
LJ        -0.0621831        -5.99546        -4.31387
LJ          -5.88892         3.18797         1.37924
LJ           5.73374        -1.63939       -0.926649
LJ           1.10918         3.09843         -4.2496
LJ          -3.01883        -1.68203        -5.64386
LJ          -2.16352       -0.312465         4.91931
LJ           4.91422        -2.69971       0.0833523
LJ           1.46799        -4.93342         2.09982
LJ           4.31286        -6.30132         3.72534
LJ          -5.59718        -4.18383         4.53688
LJ          -3.38185         2.03529        -4.77863
LJ          -4.31893         2.88522         0.81468
LJ           5.05054        -3.58261          2.6234
LJ          -1.46942        -4.42652        -2.22238
LJ           -2.3125         2.23409        -6.37502
LJ          -3.35712         2.12882        -6.39086
LJ          -2.49698       -0.835559        -2.50437
LJ           4.45964         4.55198        -1.81704
LJ          -1.94592         -1.9792        -3.18942
LJ          -2.56936         1.17932          4.9947
LJ           -6.3693        -2.54391       0.0980369
LJ           3.22503         3.64303        -1.59746
LJ           3.89672        -1.66003        -1.40273
LJ           2.30712        -5.78706         3.71667
LJ          -4.43801         2.23271        -2.23971
LJ          -5.03888         2.60835         6.20879
LJ          -2.76999         3.02619         5.70802
LJ           -4.0218        0.775823        -4.61508
LJ          0.691126         -1.8848         5.26463
LJ          -3.67326         3.04118        -5.57752
LJ          0.050943        -5.04391        -5.97755
LJ          -5.03663         6.42288         3.61217
LJ          0.322716         4.78785         3.49585
LJ           5.99426         4.03003         5.93287
LJ           5.57233        -1.58534        -3.99307
LJ           3.64019        -6.21463         4.58876
LJ          -0.60846         5.23896        -3.64864
LJ          -1.09316         2.40769          3.3499
LJ          -4.51861         1.83653        -4.69925
LJ           -3.2179       -0.627973         4.55184
LJ            1.1653         4.89939         4.11469
LJ           4.34348         -1.5823        -3.86958
LJ          0.616184        -1.26142        0.649839
LJ           1.97435         6.11784        -5.15571
LJ           -5.6456        -1.69561        0.832547
LJ           4.10731       -0.513042        -2.05155
