108
#Comment!
LJ         -0.931296         6.39884        -5.20052
LJ         -0.920972         5.15006        -5.26358
LJ          -3.39092        -1.03881        -2.41022
LJ          -3.18428         4.41812        -4.79621
LJ           3.70244         3.99409        -2.40573
LJ          -3.27377       0.0213017         5.79476
LJ           5.96196         4.99527        0.869517
LJ          -2.21972         2.94654         6.37296
LJ          0.338534        -4.81999        -5.63698
LJ          0.197477        -1.19128         5.53265
LJ         -0.733499        -3.68376        -4.37073
LJ           3.62223        -6.02808         3.75871
LJ           -5.0622         5.32317         3.84322
LJ          -6.10658         3.98806         5.89632
LJ            -4.644         1.75248        -6.39137
LJ           4.52655       -0.813806        -2.21132
LJ           3.59885        -1.83359         4.42071
LJ           1.65485        -5.89014        -4.17376
LJ           5.51365        -1.76636       -0.532825
LJ          -4.19411        0.493624        -3.21295
LJ         -0.412738        -2.92576        -2.66361
LJ           1.08749         6.14786        -4.66605
LJ           1.15103          6.3804         1.76698
LJ          -2.48272        -1.86394        -2.73589
LJ           1.41248         2.57373        -1.53814
LJ         -0.367572        -2.53074         5.46946
LJ          0.226411        -1.95203         4.72583
LJ          -1.96745          4.4309        -4.31357
LJ          -1.08773        -2.07731        -2.68929
LJ           6.21412       -0.988854       0.0497638
LJ          -2.18142       -0.621133        -2.68858
LJ           3.81942       -0.032699        0.194655
LJ          0.784664        -2.76026         5.37482
LJ          -4.48076        -3.49958         5.49798
LJ           4.06561        -2.72006        -3.08581
LJ           5.83635         3.43417         5.93965
LJ          -1.49125        -2.80273        -3.34268
LJ           3.38975         2.64375         4.94069
LJ           4.99801      -0.0526294        0.417203
LJ           5.18413        -2.32633        -2.00024
LJ           5.77609        -1.28684         4.83614
LJ           5.53888        -5.87108         3.61719
LJ           2.80322         3.58912        -1.60025
LJ           4.93814        -1.44337         4.24287
LJ              1.19         6.43499        -3.45921
LJ           1.97171         3.66253         4.65127
LJ         -0.118719         6.29898         6.37897
LJ           2.81645         4.51198         2.53489
LJ          -5.77108          6.3955         2.07391
LJ          -1.47739        -6.35298         1.65987
LJ          -5.31513        -2.62042         5.54742
LJ           0.98473        -6.28419        -2.48525
LJ          -4.85772         1.99503         0.89576
LJ          -4.24367       -0.851517        -3.22937
LJ         -0.195874        -5.04265         6.24176
LJ           5.20307        -1.20518        0.217161
LJ          0.727312        -5.91689         5.87263
LJ           3.88797        0.149697        -1.61061
LJ          0.168896         2.46741        -1.23087
LJ           5.63115        -6.28625         2.55488
LJ        -0.0587526         1.42361        -1.40945
LJ           0.27252        -3.11348        -0.47347
LJ         0.0604855         -6.0535        -5.14309
LJ          -5.45101         2.97353        0.915219
LJ           4.29047        -1.13539       -0.318876
LJ          0.457678         4.43962        -3.11558
LJ           -3.8217         -1.8691        -3.58061
LJ          -3.41635       -0.371885         4.41938
LJ            -5.727        -2.48782          1.5174
LJ           3.01081         5.88243         2.58464
LJ           4.27721        -5.48704         4.58699
LJ          -5.71008        -3.84569         4.63607
LJ          -4.16333         1.20762        -5.45177
LJ          -4.19184         2.94575          0.9074
LJ           5.09957        -2.89885         1.45303
LJ          -2.80196        -3.89728       -0.432599
LJ           -2.1457          3.0736         5.33349
LJ          -2.92986         1.29461         4.71493
LJ          -3.15382        0.927325         -2.6103
LJ           3.58546         5.00367        -2.87982
LJ          -1.46138        -1.88231        -3.84657
LJ           -2.1526         2.15045         4.26665
LJ           4.52071        -3.60396        0.931165
LJ           3.83566         3.90963        -1.26027
LJ           4.23692        -1.94897         -1.1392
LJ           1.15597        -5.32944        -6.00482
LJ          -5.72801         1.07618        -2.44124
LJ          -6.13454         3.30388        -6.12434
LJ          -1.12712         1.55938         4.02985
LJ          -4.94466        0.893553        -4.85501
LJ          0.762383       -0.508266         6.22934
LJ          -3.58355         2.83453        -4.42419
LJ          0.982267        -5.48446        -5.01952
LJ           6.23185         5.82555          2.0568
LJ         0.0426062         5.44552         3.28761
LJ            6.0675         4.14844         4.99777
LJ           3.87219        -0.95447        -3.16833
LJ           2.96693        -5.81745         4.56066
LJ        -0.0761852         5.79334        -5.47703
LJ         -0.814816         2.00713         2.95335
LJ          -4.15964        0.239373        -5.91042
LJ           -2.2477        -0.35138         3.57051
LJ          0.561605         4.71992         3.83828
LJ           3.59057        -1.72451        -2.21794
LJ          0.210095        -1.82223       -0.230556
LJ          0.699387         6.35862        -5.91879
LJ          -6.34423         -1.9426        0.803893
LJ           3.13388       -0.733616        -1.99572
