108
#Comment!
LJ          -2.02256        -4.41581         -4.4465
LJ          -1.26802        -3.93725          -5.313
LJ          -3.93621         3.24659        -5.06446
LJ          -4.34385        -4.02764        -3.88935
LJ          -1.67867        -6.26863        -3.38057
LJ          -1.23088        -2.56304        -4.23093
LJ          0.230275         -4.2745         3.87285
LJ           5.33599        -2.78983          5.2144
LJ           6.14429        -1.91174        -5.39395
LJ           4.25028        -1.41801         2.77181
LJ           -4.4291         4.19177        -4.00881
LJ          -2.16335         1.73513        -3.46783
LJ          -6.26533         5.69167         3.24759
LJ        -0.0365772        -3.45015        -3.64829
LJ          -1.40251        -5.67758        -4.98348
LJ          -1.26385        -5.31556        -2.95944
LJ           1.04868         2.18395         4.89173
LJ           2.42916         5.47226         4.97235
LJ          -1.84987        -5.29588         -3.7787
LJ          -3.29337        -3.65452        -5.75632
LJ         -0.796744        -4.12832        -4.23614
LJ            -6.055        -2.92957         5.21051
LJ         -0.215194        -5.25005         -4.7089
LJ           1.45154         4.17375       -0.736777
LJ          -1.76357         5.54373        0.654777
LJ          0.131071       -0.102531        -2.93006
LJ          -3.77098        -5.07191        -4.15875
LJ          -2.16149        -4.59871         5.99033
LJ            2.0515         5.49128         6.00061
LJ          -5.87951         5.34752        -5.42209
LJ          -0.18973        -2.94421         2.84875
LJ         -0.721277        -1.89837        -3.09142
LJ          -3.49602         4.09384          4.0667
LJ          -1.40848        -1.93681        -5.38765
LJ           4.63116        0.987261         6.27759
LJ          -3.58866        -3.07139         2.99539
LJ          -3.91731         6.36836        -5.54114
LJ           4.20304        -5.36746       -0.809072
LJ          -2.88063        -3.84274        -4.74758
LJ          -2.22932        -3.27745        -6.06631
LJ          -1.00316       -0.422982        -3.16583
LJ          -4.09035        -5.53952        -5.96945
LJ           -2.4172        -4.88628         4.59382
LJ          -5.82876         -5.5918         5.80963
LJ          -2.94202        -4.63326        -3.82573
LJ           5.88081         2.64448        -5.65565
LJ          -3.11664         -2.7604        -4.98104
LJ          -1.40662        -4.12812        -6.31232
LJ           1.65311         0.13536         4.32448
LJ           1.60675        -1.27021          3.8875
LJ           1.94007         0.23523        0.280223
LJ          -4.04075        -4.51771        -4.89899
LJ         -0.524153       0.0165609        -2.03367
LJ          -2.19537         3.39387        0.536551
LJ          -2.96732        -5.71732        -6.44419
LJ           4.39291         5.10657         0.48918
LJ           3.55394        -0.81171        -1.27262
LJ          -2.74805        -5.35937        -2.99486
LJ          -0.56317         4.78648        -0.89706
LJ          -2.45755        -3.66745         2.26648
LJ          0.125329         2.24945         4.24608
LJ          -3.73671       -0.267906        -4.32718
LJ          -1.93715         -5.1164        -6.00216
LJ         -0.172645         2.24928        -3.97549
LJ            1.4623         1.55755        -5.93391
LJ         0.0112208         -3.1577         6.45493
LJ           1.97513         5.39702        -2.67607
LJ           5.41151        -2.95851          2.6847
LJ           -2.4402        -4.22361        -5.60626
LJ          -2.74508        -5.56058        -4.64611
LJ          -2.93979        0.444676        -3.81735
LJ           5.27266        -1.04048         6.05587
LJ         -0.224057        -1.56505        -4.55362
LJ          -1.64507       -0.496364        -1.21023
LJ          -1.96572       -0.692329        -2.79584
LJ           1.28743        -1.85026         5.55523
LJ          -3.24234        -2.54659        -6.27933
LJ           4.15954        -1.99563         5.92074
LJ           2.01761        0.562079        -2.76811
LJ          -3.35969        -4.94255        -5.48812
LJ            4.4257       -0.585404        -5.11295
LJ          0.317651         3.90929        -1.20271
LJ          -1.53957        -4.13772        -3.41393
LJ          -5.69037         6.00277         6.27917
LJ           2.30678        -5.48263         5.07904
LJ            1.0149         5.78344         6.07118
LJ         -0.226509        -0.98588        -2.11416
LJ          -2.87718        -3.58454         6.08477
LJ           0.49828        -4.97876        -5.64091
LJ         -0.176108        -4.01085          -5.922
LJ           3.00367         6.34922         3.95253
LJ           3.74226        -1.45007         -4.1888
LJ           4.55418       -0.640855         1.26113
LJ          -1.70458        -3.09342        -4.94773
LJ          -3.11864        -6.03227          5.3414
LJ         -0.815374        -1.20503        -1.27402
LJ          -1.08034          -5.534         5.58859
LJ         -0.395607        -3.35809         -4.8431
LJ          -2.16579        -5.64464         5.52005
LJ          -1.01412        -3.13679        -3.29384
LJ         -0.644318        -3.87972        -2.61043
LJ           5.20139        -1.04601         3.94883
LJ          -1.92784        -3.35356        -3.98014
LJ          -1.11991        -3.05309        -5.96357
LJ          0.276924        -4.19385        -4.45623
LJ          -5.09953         6.02545        -4.99876
LJ          -3.70405        -4.73163        -3.05364
LJ         -0.827901       -0.773309        -0.34462
