108
#Comment!
LJ          -2.00518        -4.45151        -4.50261
LJ          -1.23155        -3.97051        -5.24817
LJ          -3.91224         3.36899        -5.13358
LJ          -4.48973        -3.98874        -4.10727
LJ          -1.72869        -6.31628        -3.27292
LJ          -1.09794        -2.54641        -4.19264
LJ          0.166526        -4.41888         3.85016
LJ           5.27492        -2.75123         5.14809
LJ           6.08705        -1.87409        -5.38558
LJ           4.07803        -1.40182         2.73663
LJ          -4.40263         4.14657        -3.99309
LJ          -2.23945         1.64448        -3.56503
LJ          -6.20874         5.66529         3.26379
LJ         -0.130027        -3.52303         -3.7275
LJ          -1.27853         -5.4687         -5.0451
LJ          -1.13338        -5.30244        -2.94842
LJ           1.16763         2.35428         4.71294
LJ           2.49999         5.38852         5.02326
LJ          -1.97791        -5.25577        -3.85296
LJ          -3.30627        -3.62193        -5.60754
LJ         -0.830011        -4.09676         -4.3146
LJ          -6.01158        -2.95471         5.42577
LJ          -0.20591        -5.25847         -4.7518
LJ            1.3805         4.11292       -0.739905
LJ           -1.7636         5.47477        0.672818
LJ         0.0260566       -0.190665        -2.94818
LJ          -3.79055        -5.33827        -4.11433
LJ          -2.06801        -4.54082          5.9517
LJ            2.1125         5.53679         6.04312
LJ          -5.74955         5.35431        -5.25216
LJ         -0.190898        -2.90958         2.81218
LJ         -0.790883        -1.85084        -3.13983
LJ          -3.50891         4.25841         4.16996
LJ          -1.26344        -1.95826        -5.56349
LJ           4.57016        0.799489         6.30577
LJ          -3.55538        -2.94943          3.0952
LJ          -4.00828         6.45507        -5.50001
LJ           4.15697        -5.35163       -0.788649
LJ          -2.86649        -3.91493        -4.70608
LJ          -2.17862        -3.21555        -5.96515
LJ         -0.972842       -0.548777        -3.18791
LJ          -4.05319        -5.58163        -5.99667
LJ          -2.41253        -4.89276         4.67713
LJ           -5.9045        -5.68711         5.84598
LJ          -2.83871        -4.61933        -3.85055
LJ           5.86937         2.65233        -5.72546
LJ          -3.06688        -2.80115        -5.00448
LJ          -1.34766        -4.14117        -6.34137
LJ           1.63095        0.267036         4.32274
LJ           1.61086        -1.32677          3.9646
LJ             1.918        0.141299        0.362475
LJ           -4.0432        -4.40586        -4.91282
LJ         -0.542443       -0.143339        -1.95349
LJ          -2.18023         3.44904        0.399219
LJ          -2.99358        -5.83542        -6.33091
LJ           4.30305         5.10044        0.418424
LJ            3.4807       -0.648066        -1.21158
LJ           -2.5807        -5.37793        -2.89251
LJ         -0.644138         4.68991        -0.84994
LJ          -2.58654         -3.5069          2.1057
LJ          0.160479         2.11258         4.28178
LJ          -3.81336       -0.310732        -4.36143
LJ          -1.88059        -4.96323        -6.02153
LJ         -0.149965         2.27906        -4.06767
LJ           1.50223         1.61554        -5.86485
LJ          0.113199        -3.20272         6.31819
LJ            1.8788         5.33054        -2.82984
LJ           5.47304        -2.96115         2.72268
LJ          -2.39574        -4.22082        -5.65347
LJ          -2.76692        -5.53365        -4.59336
LJ          -3.00176        0.430129        -3.79955
LJ           5.21567        -1.21743         6.11603
LJ         -0.209422        -1.64262         -4.5307
LJ          -1.75693       -0.393782        -1.24509
LJ          -2.06198       -0.787827        -2.68467
LJ           1.34937        -1.79105         5.47089
LJ          -3.27755          -2.585        -6.07495
LJ           4.14559        -2.03884         5.91646
LJ           1.89458        0.464679        -2.79689
LJ          -3.24325        -4.91411         -5.4868
LJ           4.52158       -0.603105        -5.24576
LJ           0.27832          3.9117        -1.19877
LJ           -1.6236        -4.17388        -3.43682
LJ          -5.67603         6.05057         6.25863
LJ           2.32955        -5.45098         5.05624
LJ           1.10435         5.82222         6.11132
LJ         -0.174817        -1.10818        -2.25167
LJ          -2.79899        -3.68185         6.08469
LJ          0.544288        -4.98125        -5.59291
LJ         -0.346823        -4.04215        -6.04046
LJ           2.94736         6.34946         4.06722
LJ           3.76846        -1.35734        -4.22805
LJ           4.52049       -0.530691         1.33762
LJ          -1.74664        -3.04052        -5.00616
LJ          -3.10196         -6.0235         5.42325
LJ         -0.758735         -1.1548        -1.34505
LJ          -0.95845        -5.55569         5.65193
LJ         -0.615221        -3.21824        -4.88539
LJ          -2.19889         -5.4583         5.52314
LJ          -1.13775        -3.10829        -3.34497
LJ         -0.571264        -3.88595        -2.65938
LJ           5.15991        -1.01113         4.06139
LJ          -1.91335        -3.27361        -3.96568
LJ          -1.02911        -3.11354        -6.00211
LJ          0.286554        -4.25777        -4.42759
LJ          -4.94948         6.15384        -4.88496
LJ          -3.54699        -4.69134        -3.04789
LJ         -0.826334       -0.813695         -0.3132
