108
#Comment!
LJ          -2.70313        -6.19169        -6.43016
LJ          -2.32928        -2.98694         6.03535
LJ          -2.39695        -2.33711         -3.4799
LJ           -3.1518        -2.57788        -2.45855
LJ          -1.96969        -2.67042        -2.24954
LJ          -4.17986        -2.46276        -5.84056
LJ           2.71728         3.10073        -2.98395
LJ           6.16065        -4.41292        -6.14921
LJ          -3.29719        -2.75538         5.26412
LJ            -4.159        -2.09421        -4.25749
LJ         -0.914974         5.87484         6.01322
LJ           1.68288        -5.70564        -1.09136
LJ           5.10704        -6.15775         1.92324
LJ          -2.54672        -1.62872        -2.72497
LJ          -2.82427        -5.59852         5.33131
LJ           5.54394         3.06912        -3.15344
LJ          -2.79173        -1.10037        -3.58863
LJ          -3.12788         3.30696        -4.15081
LJ          -3.42342        -1.04753        -2.69971
LJ           5.32593        -2.02114        -3.87281
LJ          -2.66189         -3.2075        -4.22454
LJ          -2.38685         5.57961        -3.42676
LJ          -2.65781         5.30824          5.0614
LJ           4.09182         6.28661        0.851786
LJ          -3.09447          2.1195         -4.4992
LJ           3.11731         1.19468        -1.12757
LJ          -2.01886        -2.77945        -5.55397
LJ          -1.19176         -5.8262        -5.67305
LJ         0.0115011         5.38532        -5.82557
LJ          -4.30486        -2.88597         -2.7871
LJ          -3.64965        -2.87506        -4.65069
LJ           -4.7279        -4.77617        -1.66861
LJ          -2.43236        0.107122        -2.77982
LJ          -1.62846        -3.76609        -6.10465
LJ          -2.81242        -6.10691        -5.20562
LJ           5.76473          5.5216         3.05223
LJ         -0.907288       -0.988219        -4.35575
LJ          -2.58916         6.25444         5.55672
LJ          -3.56853        -1.50303        -5.09233
LJ          -2.18753         3.61132        0.597221
LJ           4.93101        -6.36904      -0.0748846
LJ          -3.99861        -4.94077        -6.43855
LJ           1.90793        -1.94987       -0.452113
LJ           -4.3571         2.69939         3.30525
LJ           -1.5771         4.68063         6.01392
LJ           4.75112         1.54186         1.18896
LJ          -1.73518        -5.56794         6.17396
LJ          -1.16114        -4.90489         2.66709
LJ          -3.01088        0.705465         -4.5094
LJ           3.47416        -0.43647         5.97623
LJ           3.57795        0.409647       -0.390623
LJ           4.92921          4.0091        -3.60295
LJ           5.09997         5.60432        0.194305
LJ          -4.04944        -1.89355        -2.68579
LJ          -4.33995        -3.77064        -4.91946
LJ           -4.9475        -2.91379        -4.36611
LJ          0.168472        -4.74065         3.75309
LJ          -2.10204        -1.34304        -5.19474
LJ          -4.74504         4.08192        0.638379
LJ          -4.35609        -3.14988          6.2708
LJ         -0.765558        -5.90654         6.26355
LJ           3.81272         6.24918        -0.32168
LJ          -2.22804        -5.47602        -5.76268
LJ           4.89394         4.15642         0.55061
LJ           5.41332       -0.895063         6.41156
LJ           1.26595        -5.66813         -2.0821
LJ          -4.85532          4.6143       -0.454667
LJ           3.28412          4.3092         4.32863
LJ          -1.90213        -1.64396        -4.24848
LJ           4.18627        -2.37702        -4.41129
LJ          0.849606         6.14187         2.05154
LJ          -4.86177        -5.13539         4.82374
LJ           4.76938        -1.32163        -2.73141
LJ           3.85198        -1.68899        -1.22504
LJ           3.01033         6.38641         1.05135
LJ          -2.98462        -2.40472        -5.37512
LJ          -3.47533        -2.37852        -3.40249
LJ         -0.990941        -5.74563        -2.25562
LJ          -2.89709        -4.45303        -6.07142
LJ           5.31987         4.08846        -2.57752
LJ          -2.95154       -0.423846        -5.03203
LJ          -1.70701       -0.995592        -2.95638
LJ           4.67972         6.43836        -2.43005
LJ           -1.4181        -4.96715         5.40327
LJ          -2.69127         4.31658        -4.36569
LJ           1.92943         6.28175         2.68193
LJ           4.88832         5.72412        -0.84778
LJ         -0.872398        -5.78803         -3.2483
LJ           -3.1825        0.350423        -3.50206
LJ          -1.66586       -0.229234        -2.03635
LJ          0.679947        -4.16078       -0.768727
LJ          0.920922        -1.26442        -2.95306
LJ          -5.09146        -1.66562        -1.89439
LJ          -6.30835           -2.35          6.3346
LJ          -1.41049        -6.42029        -4.58808
LJ           1.25631         4.99908        -3.51041
LJ          -2.87152        -1.93809        -4.37211
LJ          -3.03482        -3.37483        -5.96628
LJ         -0.720651         5.36629        -4.88113
LJ          -2.45221        -4.75196         5.93071
LJ          -4.12501        -1.41849        -6.07811
LJ          -2.45427         -3.9718        -5.32019
LJ          -1.41176         5.19428        -5.87448
LJ           4.21602       -0.132531         4.30409
LJ            2.4462         1.06579         -2.7018
LJ          -1.87371         6.20991        -5.75942
LJ           -5.7531        -3.41904         -5.9131
LJ          -1.16103         0.29591         2.00023
