108
#Comment!
LJ          -1.06596         6.36301        -5.15731
LJ          -1.04256         4.98675        -5.23008
LJ          -3.32087        -1.16272        -2.53514
LJ          -3.20048         4.34053        -4.84719
LJ           3.55499         4.05707          -2.324
LJ          -3.26769       0.0655765         5.75901
LJ           5.99019          5.1244        0.959246
LJ          -2.12734         3.14211          6.4472
LJ          0.248184        -4.76702        -5.51746
LJ          0.164912        -1.20381         5.47743
LJ         -0.755138         -3.7428        -4.36447
LJ           3.61703        -6.01632         3.73739
LJ          -5.09727         5.31337         3.84496
LJ          -5.97101         3.93248         5.87757
LJ          -4.52325         1.63939         6.45572
LJ           4.48997       -0.874584        -2.29736
LJ           3.64028        -1.81064         4.42594
LJ           1.80582        -5.92441        -4.30414
LJ           5.71471        -1.87291       -0.742922
LJ          -4.31358        0.447491        -3.06575
LJ         -0.499461        -2.86126        -2.60823
LJ          0.880547         6.36374        -4.66292
LJ           1.14606          6.3568         1.80688
LJ           -2.4506        -1.80785          -2.769
LJ           1.27113         2.50715        -1.73439
LJ         -0.297636        -2.45449         5.71359
LJ          0.189512        -1.96795         4.74857
LJ          -1.88684          4.4479         -4.3332
LJ          -1.18741        -1.96997        -2.81155
LJ           6.15144       -0.997078        0.141542
LJ           -2.0955       -0.680254        -2.82594
LJ           3.73307       0.0691425       0.0883729
LJ          0.679827        -2.65633         5.39035
LJ           -4.5252        -3.42817         5.50912
LJ           4.11455        -2.88273        -3.10958
LJ           5.91353         3.34175         5.95213
LJ          -1.43392        -3.00568        -3.39702
LJ           3.39158         2.66954         4.94253
LJ           4.88943       -0.117136        0.349303
LJ           5.18274        -2.24633        -1.98557
LJ           5.85702        -1.32157         4.87251
LJ           5.68626        -5.91079         3.51499
LJ           2.88077         3.57363        -1.71781
LJ           4.78754        -1.47302         4.16197
LJ           1.19923         6.29278        -3.42493
LJ            1.9438         3.70366         4.64177
LJ         -0.155638         6.24624         6.25148
LJ           2.75177         4.42683         2.57457
LJ          -5.79288         6.45171         2.28245
LJ          -1.45447        -6.36401          1.6767
LJ          -5.27314        -2.65623         5.53385
LJ          0.872533        -6.17568         -2.3381
LJ           -4.8869         1.89674        0.890337
LJ          -4.41498       -0.654634        -3.25478
LJ         -0.202939         -5.0854         6.25568
LJ           5.11762        -1.26259        0.368336
LJ          0.649466        -5.86349         6.04105
LJ           3.89218       0.0386303        -1.45344
LJ          0.164589          2.5744        -1.06421
LJ           5.70462         -6.3629         2.58765
LJ         -0.119713         1.32022         -1.4396
LJ         0.0999871        -3.22724       -0.329775
LJ          0.119851         -5.9923        -5.22872
LJ           -5.4326         3.04422        0.942123
LJ           4.55082        -1.02262        -0.60626
LJ          0.497328         4.34041        -3.18799
LJ          -3.67801        -1.76845        -3.48919
LJ          -3.36248       -0.345993         4.42292
LJ          -5.92481        -2.51136         1.50375
LJ            2.9888         6.04123         2.58641
LJ           4.30902        -5.53495         4.48186
LJ          -5.73404        -3.84015         4.62297
LJ          -3.99682         1.37173        -5.51014
LJ          -4.24174         3.00119        0.906953
LJ           5.18863        -2.88958         1.60156
LJ          -2.73794        -3.94327       -0.530866
LJ          -2.13106         2.90607         5.22728
LJ          -2.98194         1.30879         4.82333
LJ          -3.16707        0.832161        -2.56427
LJ           3.68573         5.01219        -2.84981
LJ           -1.4618        -1.91014        -3.78401
LJ           -2.1635         2.29137         4.30791
LJ           4.58019        -3.66166         0.79322
LJ           3.78485         3.87943        -1.25546
LJ           4.07112        -1.91471        -1.01509
LJ           1.40002        -5.29149        -6.38189
LJ          -5.58355         1.13752        -2.44163
LJ          -6.20468         3.34502        -6.20301
LJ          -1.06962         1.59898         3.99411
LJ          -4.93516        0.805022        -4.81698
LJ          0.736081       -0.666438         6.19667
LJ          -3.62437         2.85336        -4.45938
LJ           1.11666        -5.38032        -5.07623
LJ           6.22257         5.86321         2.02302
LJ         0.0358451         5.49537         3.23881
LJ           6.02888         4.16008         5.12886
LJ           4.01692        -0.97085        -3.22029
LJ           2.90083        -5.84006         4.58553
LJ         -0.141911          5.8206        -5.32878
LJ         -0.882441         1.97597         3.07404
LJ          -4.29955        0.230917        -5.89574
LJ          -2.34744       -0.405894         3.63144
LJ          0.621491         4.66735         3.89739
LJ           3.64047        -1.58703        -2.34572
LJ          0.244748         -1.7392       -0.168646
LJ          0.886393         6.31646        -5.73521
LJ          -6.36283        -1.85792        0.654651
LJ           3.21352       -0.719423        -1.86726
