108
#Comment!
LJ          -1.66958         5.96518        -4.35511
LJ          -2.28744        -4.66287        -6.16247
LJ          -2.02064        -2.89457        -5.72722
LJ          -1.56333       -0.772654        -3.42242
LJ         0.0988216        -3.33569        -3.69767
LJ          -3.71105        -0.45044         -5.4226
LJ           4.40823          2.5135        -2.42173
LJ          -4.69017       -0.793411        -5.93203
LJ          -3.59285        -3.25575        -5.19619
LJ          -3.96193        0.621189        -5.57457
LJ         -0.181049         2.50141        -5.37483
LJ           2.11912        -5.72721         1.75464
LJ           5.23017        -6.12209         4.19768
LJ          -3.32025       0.0819789         -2.6101
LJ          -1.87822        -2.94886        -4.29873
LJ           5.05029         1.57225       -0.983915
LJ         -0.903411       -0.812374        -1.93581
LJ          -6.10795         3.72239        -6.14587
LJ          -6.06379        -2.17593        -2.19657
LJ          -3.40443        0.695596        -4.21801
LJ          -2.37314        -2.00935        -6.25852
LJ          -1.40354         5.49261        -3.40702
LJ           1.24371         5.02391         4.97729
LJ            3.5062        -4.87292         1.26776
LJ         -0.113769         0.54951         4.71291
LJ           5.77267         2.97752         0.21666
LJ          -2.31555        -2.15532        -3.43938
LJ          -2.22769        -4.94237        -3.59264
LJ          -1.86046        -4.13068        -4.06819
LJ           6.12456        -1.26449        -2.82249
LJ          -5.34534       -0.549466        -5.04552
LJ          -3.77191        -1.94193        -1.39656
LJ          -2.81707         0.41652        -5.52457
LJ           -3.3816        -4.22436         5.75732
LJ          -1.61557         4.58018        -6.32868
LJ          -2.70794         3.59203        -4.34097
LJ          -1.28651        -1.48458        -4.71368
LJ          0.354537         4.62016         3.63185
LJ            -4.723        -2.32335        -2.12355
LJ          -5.17253        -1.69632        -1.33514
LJ           3.22254        -5.53642          3.2374
LJ           -4.5094         -2.8761        -5.81651
LJ           1.09918         4.25789        -1.47269
LJ          -4.74273         6.22543         3.11405
LJ         -0.596419         5.61791        -4.10446
LJ           1.07094         3.07192         3.91897
LJ          0.162244         4.93827        -4.49187
LJ         -0.268768         3.30537         5.80703
LJ          -3.63571        -1.44274        -5.00068
LJ           2.80145         4.32337         2.06954
LJ           5.65433       -0.383525         0.59176
LJ          -6.45296         2.16852       -0.166873
LJ           6.02324         5.15196        0.860015
LJ          -3.88913        -1.13791        -2.25673
LJ          -1.03491        -6.12134        -4.37563
LJ           -4.5403       -0.100423        -3.67495
LJ           1.38482         6.26635         5.57253
LJ          -5.55712      -0.0581411        -4.13976
LJ          -2.79031       -0.932233         5.90265
LJ          -4.43983        -3.91776        -6.14209
LJ         -0.459467          3.9962        -5.90239
LJ           6.43269        -5.62569        -3.44449
LJ          -1.55614         4.61794        -4.13662
LJ            6.2964         3.85993         1.25823
LJ          -6.19009        0.831984        -3.49976
LJ           0.90782        -3.13146        -1.27286
LJ         -0.570019         -3.8767        -4.39129
LJ          -3.81801         2.10783        -4.47098
LJ           5.76919        -1.17641         6.43515
LJ            3.1238        -4.88151       -0.876113
LJ           5.66519         5.69449         3.74078
LJ          -5.14783        -4.98459        -4.41283
LJ          -2.63252         1.00259        -2.97091
LJ           6.00402         4.32771        0.162466
LJ           4.85415        -5.97519         2.72897
LJ          -1.71592        -3.91205        -5.35122
LJ          -5.79033       -0.345149        -3.02911
LJ         -0.914864        -1.54531         3.18471
LJ          -3.18733        -4.35954        -5.27481
LJ           4.94137         3.50745        -2.65915
LJ           1.57382         5.25804        -5.41208
LJ          -2.98844          1.5386        -3.76065
LJ          -1.81166        -5.38621         3.82942
LJ         -0.785894        -6.39908         -3.3154
LJ           5.78355        0.204405        -3.14722
LJ            2.9944        -4.08723        -1.80817
LJ           3.20018        -5.98614         2.14921
LJ          -3.57647        -1.51951        -3.71121
LJ          -2.45574         -1.1924        -2.87218
LJ          -2.57686        0.201047        -3.80118
LJ          -2.85613        -3.12959        -3.79075
LJ          -4.57967         -1.1848        -4.39236
LJ          -2.78173        -2.42514        -4.89172
LJ          -4.52463        -1.87351        -6.41868
LJ          -1.95529         4.06338        -5.00279
LJ           1.08129          1.6768         1.88395
LJ          -4.56567        -1.80033        -3.16399
LJ           5.55251        -4.81926         2.03182
LJ          0.123812         5.62769         4.55944
LJ         -0.837489         4.83338        -5.05087
LJ           -3.3723       -0.556748        -4.32833
LJ          -1.50722        -1.69048        -2.79505
LJ         -0.531127          4.5572         6.20238
LJ          -4.19116        0.289371        -0.84983
LJ           1.72359         1.05218         3.47841
LJ             -1.62         5.38724        -5.48278
LJ          -5.61919        -1.20251        -2.44893
LJ          -4.25593        -3.15819        0.254264
