108
#Comment!
LJ          -3.14486         6.18533        -6.30014
LJ          -3.29324        -4.20495        -6.01479
LJ            3.7119        -1.69276       -0.762212
LJ          -2.22357        -1.81519        -4.08865
LJ          -1.03257        -4.25694        -3.50593
LJ          -2.93251        -3.73618        -4.03688
LJ          -3.26418         2.01664         5.76042
LJ          -5.78054        -2.32293         6.40078
LJ          -4.39928         -4.0869        -6.05075
LJ         -0.691891        -1.02312        -4.10505
LJ          -3.98054        -5.81826        -6.16992
LJ           2.55037         4.77166        -1.81965
LJ           5.21021         5.59354        0.656938
LJ          -1.62617        -3.38877        -3.68073
LJ         -0.798086        -5.15155         5.65911
LJ          -5.79161        -6.30266        -3.89392
LJ          -3.79425        -3.99813        -5.06755
LJ          -1.19121         5.66488       -0.406672
LJ          -4.49464        -3.05864        -5.37966
LJ          -1.64351        -5.59114        -4.96997
LJ          -2.74359         -4.8796        -4.76545
LJ          -3.49379        -4.63652         3.82208
LJ           -4.2066         6.15439        -5.34771
LJ           5.48484         5.45733       -0.603209
LJ          -1.74264         5.16616        0.420378
LJ         0.0214241         1.77823       -0.827661
LJ         -0.983156        -1.96724         5.17594
LJ         -0.598556        -3.84664        -5.87236
LJ          -2.05921         4.73927         3.47189
LJ         -0.607198        -2.34591        0.205605
LJ          -1.80213        -4.54179        -4.43039
LJ          -1.09127        -6.45598         2.02441
LJ          -3.86753        -1.16409        -5.26678
LJ          -5.09498        -3.30446        -6.39016
LJ         -0.548456        -1.15503        0.172506
LJ          0.987366       -0.445323        -5.76179
LJ           5.99288        -3.33486         -5.5912
LJ          -4.72303         5.54057        -4.18032
LJ          -3.83843        -2.92263         6.04957
LJ           -2.1649        -3.90154        -6.38238
LJ           1.81156         3.90076        -1.15221
LJ          -4.15363        -5.78303        -4.69116
LJ          -6.30245         5.89584        -2.13708
LJ          -3.75111       -0.187881         3.28127
LJ          -4.45127        -6.42853        -3.79149
LJ            5.7757         2.02314        -1.48483
LJ          -3.26328        -3.84001         5.98912
LJ          -1.16337        -1.93314         3.44379
LJ          -5.01161        -2.64006        -2.91294
LJ          -4.72923        -2.08663         1.45366
LJ           3.16941        -4.80695         5.06299
LJ           6.23629        -6.09205        -3.29026
LJ          0.405338         3.54944        -2.50086
LJ          -3.53931        -3.03913        -4.55205
LJ          -3.57522        -4.99068         6.09829
LJ           6.42541        -4.77811         6.10077
LJ          -4.12855        0.373195       -0.221403
LJ          -4.52178        -3.29801        -4.03305
LJ           4.87745        -5.06284        -2.09005
LJ          -3.50415        -5.03215        -5.50908
LJ          -2.53022         5.92353         3.35682
LJ           1.53234         4.95979       -0.955769
LJ          -3.22727        -6.09763        -4.25018
LJ           3.69296         5.69227        0.984891
LJ           4.32595        -2.16043        -2.16971
LJ          0.853236         -6.0515         2.42915
LJ           4.46293         4.89915         1.74831
LJ           5.46885        -5.58367        -2.87714
LJ         -0.643006         -3.8997        -4.42832
LJ          -4.82754         2.26562        -5.96093
LJ            1.2135         5.64971        -5.86578
LJ          -6.19419        -2.96358         5.32358
LJ          -2.29058        -5.15745        -3.81042
LJ        -0.0701853         2.62923        -2.41529
LJ           3.84543          3.9241         -1.5738
LJ           -2.7327        -3.65698        -5.16322
LJ          -2.62525        -2.40866         6.18758
LJ         -0.839981         3.33898         3.98927
LJ          -3.10746        -4.80969        -3.52941
LJ          -5.72203         5.66281        -4.46937
LJ         -0.799614          1.9502        -4.94733
LJ          -5.15259        -1.50323        -2.04317
LJ           4.25183        -4.99075       -0.690233
LJ          -1.96308        -4.41454        -5.50639
LJ         -0.463012         2.88232        -4.32214
LJ          -5.82784         1.42929         4.01945
LJ           3.46784         4.69203         1.69173
LJ          -1.15367        -3.17742          5.8836
LJ          -2.59959        -1.70555        -5.30706
LJ          -3.17806        -3.21503        -2.81398
LJ          -2.04364         5.47095         2.01094
LJ           1.19537        -1.33936        -1.41346
LJ          -5.52222      -0.0369612          5.6371
LJ          -4.25172        -3.82955         5.86695
LJ         -0.874815        -4.91436        -5.54683
LJ           1.14609        -6.30871          3.5167
LJ          -1.15583        -3.20104        -5.13314
LJ          -3.40069        -2.70047        -5.78794
LJ          -1.19229        -4.44411         6.36811
LJ         -0.340369         5.70176         3.69365
LJ          -4.01725        -4.66011        -4.28954
LJ          -1.74946        -2.98668        -6.06885
LJ          -2.93284        -6.05323        -5.32843
LJ          -4.27472        -1.93348        -6.27554
LJ          -1.01518         3.40566       0.0355586
LJ          -3.20707         5.44931         2.71461
LJ          -4.06669        -3.78937          2.0435
LJ          0.963242         1.80227        -1.49871
