108
#Comment!
LJ          -2.15858        -4.64259        -5.01821
LJ          -1.83408         -3.4334        -5.21486
LJ          -4.63975         1.74874        -3.33142
LJ          -2.50475        -3.47723        -3.43064
LJ           -1.3754        -5.74499        -3.96575
LJ          -1.10119        -2.21612        -3.25766
LJ           1.45294        -1.40092         4.36678
LJ          -5.76598         -2.8394         6.00327
LJ          -5.66658        -2.86193        -5.69191
LJ           5.95214        -1.76486         1.14577
LJ          -4.69428         4.42409        -4.90643
LJ          -1.37588          2.7452        -1.49455
LJ           5.59145         6.10893         2.83708
LJ          0.251539        -2.78793        -3.80726
LJ          -2.19311        -5.86568        -5.15022
LJ          -3.33276        -5.72422        -2.27243
LJ          -1.54977       -0.754645         -5.1259
LJ           1.43496         6.32462         3.48326
LJ          -2.38281        -5.26022        -4.21386
LJ          -2.93629        -3.46544         5.98373
LJ          -1.17177        -4.75208        -4.29986
LJ             4.718        -1.95343         1.43816
LJ          -1.33188         -5.1359        -5.67836
LJ           2.76935         5.63048       -0.828053
LJ          -1.72319        -6.17511        0.257075
LJ          0.338227        0.474056        -1.46069
LJ           -3.8284        -4.06814        -5.12639
LJ          -2.72912        -4.44974         5.89122
LJ          0.819129         5.43487         4.31701
LJ           5.11479         4.31952         5.45825
LJ         -0.372894        -3.75083          3.5365
LJ          0.286384        -3.04495         -2.8309
LJ          -3.12846          1.0873         1.97998
LJ          -3.13847         -2.2244        -4.73417
LJ           4.77787         3.24385         5.43338
LJ          -3.48201        -5.68289         1.04102
LJ          -3.33745         6.14591         -6.3232
LJ           5.01128         -5.7044        -1.17502
LJ          -3.71542          -3.215        -6.30097
LJ          -3.08404        -4.28128        -5.85327
LJ         -0.150584         1.51395        -2.56951
LJ          -3.73302        -5.71261        -4.26175
LJ            -2.485        -6.31138        -6.37573
LJ           -4.4859        -4.36366          5.5276
LJ          -2.88537        -4.33815        -4.34269
LJ           5.98211         2.45969        -4.61991
LJ          -2.81641        -2.83905        -5.66619
LJ          -1.80878        -4.20859        -6.24831
LJ           2.17173        -1.23032         5.30565
LJ           1.32473        -1.45373         1.85585
LJ           2.35844         1.95789        -1.37276
LJ           -5.4322        -3.38865        -4.84259
LJ          -0.52873         2.50862        -2.49887
LJ          -2.57513         2.40219         3.24756
LJ          -3.68709        -5.73264        -6.21814
LJ           6.05877         5.31923         1.92987
LJ           4.87024        -3.79266        -2.44336
LJ          -2.46877        -5.23698        -2.88075
LJ           1.37395         5.65854        -1.89623
LJ          -0.44438        -5.73307         6.00611
LJ         0.0486288         4.52239         4.25123
LJ          -1.56083        0.365511        -3.40789
LJ          -3.24984        -6.41705        -5.06469
LJ         -0.344682         1.81114        -3.58039
LJ          0.653934        0.482724         5.49924
LJ         -0.733826        -3.38868        -4.02555
LJ           3.24205         6.09704        0.230654
LJ           4.46616        -3.41821         2.34318
LJ          -2.24424        -5.23264        -6.15153
LJ          -3.07931        -5.19089        -5.23149
LJ          -1.35498         1.61297        -3.79668
LJ            5.7678         1.52503         4.93333
LJ          -1.60545         -2.4641        -4.73196
LJ         -0.656899         -1.0229        -1.03055
LJ         -0.556804         0.54328        -3.27205
LJ         -0.418603        -3.34976        -5.40769
LJ          -2.11385        -3.17216        -6.41137
LJ           5.57586        -0.96052         5.77978
LJ           4.09546         2.25128        -2.16856
LJ          -4.08038        -4.46471        -6.36835
LJ           2.56202        -1.58235        -2.53773
LJ           1.07088         5.02716         -1.0223
LJ          -2.02236        -4.54652        -3.49749
LJ          -4.57762        -5.49249          5.5315
LJ           1.98622        -5.88718         5.84489
LJ          0.040291         5.14322         5.07565
LJ         -0.770672         0.64628        -2.26447
LJ          -2.59161        -3.65463         4.44936
LJ         -0.158697        -4.45008        -4.84256
LJ          0.584258        -3.38818        -4.59803
LJ           2.86212         6.01989         3.20388
LJ           3.40862        -1.86475        -3.63184
LJ           5.10887        -2.99516        0.378601
LJ          -2.57521        -3.25992        -4.54166
LJ          -3.49094        -5.27539         5.74637
LJ         -0.587235        -3.22583        -1.89145
LJ          -1.95731        -4.11084         5.23943
LJ         -0.587493        -2.21323        -4.25905
LJ          -3.36067        -6.28786         5.55355
LJ          -1.04594        -3.21428        -3.00829
LJ         -0.746827        -4.83381        -2.95956
LJ           -5.4503        -1.37166         4.13852
LJ          -1.72746        -3.83833        -4.23954
LJ          -1.87017        -2.35541        -5.74983
LJ          0.212557        -3.86224         -3.7381
LJ           6.31852         5.26262         6.06837
LJ          -4.46267         5.28751        -1.80236
LJ         -0.793482        0.122617        -1.15364
