108
#Comment!
LJ           -1.2039        -5.86389        -5.96211
LJ         -0.368419         5.90986        -3.92531
LJ          -1.77708       -0.320172        -4.49679
LJ          -2.23147        0.642708        -4.76874
LJ           2.18993         5.14413        -2.75801
LJ          -2.76264        -1.33524         5.31436
LJ           4.25837         4.57535        -2.24015
LJ          -2.69197          0.6806         6.18128
LJ          -1.19174        -3.35786        -4.48194
LJ          -2.04618        -2.06032         5.57158
LJ          -1.25107        -1.68773        -3.81018
LJ            3.1258         5.91832         2.12095
LJ          -6.13546        -5.99741         3.48821
LJ          -4.36284          4.0025        -3.24367
LJ          -2.67733        -6.40533       -0.129522
LJ          -5.66707        -1.37475       -0.693309
LJ           2.16939        -1.81828         6.29611
LJ            2.7825        -6.10707        -6.18532
LJ          -6.13961        -2.70719        -2.38595
LJ          -4.45773         1.42765         -5.1549
LJ          -2.53662        -2.74417        -3.03857
LJ           1.16737         5.66938        -4.67091
LJ           2.14405        -6.35924         4.38774
LJ          -1.38912         4.91973        -5.39849
LJ          -6.41439         1.88868         -2.2329
LJ           2.78551        0.710645         5.19594
LJ          -2.48734        -3.61611        -4.58696
LJ          -1.50742        -5.73497        -4.33118
LJ          -3.22539        -4.98922          -3.566
LJ          -5.50702       -0.603622        -1.72795
LJ          -2.23965        -1.88738        -4.31663
LJ           4.30519        -1.45198        -2.64528
LJ           -2.6305        -1.00215          6.2683
LJ           6.02541          -4.671         3.87559
LJ           1.63297        -0.87893        -6.17308
LJ           -3.5324         1.49838        -4.25498
LJ          -1.66846        -2.61625        -3.93532
LJ          0.488099          4.1824          3.3776
LJ          -6.42994         -2.7024       -0.973125
LJ           6.26899        -1.61081        -1.33093
LJ           4.96556        -5.56565         3.61409
LJ          -6.05474        -4.54234         5.94089
LJ           3.01772          5.7956        -2.53479
LJ          -5.68746         -3.2356         2.81494
LJ         -0.695062         6.25909        -5.30994
LJ          0.926447         3.15843          4.6378
LJ          0.314647         6.46085        -4.97785
LJ           1.03193         4.51297         4.50875
LJ          -3.86102        -4.18512         5.82188
LJ           1.21714         5.19031         3.72705
LJ           -6.2867        -1.48884         3.64939
LJ          -5.33597        -1.25399         0.34046
LJ          -6.38895         3.22279        0.476314
LJ          -4.79414         3.16834         -3.8982
LJ         -0.526304        -5.50696        -5.25025
LJ          -6.03448        -1.27807        -2.48216
LJ           1.37668        -6.21814        -5.51486
LJ           4.89461       -0.509137        -2.80787
LJ           2.30865       0.0876248        -5.55615
LJ          -4.89023        -4.63454         6.15709
LJ         -0.453674         1.84256         -2.2124
LJ          -5.86588        -5.72062         5.44629
LJ          0.015745         5.04178        -4.86162
LJ          -5.74988           3.515         1.88018
LJ           4.98615       -0.605166        -1.79545
LJ           1.84162        0.741758        -4.48175
LJ          -1.47135        -1.95573         4.01982
LJ           -2.0463        -1.45802         -5.2168
LJ           3.53855        -4.11449        -2.55692
LJ           2.11096        -5.10388        0.794125
LJ           4.35468        -6.40636         1.64722
LJ           -5.6064         -6.1487        -6.31027
LJ          -3.70896         3.08961        -3.41599
LJ          -5.27252         3.24112        0.879741
LJ           4.95455        -4.45637         3.61917
LJ         -0.285416        -2.91298        -5.35016
LJ          -3.89392      -0.0381825        -6.27119
LJ          -3.21985         2.56288        -4.74295
LJ         -0.573151        -1.33109         -5.0477
LJ           3.97231         3.55571        -2.08651
LJ         -0.878805       -0.695564        -3.80302
LJ           -4.3351         2.28053        -4.27493
LJ           3.70133        -2.09179        -3.84817
LJ           1.76325         3.82478        -3.11088
LJ           2.95887       -0.478959       -0.665739
LJ           1.38936         -4.0224         0.61173
LJ           -6.2483         5.43899        0.195824
LJ          -3.74026        0.568122        -5.27441
LJ            -2.614        0.252002        -5.69465
LJ          -2.76146         1.25904        -5.40822
LJ          -2.49486        -2.65734        -5.18526
LJ          -3.60537         1.16078         -6.2235
LJ          -1.23374        -2.13695        -4.91438
LJ          -3.89506        -4.44029         -6.0376
LJ          0.374586         5.59424         5.59309
LJ          -4.07716         3.10785         5.48118
LJ          -5.16324        -1.67339        -1.86706
LJ           3.44708         6.41334         3.17359
LJ           0.78264         6.05267        -3.65217
LJ          0.116584         3.42192         5.47165
LJ          -1.77143         1.53789        -5.34877
LJ           1.61612         0.35799        -3.29977
LJ         -0.385998         4.75519         5.11178
LJ           5.55606         0.35887        -1.59918
LJ           1.46729       -0.413807         2.14583
LJ          0.597729         6.09404        -5.99292
LJ           5.89556       -0.552438       -0.842041
LJ           4.65235        -2.74854        -2.42431
