108
#Comment!
LJ          -3.18489         6.06167        -6.06737
LJ          -3.08994        -4.19513        -5.85265
LJ           3.51036        -1.73006       -0.923187
LJ          -2.10548        -1.84404        -4.10683
LJ          -1.10319        -4.29362        -3.50723
LJ          -3.05876        -3.85071        -3.81174
LJ          -3.33655         1.98658         5.92264
LJ          -5.70671        -2.54263          6.3804
LJ          -4.66922        -4.28962        -5.85316
LJ         -0.913637       -0.957707        -4.21457
LJ          -3.94154        -5.72494          -6.116
LJ           2.59778         4.81532        -1.65006
LJ           5.09481         5.48808        0.499864
LJ          -1.84511        -3.30821        -3.81731
LJ         -0.622813        -4.94794         5.71857
LJ          -5.82357         -6.3563        -3.97167
LJ          -3.83466         -3.9325          -5.098
LJ          -1.27456         5.70133        -0.50751
LJ          -4.17171         -3.0293        -5.43867
LJ          -1.67611        -5.55227        -4.94493
LJ          -2.67458        -4.99906        -4.80467
LJ          -3.33117        -4.96378         3.93936
LJ          -4.14547         6.33308        -5.54853
LJ           5.39378         5.44119       -0.779119
LJ          -1.80494         4.93201        0.174761
LJ         0.0896807         1.75697       -0.825482
LJ         -0.819255        -1.93975         5.27394
LJ         -0.729744        -3.77185        -5.70575
LJ          -2.12246          4.7292         3.50983
LJ         -0.966166        -2.46952      -0.0214602
LJ          -1.62756        -4.41872        -4.38551
LJ          -1.33868        -6.43242         2.13912
LJ          -4.01398        -1.13724        -5.12314
LJ          -4.99186        -3.14495        -6.14234
LJ         -0.511366        -1.33059       0.0745145
LJ            1.1541       -0.670219        -5.89796
LJ           5.64811        -3.24605        -5.49854
LJ          -4.51899         5.55812        -4.35004
LJ          -3.85697        -2.87782         6.02139
LJ          -2.30707        -3.86737        -6.42876
LJ           1.92518         3.84741        -1.16705
LJ          -4.17332        -5.69607        -4.90136
LJ           6.45382         5.92489        -2.10714
LJ          -3.76945      -0.0955845         3.27972
LJ          -4.35357        -6.27154        -3.93195
LJ           5.74735          1.9991        -1.39438
LJ          -3.10035        -3.68073         5.81292
LJ          -1.12781        -1.96309         3.37081
LJ          -4.75398        -2.46191        -3.13189
LJ          -4.89036        -2.01905         1.20617
LJ           3.17558        -4.62388         4.87474
LJ           6.14352        -6.26331        -3.34218
LJ          0.568181         3.75225        -2.52338
LJ          -3.36731        -2.93095        -4.66011
LJ          -3.52381        -4.87543         6.18171
LJ           6.31176         -4.7007         6.06751
LJ            -4.012        0.169239      -0.0796153
LJ          -4.68054        -3.13314        -4.33995
LJ           4.82241        -5.38263        -1.92216
LJ          -3.73027        -4.87606        -5.32158
LJ          -2.48524         5.98531         3.50917
LJ           1.53434         5.17693         -1.0049
LJ           -2.9914        -5.96135         -4.4051
LJ           3.95218         5.79141         1.11658
LJ           4.47081        -2.23118        -2.39244
LJ          0.918533        -6.17658         2.74125
LJ           4.69411         4.89419         1.79453
LJ           5.13097        -5.51871        -3.10539
LJ         -0.737214        -3.89505        -4.64338
LJ          -4.84115         2.06993        -5.99372
LJ           1.23516         5.80852        -5.94545
LJ          -6.44859        -2.71269         5.22667
LJ          -2.20576        -5.53141        -3.91959
LJ           0.03454         2.53713        -2.43459
LJ            3.8122         4.11656        -1.46126
LJ          -2.76301        -3.75392        -4.95614
LJ          -2.71303        -2.69107         6.07372
LJ         -0.763736         3.56921         3.82626
LJ          -3.31813        -4.87916        -3.60401
LJ          -5.94792         5.52721        -4.33622
LJ         -0.860173         1.86797        -5.13137
LJ           -4.7756        -1.47453        -1.92833
LJ           4.26975         -4.9064       -0.627019
LJ          -1.97789        -4.27531        -5.45233
LJ         -0.425135         2.36167        -4.22361
LJ          -5.46341         1.69483         4.08275
LJ             3.433         4.77453         1.82749
LJ          -1.23747        -3.37348         5.88785
LJ          -2.42599        -1.63089        -5.08748
LJ          -3.15379         -2.9815        -2.91356
LJ          -1.69846         5.52626         1.76122
LJ           1.19812        -1.31072        -1.43536
LJ           -5.4379        0.129692         5.96078
LJ           -4.3782        -4.20775         5.75713
LJ          -1.05644         -4.8133        -5.19954
LJ           1.23759         -6.4024         3.75753
LJ          -1.31928        -3.11149        -5.06193
LJ          -3.10447        -2.86587        -5.66497
LJ          -1.27382        -4.25086         6.43892
LJ         -0.385342         5.66603         3.69484
LJ          -4.11528        -4.72703        -4.33027
LJ          -1.60367        -3.04981        -6.07109
LJ          -3.05479        -5.83715        -5.51514
LJ          -4.23491        -2.08073        -6.33425
LJ         -0.953452         3.08405        0.139667
LJ          -3.43975         5.67584          2.8264
LJ          -4.02075        -3.95343         2.28544
LJ          0.925531         1.84573         -1.4922
