108
#Comment!
LJ          -2.45238        -4.21384         -4.8688
LJ          -2.27299        -3.63694        -5.87177
LJ          -5.38029        0.482452        -1.58481
LJ          -2.55348        -3.87769        -3.73734
LJ          -2.51234        -5.77838        -3.35167
LJ          -2.23814         -2.1122        -4.14582
LJ          0.722387        0.781346         4.27609
LJ          -4.24399        -3.03166         5.14497
LJ          -4.85383        -2.85134        -5.87715
LJ           3.71093        -2.69068        -0.76567
LJ          -4.77123         4.79976        -6.02035
LJ         -0.189212         2.80535        -1.96889
LJ           5.01183         5.92142         1.69291
LJ          -1.15035        -3.16236        -4.70661
LJ           -1.7966        -4.53336          -6.306
LJ          -3.44383        -5.23579        -1.74899
LJ          -3.22833        -2.75781        -4.47203
LJ          0.585077         5.96173         3.41991
LJ          -3.52191        -5.71302        -3.46724
LJ          -1.03579        -3.26703         4.52262
LJ          -2.01001        -5.22208        -4.79961
LJ             5.449        -1.74768        -2.75148
LJ          -0.72086        -5.61715        -5.71264
LJ           4.64135        -5.95189          1.6042
LJ         -0.910523         -5.1762         1.54291
LJ          0.259107         1.41296       -0.415892
LJ          -3.65248        -3.66394         6.27515
LJ          -2.10917        -2.91497         6.00159
LJ         -0.577652         5.40398          3.2847
LJ           4.10137         1.72137         4.34236
LJ          -1.05052        -4.26172         4.90799
LJ         -0.404379        -4.37967        -1.33087
LJ          -2.51494        -1.62815      -0.0190456
LJ          -3.36775        -1.71662        -5.37464
LJ           2.82637         2.39046         3.44939
LJ          -2.74261          4.9292        -1.15393
LJ          -3.70513        -5.46822         6.09257
LJ            5.6378           -5.96        -1.90009
LJ          -4.08105        -2.41317         6.17576
LJ          -2.70376        -4.05089         6.06532
LJ         -0.844199         3.19265        -2.70558
LJ          -3.08623        -5.65108         -5.0097
LJ          -2.95064         5.76401        -5.34669
LJ          -3.21039        -3.11651         4.50478
LJ          -3.30827        -4.60838        -4.38876
LJ           6.06568         2.31896        -3.73926
LJ          -4.34449         -2.3733        -4.97075
LJ          -1.72516        -4.78248         5.55872
LJ            3.4618        -1.75957        -5.55304
LJ           1.02325        -1.90943        -0.07904
LJ           2.91925         3.69633        -3.29333
LJ          -5.20323        -4.22154        -2.90639
LJ          -1.24771         3.52625        -1.63097
LJ          -3.15527         1.12734         5.84398
LJ          -3.81336        -6.33205        -5.65849
LJ          -5.88493         6.26548         4.02737
LJ           6.10368         6.04331        -3.16137
LJ          -3.98394        -5.85913       -0.631353
LJ           2.89546         6.22664        -2.19349
LJ          -0.99869        -4.85591        -3.55917
LJ         -0.738455         5.36006         2.14673
LJ          0.478657         2.03742        -2.62855
LJ          -3.39632         6.39733        -4.17865
LJ           1.14508         3.61275        -2.69982
LJ          0.747825       -0.798497         3.59459
LJ          -1.04604        -3.53408        -2.75161
LJ           3.95759          6.4095        0.623787
LJ           4.30716        -3.59577         1.34015
LJ          -2.73804        -5.14592         5.99014
LJ          -3.91649        -5.09356        -5.22364
LJ         -0.421387         2.00024         -3.1667
LJ           6.06087         4.16507          3.8248
LJ          -2.15851        -3.15985        -4.59821
LJ          -1.10702       -0.303948        -1.17055
LJ           1.58301        0.879924        -3.64421
LJ          -1.23513        -4.63903        -5.31396
LJ          -3.37173        -2.76638        -5.94447
LJ          -5.53305       0.0480085         5.54296
LJ           5.76846         3.83802        -1.40941
LJ          -3.31691        -4.72209        -6.03147
LJ           1.99403        -3.09807        -1.76596
LJ           2.52845        -5.94447        -1.51277
LJ          -3.13959        -4.91501        -2.76182
LJ           -4.3329         -5.8987         5.13899
LJ           1.28669        -6.22014        -6.40498
LJ          0.521846        -5.80104          3.8382
LJ          0.452302         1.33958        -1.70265
LJ          -2.03003        -3.67854         5.22147
LJ         -0.475423        -4.01835        -4.62304
LJ         -0.186463        -2.42131        -5.09898
LJ           2.16862         5.87314         3.02282
LJ           1.62408        -1.85002        -1.18527
LJ           5.52236         -4.1324        0.855902
LJ          -3.29052        -3.69549        -5.04891
LJ           -3.5056        -4.20796          5.1511
LJ           0.46115        -4.96856       -0.592323
LJ          -1.18445        -3.59585         6.12705
LJ          -1.48384        -2.77236        -5.65612
LJ          -3.06366        -6.43266         6.41632
LJ         -0.670105        -5.42067       -0.888554
LJ           -1.9951        -4.79423        -3.26778
LJ          -3.25934        -2.35845         5.40329
LJ          -1.48303        -4.25102         -4.3519
LJ          -2.57345        -2.54514        -5.26478
LJ         -0.169623        -4.15954        -3.12493
LJ          -6.27305        -3.98042         4.88656
LJ          -4.70849         2.50537       -0.891243
LJ         -0.216321        -0.32328        -1.79909
