108
#Comment!
LJ          -2.28334        -5.72138        -4.67576
LJ         0.0589383         5.34782        -5.07685
LJ          -1.87205       -0.968551        -4.01958
LJ          -2.92003         1.09012        -4.97391
LJ           2.41078            4.66        -2.27901
LJ          -1.00605        -1.00471         4.10833
LJ           4.85809         5.10908        -1.71452
LJ          -3.11632         2.55688         5.59072
LJ           -0.9906        -4.39867        -4.41998
LJ         -0.953844        -1.04185         5.57812
LJ          -0.98037        -3.67694        -3.56613
LJ             3.419         5.21671         3.04411
LJ           6.01625         5.70848         3.29194
LJ          -4.98879         3.49683        -6.13034
LJ          -3.45318         4.00415         3.10549
LJ            4.5567        -1.84146        -2.93885
LJ            2.9775        -1.77783         5.22533
LJ           2.23895         6.20767        -5.89662
LJ           5.96971        -2.06878        -2.17475
LJ          -5.62872         1.00715        -3.65081
LJ          -1.93091        -4.06967        -4.61439
LJ           1.37177         5.71953        -4.49582
LJ           2.89501        -5.59846         2.84957
LJ          -2.66271        -4.66375        -3.48106
LJ          -3.16235         1.81979        -2.55686
LJ         -0.645279        -1.90054        -5.46605
LJ          -1.00398        -2.69608        -6.00605
LJ          -1.73068         6.40012        -5.47895
LJ          -2.47611        -2.13484        -4.07736
LJ          -6.30771      -0.0402057        -2.02338
LJ          -0.96638        -1.35998        -3.46592
LJ           3.18928       0.0693857        -1.06337
LJ         -0.140849        -1.16216         6.41857
LJ           6.40703         -3.4264         4.35123
LJ           4.28686        -3.14279        -3.02971
LJ          -5.08399         2.42639        -6.22178
LJ          -1.57914        -2.77944        -3.46944
LJ           2.95222         3.75438          4.7838
LJ            5.0757        -3.07337          -1.061
LJ           4.95341        -2.04491         -1.5846
LJ           5.50293        -3.01162         3.72345
LJ          -5.56165        -5.57206         4.17382
LJ           3.58713         5.05159        -2.20646
LJ           5.92687        -1.86018         3.27181
LJ         -0.135126         -5.2697         -5.2579
LJ            1.9489         4.37437         4.87163
LJ         -0.521913         6.21839        -5.43832
LJ          0.720951         3.72895         3.78999
LJ          -4.99672        -4.94641         5.18375
LJ         -0.362767         6.11566          2.3819
LJ          -5.56227        -2.63115         4.95327
LJ          -2.26692        -3.58571       -0.242735
LJ          -5.65276         2.63654        0.780301
LJ          -4.48266         1.55257        -4.19971
LJ          -1.26657        -5.80949        -6.04603
LJ           5.82914        -1.94703        -0.85287
LJ           1.71246        -6.25961        -5.05596
LJ           3.85595        0.586038        -1.87495
LJ          0.792365         1.31036        -2.98462
LJ          -5.57344        -5.85506         5.18185
LJ         -0.497959          1.5485        -1.23283
LJ          -4.18388        -4.87228         3.12869
LJ          0.449653        -6.37877        -4.81768
LJ          -5.98185         3.28939          1.6083
LJ           5.79735       -0.793714        -1.87102
LJ            1.5152         2.35958        -4.83995
LJ          -2.65199        -1.80904         5.78305
LJ          -1.75992         -1.7531         5.01626
LJ           4.00346        -3.93736       0.0226634
LJ          0.772201        -4.23131         2.09246
LJ           4.80886         6.37818         3.40062
LJ          -5.28227        -3.79479         4.99405
LJ          -2.60641         2.61924        -4.59471
LJ           -4.5777         2.88311         0.86655
LJ           4.93985        -3.80661         3.30162
LJ          -0.49211        -4.71181        -3.55231
LJ           -3.6548         1.88056         6.09461
LJ          -3.61467         2.12405        -4.91811
LJ          -1.36482       -0.496966        -2.94797
LJ           3.89188         4.00876        -1.37998
LJ           -1.8828        -1.50644        -2.86636
LJ          -3.37842        0.967586        -6.32006
LJ           6.10416      -0.0208486       -0.538586
LJ           2.94708          3.4974        -2.19496
LJ           3.33702        -1.34356       -0.409549
LJ           1.78207        -5.44617         2.08165
LJ          -4.41421         3.29362        -1.56116
LJ          -4.79901         2.76166          5.6025
LJ          -2.62467         2.58635        -6.35202
LJ          -3.01668          1.7061        -4.04049
LJ          -1.34587        -1.89371         6.13796
LJ          -3.75184         3.07438        -5.48544
LJ          -1.09814          -3.442        -5.12453
LJ          -4.38348          -5.993         4.96571
LJ         -0.060039         4.29932         4.11088
LJ          -5.69786         3.03912         5.97117
LJ           6.36493        -1.21958        -3.30601
LJ           3.75955         6.33812         3.56695
LJ          0.539916          5.9917        -3.76734
LJ          -1.18769         2.71175         3.96934
LJ          -3.99574          2.4322         -3.6417
LJ          -1.11408       0.0798615         6.19181
LJ          0.908711         4.72094         3.94806
LJ           5.35269         -1.5195        -3.68993
LJ          0.867533       -0.966622         1.18531
LJ           2.73634         5.90339        -4.94967
LJ          -6.08862         -2.1448        0.476285
LJ           3.99144       -0.777716        -1.17045
