108
#Comment!
LJ           -1.7988         5.54039        -4.57052
LJ          -2.77382         -4.1853        -5.25663
LJ          -2.02797        -2.46455        -5.46042
LJ          -2.26955        -1.72724        -3.38818
LJ         -0.614855        -1.97167        -3.24829
LJ          -3.10922       -0.360852        -5.40445
LJ           5.20863         1.92794        -1.90533
LJ          -4.78467        -1.56729        -5.46451
LJ          -4.35957        -2.46001        -5.94633
LJ          -4.73944         1.37625        -4.09337
LJ          0.227862         4.14162         6.37082
LJ           1.32323        -5.11642         1.08237
LJ            4.4869         5.95227         3.32613
LJ          -2.55508       -0.796655        -1.60218
LJ          -1.63966         -3.8716        -5.13294
LJ           5.08387         2.94588        -1.28287
LJ          -1.19689        -0.98797        -1.62829
LJ          -5.54623          2.7156        -6.06851
LJ          -4.54731        -1.94658        -2.71911
LJ          -4.33573        0.506897        -4.81023
LJ           -3.8031        -3.37114         6.41814
LJ          -1.56508         5.18719        -3.54057
LJ        -0.0193971         4.61007         4.92748
LJ           3.34645         -5.6473        0.985386
LJ          -1.02366        0.284324          6.4436
LJ           5.32534         3.70521       -0.468523
LJ          -1.98591        -1.84708        -4.43337
LJ          -1.45286        -5.83462        -3.03347
LJ          -1.21656        -5.17571        -3.82706
LJ          -6.32482       -0.548615        -3.53086
LJ          -5.44845       -0.537223        -5.73903
LJ          -2.45359        -1.65828        -2.40149
LJ          -2.18549       -0.136558        -4.52431
LJ          -2.65871        -3.31476         6.07506
LJ          -2.25917         4.33115         5.87695
LJ          -4.74386         3.21523        -2.89845
LJ          -1.64963       -0.931053         -5.2147
LJ          -0.76934         4.33798         3.62299
LJ           -3.6039        -1.65886        -2.95365
LJ          -4.28585        -1.13217        -2.21414
LJ           3.67518          -4.723         3.00584
LJ          -4.61245        -1.80599         6.15391
LJ          0.727679         3.56844       -0.550461
LJ          -4.67191         5.40657         3.19622
LJ         0.0362623         5.97485        -3.63687
LJ           2.29282          2.1604         3.25654
LJ          -0.48605         4.77036        -5.18318
LJ         -0.765032         3.54235         5.64399
LJ           -3.6581        -1.68055        -5.19669
LJ           2.54557         3.78384          2.3028
LJ           5.45557        0.159103       -0.465968
LJ           6.07173         2.91334         -1.0919
LJ           6.00858         4.73232         1.48291
LJ          -5.15389       -0.363774        -1.90803
LJ          -1.80283        -5.22186        -4.76642
LJ          -4.42214       -0.638224        -3.03864
LJ           1.47113        -6.03835         5.15851
LJ          -4.38671        0.373655        -3.54637
LJ         -0.662596        0.057909        -5.35776
LJ          -3.28471        -3.00034        -5.52728
LJ         -0.631342         4.66294        -6.29185
LJ             6.416        -5.21748        -2.49222
LJ         -0.701125         5.14785        -4.14554
LJ            5.5492         4.15461        0.446828
LJ            6.0392       -0.577108        -4.70981
LJ          0.903234        -4.45469       -0.955951
LJ          0.731009        -2.11398        -3.01768
LJ          -4.64316         2.30333        -1.83039
LJ          -5.99559        -0.41507         5.69143
LJ           3.93366        -4.72891        -2.26265
LJ           5.35124          5.8561         4.19183
LJ          -5.55837        -4.97349        -2.63932
LJ          -2.08977       -0.636717        -2.94715
LJ           5.49104         4.72987       -0.543891
LJ           4.47508        -6.19678         1.99738
LJ          -2.37782        -4.69418        -4.06637
LJ           -5.3223       0.0986726        -3.13864
LJ          -1.00804        -2.45471         2.06001
LJ          -3.90703        -3.95618        -4.53978
LJ           4.74392         3.11455        -2.49973
LJ          0.373554         2.86736        -4.35749
LJ          -3.30276        0.290328         -3.0247
LJ          -3.05794        -5.80841         2.29732
LJ          -1.66852        -6.29427        -4.40523
LJ          -5.65483        0.709442        -4.31644
LJ           2.74452        -4.22583         -1.1818
LJ           4.10334        -5.03902         1.51721
LJ          -3.13988        -2.26833        -4.47464
LJ          -3.11858       -0.689338        -2.52937
LJ          -2.99848       -0.762485        -3.79785
LJ          -2.60946        -3.33982         -4.2409
LJ          -3.58773       -0.313868          -4.437
LJ          -4.07085        -2.97282         -3.2287
LJ          -5.85452        -1.68874         5.90373
LJ          -1.42746         4.46372         -4.2766
LJ           1.34256         1.86872      -0.0230924
LJ          -4.07923        -1.99293        -3.85814
LJ          -6.34182        -4.22057         3.22209
LJ        -0.0855801         5.91676         4.47615
LJ         -0.289552         6.04856        -4.72013
LJ          -2.72976        -1.41316        -5.00615
LJ          -2.35736        -2.75252        -3.27048
LJ          -1.32517         4.56005         5.44987
LJ          -2.18103        0.133022        0.219742
LJ           1.91616        0.981892         4.96027
LJ          -1.56353         5.23243        -5.57064
LJ          -5.35718         -1.2229        -2.58397
LJ           -3.5129        -2.60537         1.99616
