108
#Comment!
LJ          -1.44874         6.43664        -5.59464
LJ        -0.0304457        -6.02198        -3.97758
LJ          -1.87321       -0.717446        -5.34934
LJ          -2.22131         1.35272        -4.22938
LJ           1.28461         5.80178         -3.3516
LJ          -2.59057       -0.870931         5.53899
LJ            4.1598         4.30358        -2.06408
LJ          -2.69752        0.129651         5.99857
LJ          -1.95783        -3.06992        -5.60795
LJ           -2.3486          -1.518         6.28865
LJ            -1.046       -0.914887        -3.43427
LJ           2.93696        -6.13345         2.44557
LJ          -6.05317        -5.90344         3.62714
LJ          -4.31128         2.83962        -2.14716
LJ          -2.35779         -5.3068        -1.58074
LJ          -5.22162       -0.246301        0.447567
LJ           1.64146        -1.28287        -5.67893
LJ           4.51974         6.40059        -6.13297
LJ           6.36006        -3.46977        -1.68206
LJ          -3.92951         1.98771        -4.86189
LJ          -1.78168        -2.76338        -2.27779
LJ          0.422448         5.32923        -5.47966
LJ            1.5187         5.94911         4.48684
LJ            1.5839         5.28946         6.09421
LJ           4.50935         1.80605       -0.503357
LJ           4.58668        0.800923         3.31255
LJ          -2.44572        -3.11955        -4.13004
LJ          -2.31422        -5.23714        -4.18815
LJ           -3.1227        -5.86593        -3.81971
LJ          -5.59116         -1.3613        -1.99498
LJ          -2.68612        -1.25468        -4.51672
LJ           5.70079        -2.53863         -2.9789
LJ          -2.75479        -2.54369        -6.42987
LJ          -5.95853        -4.83681         5.06514
LJ           1.14629          1.0767         5.89818
LJ          -2.83374         2.17524        -4.56854
LJ          -1.35366        -2.69456        -3.26381
LJ         0.0475837         4.18473         4.07137
LJ          -6.34162         -2.3625        -1.19518
LJ           5.86181        -1.49036          -1.988
LJ           4.83039        -6.32695         3.74153
LJ          -5.81161        -3.99151        -6.33918
LJ           2.53058          5.8951        -3.22157
LJ          -5.43221        -4.05206         2.87556
LJ         -0.191203         5.76872        -4.26502
LJ            1.0261          3.7856         3.76917
LJ         -0.452768        -6.46293        -5.07145
LJ          0.591455         3.45971         5.55652
LJ          -4.37112        -4.07379         6.38039
LJ           2.30617         5.66384         2.64368
LJ           6.38009        -1.34003         3.02011
LJ          -6.36922       -0.193397       0.0595465
LJ           6.27117         3.80896        0.436579
LJ          -4.37762         3.53813        -3.47245
LJ          -0.87015        -5.16436        -4.96128
LJ          -6.19203       -0.579033        -3.56665
LJ           1.22688         6.33239        -5.70437
LJ           5.41921        -1.00485        -2.79469
LJ           4.24359       -0.155436        -6.26466
LJ          -4.62071        -5.00715        -6.10013
LJ         -0.422781         1.89491        -2.77849
LJ          -6.11018         6.39537         6.15939
LJ         -0.317761         4.86445        -4.78088
LJ          -5.75508         3.58398         1.83859
LJ           6.27469       -0.397422        -1.98252
LJ           1.67285       -0.863372        -3.39011
LJ          -1.22104        -2.60615         5.85119
LJ           -1.9388       -0.371493         -6.3797
LJ            3.7997        -3.59549        -3.64534
LJ           2.52288        -4.68858       -0.513272
LJ           3.70088        -6.34617         1.76362
LJ          -6.17928        -5.73284        -5.91656
LJ          -4.51491         2.48061        -3.28394
LJ          -5.55278         3.46674        0.726432
LJ           4.58557        -5.36766         2.96227
LJ          -1.30374        -2.11432        -6.02522
LJ          -4.27488       -0.700796         -3.8292
LJ          -1.08044         1.18884        -6.01743
LJ         -0.931505        -1.53933        -5.10665
LJ            4.3667         3.34442        -2.48691
LJ          -1.07731      -0.0755019        -5.79699
LJ          -3.74305          2.9171        -4.11045
LJ            2.3304        -3.26221        -5.34564
LJ          0.803513         4.58857        -3.88862
LJ           3.29864       -0.161562        -1.31861
LJ           1.53912        -4.32283        0.805367
LJ           5.84039         6.04592         1.18239
LJ          -3.73556       -0.165191        -4.63867
LJ          -3.04905       -0.930984        -6.01783
LJ          -3.22139         1.00796        -4.83931
LJ          -3.05007        -2.65082         -5.1023
LJ          -3.50081      -0.0144726        -5.73835
LJ          -2.17464        -1.70409        -5.62165
LJ          -3.77639        -3.01303        -6.08645
LJ          0.144262         5.80005         5.95269
LJ          -2.85669         2.83387         4.56549
LJ          -4.95765        -1.14781       -0.735083
LJ           4.05622         6.33652         2.71194
LJ          0.718855         5.43637        -4.49134
LJ         -0.172883         4.26414        -5.88613
LJ          -2.41504         0.45319        -5.72777
LJ            1.3527        0.244794        -3.00324
LJ          0.108244         4.56598         6.01905
LJ           5.35106        0.331944        -1.40455
LJ           1.76342       -0.174668         2.54578
LJ          -0.99632          5.4395        -5.43615
LJ           6.34629      -0.0264662        -1.02797
LJ           5.36486        -3.28905         -2.2092
