108
#Comment!
LJ          -1.12945        -6.24259        -5.77511
LJ         -0.199569        -6.26043         -3.8893
LJ          -2.20298       -0.701594         -5.0044
LJ          -2.12495         0.62094        -4.70966
LJ           1.64701         5.30977        -3.16661
LJ          -2.59196       -0.774461         5.55476
LJ           4.21039         4.48542        -2.09057
LJ           -2.5781        0.059149         6.13178
LJ          -1.83322        -2.79979         -5.2983
LJ          -2.14479        -1.69503         5.81782
LJ          -1.09424         -1.2994         -3.6224
LJ            2.9596        -6.38493         2.40431
LJ          -6.07846        -5.85692         3.60425
LJ          -4.35944         3.37166        -2.46601
LJ          -2.46429        -5.67432        -1.09089
LJ          -5.09829       -0.690032       0.0269038
LJ           1.82639        -1.51731        -6.01686
LJ           3.95015        -6.38521        -6.15019
LJ           6.19943        -2.77895          -2.178
LJ          -4.12092         1.61417        -4.81978
LJ          -2.11123         -2.8088        -2.35019
LJ           0.54651         5.48155        -5.37056
LJ           1.69887         6.11363         4.40809
LJ          0.684309         4.92988        -6.28467
LJ           5.15707         1.83371        -1.06716
LJ           3.98926         0.77315         3.93761
LJ          -2.37872         -3.3562        -4.33072
LJ          -1.91578        -5.34297        -4.34448
LJ           -3.0805        -5.61778        -3.76318
LJ           -5.9484        -1.18763        -1.96228
LJ          -2.69563        -1.62342        -4.33742
LJ           5.45391        -2.26335        -2.63621
LJ          -2.75474        -2.14849        -6.12609
LJ          -6.24182        -4.83954         4.59691
LJ           1.25821        0.471158         6.15559
LJ          -3.14658         1.93071        -4.36024
LJ          -1.25618        -2.53465        -3.46232
LJ          0.189076         4.12762         3.96719
LJ          -6.11347        -2.20675        -1.17703
LJ           6.08292        -1.73905        -1.81722
LJ           4.78396        -6.13551         3.67382
LJ          -5.56198        -4.05353         6.34639
LJ           2.60363         5.86531        -3.00474
LJ           -5.5007        -3.76404         2.83218
LJ         -0.644224         5.73241        -4.56416
LJ           1.12711         3.48684         3.88574
LJ         -0.254226        -6.18691        -5.02437
LJ          0.595479         3.82216          5.0676
LJ           -4.4149        -3.94048         6.18166
LJ           1.92092         5.51286         3.08705
LJ          -6.46324        -1.38132         3.23414
LJ          -6.16105       -0.537777        0.407744
LJ           6.40392         3.61488        0.573139
LJ          -4.61271         3.58706        -3.50866
LJ          -1.04137        -5.30889        -5.00007
LJ          -6.31909       -0.779693        -3.10054
LJ          0.864821         6.30261        -6.11616
LJ           5.39041        -1.18756         -2.9904
LJ           3.65455       -0.055536        -6.02672
LJ           -4.7129        -5.05272        -6.28646
LJ         -0.436162         1.88452        -2.57962
LJ          -6.04705        -6.37814         5.83633
LJ       -0.00254929         4.77106        -4.83232
LJ          -5.81147         3.54464         1.75441
LJ           6.03635       -0.625686        -2.02483
LJ           1.76786       -0.376351        -3.85984
LJ          -1.33305        -2.28091         5.19402
LJ           -1.7843        -1.04934        -6.16281
LJ           3.65294        -3.82775        -3.30266
LJ           2.48367        -4.91192       -0.148157
LJ           4.08931        -6.36429         1.42968
LJ          -6.08114        -5.94846        -5.90112
LJ          -4.23469         2.54709        -3.14239
LJ           -5.4368         3.38681        0.760219
LJ           4.64187        -5.13543         3.13533
LJ           -1.3243        -1.88156        -5.88776
LJ          -4.29208        -0.71312        -4.59306
LJ          -1.57422         1.88842          -5.581
LJ          -1.20245        -1.23267        -4.91084
LJ           4.23278         3.31809        -2.38501
LJ          -1.05047        0.130242         -5.1627
LJ          -3.97653         2.89635        -4.35481
LJ           2.78159         -2.8797        -4.86462
LJ           1.30789         4.38787        -3.43522
LJ           3.16654       -0.272146        -1.09029
LJ           1.38432         -4.1309        0.805549
LJ           6.12937         5.86092        0.844169
LJ          -2.99988         0.13428        -4.85145
LJ          -2.74863       -0.587895        -5.96516
LJ          -3.02391          1.1684        -5.35471
LJ          -2.99518        -2.81429        -5.18587
LJ          -3.34055        0.324213        -6.01987
LJ          -2.08939        -1.79002        -5.18957
LJ          -3.76415         -3.4896        -6.00556
LJ          0.308334         5.92705         6.05397
LJ          -3.26705         2.93166         4.86261
LJ          -4.99267        -1.47853       -0.967877
LJ            3.9141        -6.41107         3.09098
LJ          0.849591         5.56383        -4.06199
LJ         -0.128665         4.02651        -6.25755
LJ          -2.14101        0.533975        -5.80558
LJ           1.40196        0.339588        -2.96871
LJ        -0.0160005         4.83993         5.80565
LJ           5.20479        0.659797        -1.47387
LJ           1.66313       -0.255134         2.41118
LJ         -0.392281         5.83396        -5.59896
LJ            6.4284       -0.079613       -0.861128
LJ           5.02427        -3.16087        -2.31095
