108
#Comment!
LJ          -1.93498         -6.4563        -5.65428
LJ           -3.0368        -3.80491        -6.06347
LJ          -2.42466        -2.67258        -4.37484
LJ          -2.47142         -2.6976        -3.11578
LJ         0.0500986        -2.44647        -3.07646
LJ          -4.28667        -1.58968        -5.46884
LJ           3.50362         3.15434        -1.30825
LJ          -5.09955        -2.37201        -5.59285
LJ          -2.51731        -3.63293         4.75809
LJ          -4.40122      -0.0308522        -2.93155
LJ         -0.401246         5.48235         6.17987
LJ           1.33485        -5.63752       -0.891738
LJ           4.62047         6.07289         1.51103
LJ           -2.2383        -1.07503        -2.95439
LJ          -2.18212        -3.76038        -4.49333
LJ           5.58855         2.07532        -2.01771
LJ          -1.77306        -1.88951        -2.41636
LJ          -4.54498        0.520447        -5.43426
LJ          -4.24561        -1.09022        -3.15877
LJ           1.22526        0.955955        -3.46437
LJ          -3.92399        -3.46347        -4.32003
LJ         -0.865089         4.55775         -3.0881
LJ          -1.85891         4.28928          2.9999
LJ           4.04109         -6.0768        0.379236
LJ          -3.54547         1.16004        -5.74529
LJ           4.73341         2.62373        -1.21135
LJ          -1.64949        -2.55445        -5.11034
LJ         -0.292281         6.06838        -4.29196
LJ         -0.945764         6.09818        -3.36783
LJ          -5.34627         -1.0251        -3.52116
LJ          -4.44677        -1.61433         6.45799
LJ          -4.28283        -3.57589        -2.23323
LJ          -1.03067        -1.27842        -3.07073
LJ          -1.67766        -2.44558        -6.28204
LJ          -2.79552         4.90163         -5.8548
LJ          -6.20295         3.48275        0.369434
LJ          -2.08569        -1.67421        -3.92131
LJ          -1.51609         4.84749         4.54399
LJ           -3.1213        -1.40681        -3.55527
LJ           -2.6768        0.865715        -1.55034
LJ           5.47274        -5.23933         1.73504
LJ          -5.65529          -1.408         -5.5707
LJ           1.22063        0.650192       -0.088769
LJ          -4.54052         3.87542         3.28576
LJ          0.400768         4.65798        -6.36609
LJ           4.12572         1.42003          1.9418
LJ          -1.14513        -5.57665        -5.81377
LJ         -0.423718         5.30345         3.94329
LJ          -4.39599       -0.439353        -5.19719
LJ           2.52819          1.3404         3.08219
LJ            4.8594         1.39141        -1.73841
LJ           4.61445         3.50984        -2.50292
LJ            5.0135         4.35932        0.354252
LJ          -4.52009        -1.06658        -1.86451
LJ          -3.19575        -3.49661        -5.03581
LJ          -4.99657        -1.55057        -4.51537
LJ          0.921611        -5.14567         4.31149
LJ          -3.48814       -0.313224          -4.058
LJ          -1.99664          1.8033        -1.12602
LJ          -3.54528         -2.7776         5.23955
LJ         -0.197013        -6.03805        -6.44801
LJ           3.30545        -5.49758       -0.206072
LJ          -1.18771         6.23479        -5.03787
LJ           5.11704         5.19645         1.29699
LJ           5.64685        -1.32832         6.38897
LJ          0.921587        -5.07366      -0.0680751
LJ          -2.07006         2.95646        -1.11157
LJ           5.79184         3.10923         2.28145
LJ          -2.90224        -1.02302        -4.61519
LJ           4.06169        -3.47243        -3.57424
LJ           2.95228        -6.30943         2.39443
LJ          -5.09721        -4.78294         1.50445
LJ          0.205834        0.137028        -4.15672
LJ           4.77739        -5.76472       -0.867605
LJ            4.2774        -5.85681         1.81217
LJ          -4.04095        -2.61776        -5.20626
LJ          -4.51502       -0.563245        -4.10009
LJ          -1.24205        -4.27005        -0.21139
LJ          -3.72011        -4.59168         6.40896
LJ            5.4732         3.06747        -3.12385
LJ          -3.33717        0.616152        -3.26075
LJ          -1.62023       -0.654838        -2.18077
LJ          -5.67533         6.45177       -0.671287
LJ          -2.19199         6.26966         6.15767
LJ          -3.80446         1.93056        -4.64243
LJ           1.83713        -6.40456         0.11683
LJ           4.79703        -5.23192        0.800942
LJ          -1.77994        -3.61859          6.3788
LJ          -3.19866       -0.436791        -2.92095
LJ          -2.39289       -0.547166        -3.80978
LJ         -0.805829        -1.58276        -1.98845
LJ          0.380853        -1.44111        -4.18577
LJ          -3.72412        -3.14706        -3.29666
LJ           5.64783       -0.936673         -5.5715
LJ           -1.4292         5.26707        -4.25342
LJ          0.587132         3.77073        -2.42329
LJ          -3.51403        -2.39084        -3.98337
LJ          -4.63237        -3.29793         5.71295
LJ          -1.41194         5.23406        -6.40239
LJ          -1.67175         -5.7457        -4.83453
LJ          -2.97339         -2.0373        -4.99433
LJ          -3.53804        -4.66587        -3.81884
LJ          -1.05456         5.27022        -5.43574
LJ           1.36971        0.403084          3.9564
LJ           2.25084         1.32632        -5.38402
LJ         -0.979741         6.27942        -6.22672
LJ          -6.10084        -2.35539        -5.18181
LJ          -2.07157        -1.26234         3.87263
