108
#Comment!
LJ  0.41870974430353802   0.18379771186294047   0.28862103104964892
LJ  -0.075040918871004961   0.45448579200286116   0.09881487896046029
LJ  -0.40373822205562399   0.16827959275848123   0.14236835127033473
LJ  0.39850554496925517   0.1175117410874215   0.016176186689842945
LJ  0.43463063277109548   0.071457876011189997   -0.33736203083613381
LJ  0.40975805512693858   0.37776542447918837   -0.20068674018580374
LJ  0.47208718406437117   0.056709678073746557   0.47027534630744211
LJ  -0.30438089613937458   0.2011846706940843   -0.052451032662826115
LJ  -0.13474080301361394   -0.18759684348401254   0.041409463003492165
LJ  0.12709973227973759   -0.098040066586618707   -0.45189141844839831
LJ  -0.41632865984555861   0.24255792032481052   -0.25145299713805325
LJ  -0.034136784846015789   0.41572095935629372   -0.33475651701042736
LJ  -0.022419181797219485   -0.16047942771807311   -0.13338685198700817
LJ  -0.30653555294892215   0.1534347499435072   -0.45832046794098424
LJ  -0.25531471269228667   0.084494714326455223   -0.23498975084787571
LJ  -0.061631302733896179   -0.20548319143305693   -0.35865489498782488
LJ  -0.1430809832139083   0.001668844842730546   -0.42482979003579785
LJ  -0.19089586888630664   -0.2157998429879143   0.45220687370836743
LJ  0.15541089225490384   0.34532032970357113   -0.25042945309691783
LJ  -0.057977660027343524   0.28480555407652258   -0.12578675633919564
LJ  -0.091436582975243499   0.045834335339396202   -0.097073297817392323
LJ  0.27373718182842505   -0.46888448837850516   0.41746824410204247
LJ  -0.029477629510602506   -0.077706855528711538   0.43283856634634943
LJ  -0.065775947508186342   0.1699608740584965   -0.30636826755670077
LJ  -0.19978773662102492   0.2577294680250411   0.24763587095985162
LJ  0.14881922020662861   0.49894124454011485   -0.40165841961042154
LJ  -0.44500182210610095   0.43153808990812159   -0.3845364448775106
LJ  -0.37218676611746415   -0.28318477101829703   -0.46001725545476058
LJ  0.19476146627327559   0.13621871463422283   0.034005344063979169
LJ  0.24266905489102231   0.34992111901914641   -0.072387548476357783
LJ  -0.1537080602233758   0.47362658121378443   -0.14394745049746435
LJ  0.25192867063581137   -0.1954989451787037   0.38916706374723281
LJ  0.27385203161970373   0.0034886435087483265   0.43702411564134591
LJ  0.25809377059106614   -0.021756042473718071   -0.30210982457759289
LJ  -0.35628931082940501   -0.4076701858464391   -0.30282936298605045
LJ  -0.02052682135335706   -0.3526071180228843   -0.25702236993715294
LJ  0.084096611130315829   0.29840944124862118   0.042562305564913666
LJ  -0.28270171607121453   -0.34829948088905577   -0.036898241645729656
LJ  -0.19811082090203433   -0.35886876367476173   0.13864629817437821
LJ  0.10354861041128173   0.133654773153181   -0.15728322616070212
LJ  -0.35331405855800624   -0.31173057537538357   0.27481867831410833
LJ  0.27126448715483531   0.21254573136554775   0.44533397704274791
LJ  0.19869320453265082   0.14746146389272538   -0.3800900367791874
LJ  -0.20057602836935218   -0.24948698187170704   -0.20171362956571851
LJ  -0.4849064660589133   -0.047765645984948722   0.097251339997510525
LJ  0.2068865346510155   -0.034222100238838975   -0.095208984202933125
LJ  -0.46740367266210991   0.33335247527156781   -0.02930665085470336
LJ  -0.24001342261568503   0.018341167899290352   0.17817165420894812
LJ  0.12104984203763849   -0.06036607405204656   0.29289426111661349
LJ  -0.0025538611745252226   0.33572666338644841   0.26302402230852068
LJ  -0.46174676784496244   -0.43072315636852904   0.097511466156934887
LJ  0.24376740867069624   0.34791048923812967   0.29342848434002899
LJ  -0.4034126768784938   0.23885263543838819   0.39474043078681154
LJ  -0.35392097322677185   -0.099929124624853774   0.30310781821430954
LJ  0.034771048844998147   -0.0080977672876626737   -0.29178125842313102
LJ  0.44171486329184162   -0.14089810620791962   -0.12528302340461936
LJ  0.13716130962335599   -0.19704467695879663   -0.26647612548037714
LJ  0.42633940030222151   0.37808278119733918   0.40461882291186418
LJ  0.17358342452947145   0.45740068159834996   0.13265436334852199
LJ  0.038668498899221901   0.46914798372108313   -0.1352118730410839
LJ  -0.16310817357811996   -0.40523064833810535   -0.38809161453301627
LJ  -0.22040761385240762   0.34531359524642502   -0.34791683083220176
LJ  0.43910633085417317   -0.3956827438671095   -0.34056408377559971
LJ  -0.044066276435872222   -0.36699341425934018   -0.054287432688022233
LJ  0.048867780953436413   -0.25198545424102403   0.3240594711903419
LJ  -0.36033624758903948   0.44649227648867851   -0.17021803575826625
LJ  0.0090937711725685849   -0.34647589096327419   0.14770025289691724
LJ  -0.24216030796885632   0.46249885279740888   0.26191953643719024
LJ  0.44171383377618112   -0.23463295959648187   0.23261602780450086
LJ  0.071019639715444546   -0.17603559471567076   0.051024789049137563
LJ  -0.29104679274475798   -0.10876614213413201   -0.094664039487203464
LJ  0.3515877023989939   -0.47131728619671542   0.021826435374096655
LJ  -0.099720911644131646   0.46385103436635539   0.46816481898654722
LJ  -0.12357884328160711   -0.3742761284632441   0.32612150008055085
LJ  -0.01799102993961408   0.11700315243957368   0.30653854165731487
LJ  -0.1244181821450128   -0.17509143593869606   0.24222661073337559
LJ  0.363471414842576   0.29760646664074586   0.1041431164312364
LJ  0.4682771369815607   -0.3771883667596343   0.45054886176715131
LJ  0.45463237703193921   0.24978651852377678   -0.41420657269558836
LJ  0.24987034059164798   -0.4586154010778854   -0.17228326253528811
LJ  -0.33370714788525047   -0.1994426988666155   0.083497784632358296
LJ  -0.15907718708402158   0.25847021387271057   0.44922950861225952
LJ  -0.35709353674032968   -0.49997304761626987   0.43671246528696611
LJ  0.28725146975808225   -0.06164017132796408   0.097384356623370943
LJ  0.47246567795087163   -0.36356071824534641   -0.099491362414452209
LJ  0.31019323250759007   0.14525606611253336   -0.16330264780722514
LJ  0.32018548969740929   -0.25985240480809457   0.01241667576113307
LJ  0.39314260332297041   -0.037372006344019042   0.27650195799538624
LJ  0.3185968999710595   -0.28600824607065184   -0.20707581489747587
LJ  -0.44835310652671762   0.052159382292749572   -0.14842751672520352
LJ  0.35324387610362301   -0.47323821945368988   0.21657392614247639
LJ  0.24463677261402744   -0.2866529799664303   0.20562910423614561
LJ  0.0164537809202044   -0.34082350531512662   0.49319745443202434
LJ  0.43482453980614316   -0.17510099922798339   -0.38161646343424099
LJ  -0.46487536366729731   0.37858678231682874   0.17975618664910095
LJ  0.023403290959977611   0.025612041105791305   0.065132939905266127
LJ  0.23718764410101822   0.10895382415455766   0.2594609936001574
LJ  -0.4049666603846323   -0.19513509622160405   -0.25820576660202682
LJ  0.32906616931272292   0.42264879943289324   -0.40503624355049367
LJ  0.1014454826687152   0.35565586385579689   0.47527510947402518
LJ  -0.48816033030681755   -0.17329362182808655   0.43126224796319396
LJ  0.070665672626649814   -0.48014850267492964   0.32593445083764339
LJ  -0.19870046336398298   0.066507045885536728   0.37518024831757368
LJ  -0.34181588096444387   -0.067796193425252393   -0.4654578422159017
LJ  0.038593459669031625   0.12732312996934811   -0.49510158024743561
LJ  -0.28196358473076616   0.40785329119171804   0.07538283402702263
LJ  0.22107750077855529   -0.31026216052015276   -0.46021842277811498
LJ  0.14293798689602336   -0.31418695086893761   -0.093825959940052925
