108
#Comment!
LJ  0.4186596699099755   0.18397795981847426   0.28876588421116178
LJ  -0.075102668705200853   0.45434298760855585   0.098771988340665987
LJ  -0.40361078647951204   0.16822175674941783   0.14222913741024387
LJ  0.39844353371230845   0.11746114232794597   0.016184252187478192
LJ  0.43469469760328106   0.071416908229259113   -0.33734678377427718
LJ  0.40997575578900486   0.37795038623173566   -0.2007534117058935
LJ  0.47235513799404522   0.056681602200970294   0.47018696137997229
LJ  -0.30444295877947342   0.20136939769680282   -0.052672741786686988
LJ  -0.13469406849653914   -0.18768136900973845   0.041496203064921862
LJ  0.12691872084042205   -0.097884826594615698   -0.45162914264197834
LJ  -0.41631561331126538   0.24229791768083361   -0.25163265296922649
LJ  -0.033908135059206861   0.41559275483486141   -0.33477185238338375
LJ  -0.022470665963099146   -0.16057197605432133   -0.13343494470660902
LJ  -0.30664804621557884   0.15331190640183806   -0.45832950404479006
LJ  -0.25548063244301261   0.084181846012095482   -0.23499871474490699
LJ  -0.061819751818393949   -0.20535024051247019   -0.35871333917770604
LJ  -0.14311577665982061   0.001623146421232288   -0.42503667916386445
LJ  -0.19094541007010618   -0.21579234155464377   0.45212081529441689
LJ  0.15527835077870317   0.3453215363929828   -0.25044329941499527
LJ  -0.058114072993606242   0.28489320559372849   -0.12589841353926767
LJ  -0.091294887711272976   0.045520798242126397   -0.097239479296339221
LJ  0.27361659302653962   -0.46891148544520855   0.41745135438123671
LJ  -0.029461037774038499   -0.077782196235229473   0.4327726395390265
LJ  -0.06605496067816935   0.16971665447630946   -0.30616429701239989
LJ  -0.1997288770364134   0.25761052703334958   0.24779001093267172
LJ  0.14878649854336803   0.49894578301397019   -0.40171111949852206
LJ  -0.44501068213504924   0.43150953149252447   -0.38471693065199547
LJ  -0.37214199187218716   -0.28371389827012744   -0.46002013704533523
LJ  0.19444845764196098   0.13601072295552577   0.034210727116389388
LJ  0.24267961017060249   0.35013304199016032   -0.072231068463812179
LJ  -0.15369075110628322   0.47373668655722723   -0.1439960732251907
LJ  0.25208563664089634   -0.19542667363054772   0.38903782588486296
LJ  0.27401132033828018   0.0035361868899116992   0.43704379990507192
LJ  0.25784660956114663   -0.021856575623160505   -0.30208224683337603
LJ  -0.35597802333253853   -0.40783965218244689   -0.30278249505343641
LJ  -0.020632573536312905   -0.35271153825200241   -0.25698601879971422
LJ  0.084237598391071727   0.29846207160606097   0.042601070314168404
LJ  -0.28267539773772249   -0.34825269649554358   -0.036751895220780997
LJ  -0.19784801707660776   -0.35877565290056046   0.13867895169297353
LJ  0.10357261035127602   0.13359284465436153   -0.15722960692797933
LJ  -0.35356419396775246   -0.31176057806866503   0.27451586251734866
LJ  0.27107699333515822   0.21221525764826915   0.44522450125514401
LJ  0.19870882198360637   0.14747589853179247   -0.38006637968736134
LJ  -0.20052974567665763   -0.24943505887884851   -0.20167539070506768
LJ  -0.48479827663846264   -0.04760258603789181   0.09723660585538331
LJ  0.20709219493830616   -0.034240950324122825   -0.095135822159270855
LJ  -0.46774466530765962   0.33323369168845168   -0.029210104101979658
LJ  -0.24030183654175519   0.018464302748748485   0.17836766223628098
LJ  0.12084517525738064   -0.060314324785871225   0.29298887701607057
LJ  -0.002444648035750222   0.33569988786373639   0.26320414272625475
LJ  -0.4616796251153667   -0.43074454938180445   0.09741751253702087
LJ  0.24359214458754638   0.34788699899922298   0.2931443561332237
LJ  -0.40339771134679331   0.23887662392351097   0.39454341174634644
LJ  -0.354114129291215   -0.099941880455762078   0.30315016274097467
LJ  0.03472963071384437   -0.0082038627072522682   -0.2915869259861722
LJ  0.44183427516389728   -0.14096747025960213   -0.1249943691188424
LJ  0.13727859588308641   -0.19718459261684648   -0.2665236642761864
LJ  0.42638901934379519   0.37810968940220574   0.40477037311994035
LJ  0.17361388520199686   0.45747183878641784   0.13292651243133849
LJ  0.038683864949568277   0.46925243592188726   -0.13523354070485658
LJ  -0.16313165274198438   -0.40509578384199163   -0.38812555068567012
LJ  -0.22024689458236663   0.3454269203783023   -0.34815806003425409
LJ  0.43931424365617389   -0.39576866026592022   -0.34047404443769597
LJ  -0.043927773347782167   -0.36685871026818573   -0.054453483806507955
LJ  0.048703308308801659   -0.25179307315950911   0.32396442487838006
LJ  -0.36044066810587871   0.44673398320955432   -0.17012308784824373
LJ  0.0094497847103716948   -0.34643730020257624   0.14763739132324999
LJ  -0.2423102077527727   0.46257371233049044   0.26170158044879915
LJ  0.44181801036661633   -0.2343712433590332   0.23282145303269822
LJ  0.07099258376244566   -0.17587121789419785   0.051017898900207151
LJ  -0.29101236309860701   -0.10856175503227859   -0.094696262710896262
LJ  0.35150950934590897   -0.47131608410948683   0.021910950803472284
LJ  -0.099575773492296279   0.46399615398141369   0.46818896464408283
LJ  -0.12360138936472118   -0.37423052236007304   0.32593134743912272
LJ  -0.018002950702974561   0.11720528867494293   0.30630185514813496
LJ  -0.12447439307708878   -0.17511879685349369   0.24248553873256723
LJ  0.36352899251197579   0.29770832651162787   0.10412434041423427
LJ  0.46804372769629327   -0.37726850839615389   0.45050075350035462
LJ  0.45460539314813936   0.24990567325039484   -0.41416791137371656
LJ  0.24993310292296   -0.45860180655231031   -0.17205287223341251
LJ  -0.33363470286268754   -0.19927555519665305   0.083652775229029752
LJ  -0.15918609389148847   0.25852030410508287   0.44918144386988501
LJ  -0.35726422854822548   0.49982833926936421   0.43684903020181987
LJ  0.28735688746171767   -0.061467160504494793   0.097180293520457053
LJ  0.47252118504212126   -0.3634601382388723   -0.099411112028163703
LJ  0.31012158188173244   0.14495832354970695   -0.16330409190172807
LJ  0.32032640436038806   -0.25992328374053947   0.012371175427979997
LJ  0.39323971013680842   -0.03742795956634417   0.27642796178725948
LJ  0.3187210649727355   -0.28583837209434276   -0.20694168612082708
LJ  -0.44836820295584384   0.052187726030916912   -0.14850770925921467
LJ  0.35316167948682736   -0.47329230485315421   0.21687568195570683
LJ  0.24455612116144085   -0.28662302277212071   0.20569326608966451
LJ  0.016561802410769023   -0.34077363337795635   0.49314667874974816
LJ  0.43478389404693812   -0.17502332185470265   -0.38141458947604606
LJ  -0.46494771508785299   0.37834857696601731   0.17994518677294918
LJ  0.023550068634454392   0.025683250444721029   0.065050385677848321
LJ  0.23740772113033204   0.10883746471084789   0.25925908600285624
LJ  -0.40507931335851644   -0.19499037221184495   -0.25826167487237028
LJ  0.32898649846525485   0.42249019980621605   -0.40521463586454604
LJ  0.1016878893857531   0.35573417337695196   0.47537643356298553
LJ  -0.48817554442221567   -0.17319459984772165   0.43127208382925464
LJ  0.070619110759347722   -0.47998899127776534   0.32615994090011341
LJ  -0.19862711232802283   0.066547513022352317   0.37506397964663601
LJ  -0.34189055316818345   -0.067952321115756165   -0.46547055356910205
LJ  0.038567348156209054   0.12703057859578229   -0.49535066603349326
LJ  -0.2820221655837738   0.40777353609414557   0.075459097950303283
LJ  0.22106517993464828   -0.31008627895775431   -0.46021831583605993
LJ  0.14309208524476566   -0.31403818638166864   -0.094037270039963664
