108
#Comment!
LJ  0.3834775165520603   0.25934800816442383   0.43012289883709554
LJ  -0.32207237107585507   0.47087044530012562   -0.12747254142363043
LJ  0.44236707553614057   -0.059313534034512845   -0.21379901903702594
LJ  -0.015265701708088874   0.42894162899696558   -0.4211749053876675
LJ  0.070689730428317943   -0.46749728298100046   -0.24938438666307686
LJ  0.038431569866450188   -0.31011577158288745   0.28742983112560549
LJ  -0.087267103519598002   -0.3206799714183951   -0.36946908716966803
LJ  -0.010046050936691617   0.28766462684336924   -0.27745122722498511
LJ  -0.10838995330395818   -0.34459372925810927   0.4049027633757501
LJ  0.49838605309103434   -0.36099288697716064   -0.26185300524828137
LJ  0.37721371431205858   -0.19954180697602095   -0.36294175997822303
LJ  0.46856170707893502   0.42520298991891076   -0.18481989403048932
LJ  -0.35620352419000229   -0.10063873645972427   0.47310024854384575
LJ  -0.077281492856575762   0.10487954129436024   0.23461676309328677
LJ  0.4879132739634604   -0.0081978571855177134   -0.41603510964535551
LJ  -0.069493364349884346   0.0056458235477617616   -0.34616863216197019
LJ  -0.16211844652065688   -0.15009446246590186   -0.45604396771185896
LJ  0.08951267899385433   -0.0083625999036088319   0.044063067838414606
LJ  -0.28207943766113575   0.12991108359760159   0.45856971486653153
LJ  0.051297323808731955   -0.15648431005258337   -0.3354727327128737
LJ  0.237627152386335   -0.046268959961324456   -0.30685176032146511
LJ  0.24117060125049436   0.39575094538634698   0.45484533346625305
LJ  0.19843222810458735   0.086264121047476827   -0.10774918687489442
LJ  -0.43848246602837293   -0.1937612955450374   -0.35142407475998794
LJ  -0.4060810450132542   0.20190435519968583   -0.4063779612059496
LJ  -0.44033251441560339   -0.48432884645330465   0.41393449501159868
LJ  -0.37199010701723362   -0.49413580483106434   -0.39245100156567331
LJ  -0.28138513650780161   0.3456765299594724   -0.46983144924660269
LJ  -0.063427660587923415   0.35025111545118365   0.39094501097215217
LJ  0.10848774956481866   0.22686702463958267   -0.47564147710742855
LJ  0.060669246342726746   -0.48019018834385413   0.40461494786164598
LJ  0.043520896892003745   -0.18138713487366856   0.47521176005611676
LJ  0.082715006972973293   0.017621440910546102   -0.4735322721117875
LJ  0.1178226316484374   -0.34270744920019913   -0.42094461558923768
LJ  0.10472170397252856   0.10098696856052672   -0.29856588838494647
LJ  0.40448130359187567   0.19459284087861692   -0.37584051507596888
LJ  0.34605488538658202   0.49641006486557115   0.11037432956212351
LJ  -0.29518869107730306   -0.084945225633993732   -0.2110616437212138
LJ  0.35905429204185252   -0.27828244896555054   -0.10128202908781779
LJ  -0.23011822766414203   -0.47021166520616281   0.066221312606822319
LJ  0.0019029949534358993   0.49042506968783806   -0.010116684974223971
LJ  0.22047687108489283   -0.28130921401182446   -0.24874295451915049
LJ  0.18191202443046972   -0.39535384826525743   -0.053923175445249112
LJ  -0.13348065781675048   -0.45275719681151372   -0.18854661595710059
LJ  0.18198014072973939   0.34806770870691667   -0.34561489186767302
LJ  0.16920464033037966   -0.14773322557772231   -0.097291774212922844
LJ  0.304332837105172   -0.4778294485503301   -0.2612074677673325
LJ  0.2083793483133245   -0.49003411460323548   0.26913002559488652
LJ  -0.47330813859910242   0.1489846991038126   -0.1579573576101391
LJ  -0.28662849880820784   0.02483669308089493   -0.37633096631433283
LJ  0.41571514308758178   0.049153150187974025   -0.049323710360102253
LJ  -0.36050813355929007   -0.038127025859169439   -0.0326988680340815
LJ  -0.45413051549765432   -0.21428761352530937   -0.13869152487668063
LJ  -0.016493577611852793   0.096386758686196575   -0.12480437850469769
LJ  -0.34236230936505802   -0.19581608085851376   0.19295798011771517
LJ  -0.19013787363328491   -0.17284008663189496   0.050424965273507795
LJ  0.30547095043069827   0.26009258679489533   -0.21401769364356477
LJ  -0.2892336729638687   0.29044223341702768   -0.031434292477311575
LJ  -0.12702740361710718   -0.15488925282568933   -0.14822613159298648
LJ  0.48656593392555075   -0.18695923392632263   0.040048715856038621
LJ  -0.33835750321145391   0.31618660877300686   -0.2520824753513462
LJ  0.46934297601569552   0.37116498052119395   0.0033612591801171097
LJ  0.42811796887268483   0.40901027628025388   -0.39934711874129175
LJ  -0.25814739319890584   0.1239190456406878   -0.1942141127460085
LJ  -0.086702143734329093   0.26156211065890916   -0.054519597689824888
LJ  -0.099900370935451441   0.19042339510659989   -0.49363054110393162
LJ  -0.12046424086589627   0.34560924806117715   0.12845701211235808
LJ  -0.17049222229304731   0.085948594978967063   0.049812531972224731
LJ  0.10824250231023283   0.27305518481166441   -0.099021305583973873
LJ  0.28341479289255334   0.44554504404342599   -0.078447611765522049
LJ  0.31352360580010535   -0.086766037911793131   0.068505416700521751
LJ  0.28160698696127612   0.23598839387615053   0.038591176514829094
LJ  -0.23335409302784804   0.41916250576657033   0.29059872734239867
LJ  -0.44341538262006663   -0.3992166306315017   0.048302251147749629
LJ  0.45331843585486997   0.40361269588654619   0.28653549443691612
LJ  -0.47983960576364898   -0.3447231277642977   0.2282070973056779
LJ  -0.036027468710267262   -0.32791617862835104   0.088792463069782765
LJ  0.029974476459059114   -0.27866849242166614   -0.13396456119592182
LJ  -0.27483819836683343   -0.30068929508462816   -0.19096561167895454
LJ  -0.29278664515619174   -0.36785816595717963   0.28889012374386625
LJ  0.047984913173802803   -0.11643344981528102   0.24464443693264346
LJ  0.32924492301804226   -0.24878787869537841   0.21465043824897159
LJ  0.21060570562370029   -0.32079378639281514   0.36850211486186774
LJ  0.37288613296104206   -0.40150462702982492   -0.42951932026918832
LJ  -0.45838823485130031   -0.019732569537935736   0.16517324352153465
LJ  0.34484374857821437   0.091626382675968523   0.15510554716775635
LJ  0.49935582018982416   0.096012263365636119   0.40651254707965373
LJ  0.40635618195516909   -0.32165311741468272   0.3928484912751114
LJ  -0.29276512934470178   -0.29575720010352824   -0.44683343511374246
LJ  0.26459670486453252   -0.14543500226269029   0.48801664489606228
LJ  -0.13986350680054321   -0.22656288046020404   0.23513415893494757
LJ  -0.077448910146395725   0.017140617665842375   0.39829533725183219
LJ  0.15614786291301855   -0.25244237799931563   0.096138353599088427
LJ  0.2434206878698989   -0.083561793535389131   0.27430262428952096
LJ  0.30409024568393167   0.069796143950826089   0.48560751835694627
LJ  0.46941547144437445   -0.10518127265819009   0.32245831302945144
LJ  -0.36681144400587307   0.38181765457368039   0.14007126600767794
LJ  -0.25230141394196409   -0.47132386033382045   0.45264345332119388
LJ  0.29092028230583694   0.25768075224545484   0.24711528278107786
LJ  -0.3908146444220495   0.28337168442524807   0.36432621912655039
LJ  -0.28677057228813474   0.0028748863235451261   0.2433662001399553
LJ  -0.2402214910188544   0.18803257043836757   0.25601510415206058
LJ  -0.0087887195196820408   -0.48204327643002876   0.2008464077278273
LJ  0.10126969482868983   0.17864908489623246   0.13543570944142302
LJ  0.11180394983794995   0.31592038213537382   0.30297615549080503
LJ  -0.43296342135873422   0.17470061721260519   0.06709295129320815
LJ  0.11189478765178359   0.37128396809452052   0.10636780847369058
LJ  0.13090608746826882   0.074996985376925798   0.32340094335603775
