108
#Comment!
LJ  -0.47176777749500037   -0.46649894770419248   -0.31493925560047992
LJ  0.17004541936518863   -0.0050949498544664669   0.19732814153087286
LJ  -0.29241456209788691   0.067568199185905814   -0.46514660109438805
LJ  0.41012555714737942   -0.11065477192816543   -0.48895834176572572
LJ  0.25698245231338296   0.15929681661718809   -0.05806084907205019
LJ  -0.25734629183862889   0.32323094757649279   0.14939536806272585
LJ  -0.14216893173561496   -0.43314144459811404   -0.34037130010188571
LJ  -0.11590170728319692   -0.23372208587868748   0.28814707281192242
LJ  -0.18800007774087951   -0.40872214485738262   0.41272975794427114
LJ  -0.41276066489734214   0.20886059759327566   -0.21276107800020372
LJ  -0.34925198380141981   0.39322882496784706   -0.0257658968523167
LJ  0.017561476935256937   0.299353023996829   0.38184880442594243
LJ  -0.18883248599856819   0.16167268244140737   0.37982039760438679
LJ  -0.13276875653109232   0.38793257496867123   -0.25127482175540755
LJ  -0.29885492303732242   -0.29014122834645795   -0.33240500555025038
LJ  0.27173676139946973   -0.38987415661126834   -0.026878762421615101
LJ  0.36979062086527686   0.11823815942693527   0.4777650616571259
LJ  0.26842848858202351   -0.4341537012649116   0.28073899542058345
LJ  0.0036457916189344083   -0.3047237649134229   -0.31435204166987002
LJ  -0.30948816192616674   0.0020481297873146662   -0.17279209234173815
LJ  0.14744045243367693   0.40173616206739993   0.0052758491823618678
LJ  -0.17310944758698868   0.0007201599486076609   -0.31541443669459329
LJ  -0.30094066494418564   0.49727945874897445   -0.17787201317966431
LJ  -0.45600284131137653   -0.16705696743265461   0.17640354522813206
LJ  -0.078619874876584117   -0.24590469773037202   -0.49905691927720386
LJ  0.40614436612495108   0.17398396097984956   0.10777304104408982
LJ  -0.20033326875461915   0.10540880832567603   0.15366461040564353
LJ  -0.43174343304273177   0.14813799535429975   0.40699630741691434
LJ  0.15113209973539449   0.29329467306792961   -0.20047119228522811
LJ  -0.3013124269285819   -0.18599107270588261   -0.082437021107185912
LJ  0.20735508546719236   -0.23857521737926771   -0.31346868295197355
LJ  0.29195332094784293   0.42977274558463269   -0.14616549559591266
LJ  -0.29536476948253215   0.19354992475948568   -0.013621761299035869
LJ  0.45316093751806152   0.33356184667508371   -0.013961465694933915
LJ  0.31920870622245345   0.48261363115452743   -0.36457350023002666
LJ  0.44341817989259152   -0.40111994093182768   -0.15233559198581872
LJ  0.28450278489354036   -0.21851502872361045   0.084849718769736557
LJ  0.16035636663154212   -0.42141665409202117   -0.22245730278442011
LJ  0.4482097821490531   -0.47180417851154838   0.037201521796677406
LJ  0.17483187321159727   -0.38259738220201506   -0.45273225478340218
LJ  -0.33660175281432975   -0.3829012070883458   -0.0030654125161210903
LJ  0.11594214602413368   -0.19467776413091578   0.24445111908082334
LJ  -0.26487123817244268   0.40383985762794916   0.4064998880920328
LJ  -0.28587906977535449   -0.21084919599950622   0.11702719794848875
LJ  -0.27732427443630964   -0.15642708325021681   -0.47162340303820904
LJ  -0.48507330352430139   -0.06079419291364304   -0.071791615661790861
LJ  0.43667557939454305   0.09586390747693771   -0.14859807157007224
LJ  0.24060653719746394   -0.050526543330509245   0.39798997151137
LJ  0.3880919003900794   -0.066147938270213189   -0.26123365149842465
LJ  -0.15566455871214555   -0.067296251108722366   0.065922421589161326
LJ  0.14861564009876538   0.22132062557833299   0.10154439191068537
LJ  0.078695992532795689   -0.38656425181138365   0.11800911400615834
LJ  0.3086594834095131   0.38377491733913227   0.15362495896164577
LJ  -0.11226644608393485   -0.35369547355914727   -0.11206798823279659
LJ  0.19971541193992756   -0.041631090173779854   -0.37294970183007764
LJ  0.3425277571901903   -0.041406624900916233   0.051320177724791825
LJ  0.4333229695230395   0.34252401123784387   -0.25496444003543034
LJ  0.14057113176347666   -0.10944070225561668   0.019945131493685014
LJ  -0.48885927245965205   -0.271782482582205   -0.0074186408688089811
LJ  -0.18980153418009194   -0.41604467887846752   0.14616598803162517
LJ  0.009764690154283549   -0.39288435522724341   0.3802344189624276
LJ  0.25554291366694482   -0.25778561678660916   0.38721341245550972
LJ  0.4486654065795237   0.29678448464142787   -0.48787329348111541
LJ  -0.39770504289874259   -0.47059111958996186   0.1906946014972721
LJ  -0.38672351148754003   -0.38383776421755345   0.48453263782963168
LJ  -0.45951172679786417   -0.23684122789842302   -0.20484326113362636
LJ  0.070847870325876319   0.43270507505260153   -0.34070220873128182
LJ  -0.074862783463963453   -0.052132401800611183   0.46415221173539706
LJ  -0.45439880361467955   0.042796782169080311   0.25809827952507036
LJ  0.15274278001363409   0.25644353057892705   -0.47091182502573642
LJ  0.36920672298505147   -0.13165907319140149   0.25441990683965665
LJ  0.43772879193861752   -0.33951993399560726   0.40151326724928232
LJ  0.092086047708283464   0.42727151988993678   0.17498460669129012
LJ  -0.32488782845255915   -0.24812273587137354   0.32769548575349983
LJ  0.078945795586336479   0.080621528181823637   0.3683725871324538
LJ  0.28488836200387241   0.16362112725692607   -0.29552918574463738
LJ  -0.44851197994659742   -0.10518803604434952   0.38415465584184449
LJ  -0.35693620321664493   0.0052704576180430283   0.059383487609333631
LJ  0.068804572537473963   -0.25577901820972665   -0.10860045214360341
LJ  0.37909521047540851   -0.33213234502394373   -0.35981464244338385
LJ  -0.063503273924350789   0.25657464429691801   0.15689444153202525
LJ  0.4531003107678413   -0.33545577987040825   0.19903359884244354
LJ  -0.48394840225135854   0.33048364953487991   0.1989845896473165
LJ  -0.11789640594085363   0.42531355836019874   0.26047464034036366
LJ  -0.065384198622861336   0.10660320265439302   -0.43713549268684943
LJ  -0.0015494537939772328   -0.11405013729525353   -0.32873645904574356
LJ  0.29474281263544966   0.33083757951246739   0.38049250806153789
LJ  -0.26043007783851368   -0.068717633850982687   0.27994405784508891
LJ  0.3172693930114045   -0.22269783589525319   -0.12211664829498299
LJ  -0.48459847302550663   0.1230242371745954   -0.37550289327709041
LJ  0.19681155201638043   -0.084536014739022253   -0.17368282228505516
LJ  0.10463367297306772   -0.16110464817271769   0.48816905284762846
LJ  0.25743726385803078   0.17551055517424582   0.26650350052123478
LJ  -0.084754159453258898   0.44458915724616932   0.49167870770851763
LJ  -0.08998960137341018   -0.26954502435586708   0.057861282212258815
LJ  0.48139194259753104   0.45881036750148479   0.37703416953549446
LJ  -0.14317833962300183   0.31022576871769664   -0.038974227806270599
LJ  -0.32712086929066503   0.35569295670554518   -0.34505859203965855
LJ  0.0043379734724688394   0.46385138158776806   -0.10157768667256176
LJ  -0.41942811554855475   -0.074993422981276606   -0.33513487541092396
LJ  -0.069811721944337768   -0.0083960913161520486   0.25112366889480864
LJ  -0.16786443725298006   0.26681576859012085   -0.42884679052029751
LJ  0.0038984334192777976   0.1724975277927828   -0.13582995281341848
LJ  0.14850128157600409   0.44293451618292562   0.47088953441341352
LJ  -0.016422709161775649   0.079459551013218013   0.06258733450357698
LJ  -0.20833381777904861   0.19165959782697178   -0.18551320328392462
LJ  0.050182437252409152   0.081715922787496773   -0.29100192896528942
LJ  -0.14900486861978499   -0.18506305658124067   -0.21018615239111166
