108
#Comment!
LJ  -0.47162404059390561   -0.4666859483548193   -0.31488798887787145
LJ  0.16993605828270411   -0.0050606707195347163   0.19743495280184206
LJ  -0.29277087762708298   0.067574726328261531   -0.46554287269046651
LJ  0.41005985608031292   -0.11055494717894208   -0.48873103549023511
LJ  0.25688504618457492   0.1594371657599245   -0.05838632101415929
LJ  -0.25733063354824098   0.32310445153742645   0.14979247425264317
LJ  -0.14188440818784059   -0.43334004636684997   -0.34013715033010283
LJ  -0.11607363543990129   -0.2333670802089414   0.28814183328701537
LJ  -0.18811265815487674   -0.40882001682517355   0.41270556129603403
LJ  -0.41260592039846711   0.20905301298071732   -0.21270078606887038
LJ  -0.34929884830987734   0.39320931547046245   -0.025961906303547982
LJ  0.017516105383946799   0.29940955599027985   0.38189758666212759
LJ  -0.18897214806040596   0.16148924678655005   0.37986825573073318
LJ  -0.13283587071777894   0.38787044632864182   -0.25113820380675583
LJ  -0.29864558540967606   -0.29008310263650317   -0.33258018705075076
LJ  0.2721501436096363   -0.39004640013342778   -0.026845756176840645
LJ  0.36979633300658449   0.1179098919688161   0.47792476571079578
LJ  0.26859009501645731   -0.43414727122248142   0.28064246257601061
LJ  0.0035584463073138816   -0.30490974804929094   -0.31379999189231994
LJ  -0.30928511267824332   0.0018054528441816954   -0.17263514624266441
LJ  0.14787827265947703   0.4017842306942539   0.0053122349444123564
LJ  -0.17301705131088957   0.00055430384045730913   -0.31514012232320815
LJ  -0.30108616499337387   0.49726553149877861   -0.1779094914551457
LJ  -0.45565503057042833   -0.16694084765267866   0.17629479099719367
LJ  -0.078305660678841121   -0.24616801306024638   -0.49898940697053185
LJ  0.40603426502078616   0.17397054590700406   0.10783542966986014
LJ  -0.20061009051838774   0.1055467026519693   0.15410178239134276
LJ  -0.43157092623406773   0.14818750790831328   0.40690586542412016
LJ  0.15124314535661268   0.29330552675705701   -0.2006163427950689
LJ  -0.30154678322524148   -0.18612185132635822   -0.082638040980169594
LJ  0.20716895355742626   -0.23828009966141053   -0.31357632068652264
LJ  0.29183586550383478   0.42966830470988998   -0.14587079018523194
LJ  -0.29528918461489673   0.1934354179757832   -0.013704320681961457
LJ  0.4529012057292196   0.33370211758609802   -0.014246981183180955
LJ  0.3190028311251461   0.48260933913383808   -0.36465098024133547
LJ  0.4434577816281956   -0.40117330252731992   -0.15255441495324015
LJ  0.2842433954139989   -0.2185982869903807   0.084771062984871651
LJ  0.16055668252680222   -0.42141152053499759   -0.22261376187490334
LJ  0.44814681343385426   -0.47176336485155246   0.037477416927995645
LJ  0.1749585722754414   -0.38302415656575994   -0.45280864438777912
LJ  -0.33679915670920446   -0.38260857860498104   -0.0030369691052332206
LJ  0.115720789314586   -0.19473036120686008   0.24437798056898827
LJ  -0.26449008012943381   0.40409116595078842   0.40638867994140604
LJ  -0.28586084509800314   -0.21081861572539218   0.11686811568292327
LJ  -0.27739135090358708   -0.15642725102044883   -0.47141390050244775
LJ  -0.48555315811208916   -0.060560182930011773   -0.071903528920507873
LJ  0.43692642339158189   0.095501707849455011   -0.1485821046739576
LJ  0.24072113080500021   -0.050627374297791676   0.39764811721934373
LJ  0.38818458112194759   -0.066005603512200792   -0.26133105553548008
LJ  -0.15564323949576606   -0.067245762133736106   0.065950056722850689
LJ  0.14871735681817666   0.22097247341296419   0.10141818562470221
LJ  0.078754529729070086   -0.38640591442426131   0.11821884919906064
LJ  0.30856482885485437   0.38397603231933192   0.15385474467342472
LJ  -0.11231130915344464   -0.35381566117596414   -0.11199061016596507
LJ  0.19967275040297755   -0.041862824775678605   -0.37293614192245289
LJ  0.3422861483905465   -0.041838951000036671   0.051441254793868518
LJ  0.43322564924911561   0.34290311660533018   -0.25475142770723391
LJ  0.14042779368731231   -0.10944774031461206   0.019700355753512692
LJ  -0.48882146428609019   -0.27173271373198998   -0.0077074851180158697
LJ  -0.19027448320091489   -0.41623542169770072   0.14610750715556375
LJ  0.0098728991277989894   -0.3928926779988452   0.37996849286209461
LJ  0.25557804667790562   -0.25800347247871613   0.38730884932562032
LJ  0.4487646874327505   0.29666497993330498   -0.48811111682773695
LJ  -0.39777072465965402   -0.47075628450427204   0.19107453619248183
LJ  -0.38711995835904739   -0.38394938722784711   0.48482925291915652
LJ  -0.45957221003642779   -0.23705430505739078   -0.20483281012881885
LJ  0.070800503485152003   0.43273010430279285   -0.34064228473012875
LJ  -0.074866166166070794   -0.051646859853233425   0.46437905776151189
LJ  -0.45439794272525796   0.043028881627586772   0.2584249540801824
LJ  0.15288885759292695   0.25620220618589662   -0.4707853114067958
LJ  0.36905874302470804   -0.13153940342210213   0.25387021037894791
LJ  0.43769860296807972   -0.33894717227217147   0.40156587669293636
LJ  0.092352379847391905   0.42736178259276147   0.17473277048421593
LJ  -0.32465805825264038   -0.2480400811505534   0.32787573117988544
LJ  0.07920898474648691   0.080749100220679632   0.36819272059575614
LJ  0.28516168800429648   0.1634798561463103   -0.29551548056889193
LJ  -0.44855475947392826   -0.1047268477690903   0.38393127118077641
LJ  -0.35668167430241532   0.0056064443533398838   0.059125385726631341
LJ  0.068862003565903995   -0.25569397958813378   -0.10874529682213718
LJ  0.37923693631001754   -0.33208960618040334   -0.35989371322168617
LJ  -0.063397905863488938   0.25625525602209764   0.1570887019347095
LJ  0.45301858368524961   -0.33580262319797027   0.19885998912640637
LJ  -0.48436666599284894   0.33087269766269173   0.19909975671749652
LJ  -0.11791477985624567   0.42512698428691503   0.26037745583802024
LJ  -0.06546815969052637   0.10651832959378979   -0.43695416501633233
LJ  -0.0016203008527845208   -0.11430701562662329   -0.32845254614733704
LJ  0.29480094850419869   0.33083981436182497   0.38057923913992997
LJ  -0.26053355503275094   -0.06844144354932119   0.27976671252733276
LJ  0.31734693805979453   -0.22225510185797376   -0.12180341308742948
LJ  -0.48462286133557769   0.12298005476087767   -0.37549065767988749
LJ  0.19674935194686222   -0.084781223486282364   -0.17386765120354869
LJ  0.1050725932960483   -0.16091300724118229   0.48806695719086524
LJ  0.25753477914376344   0.17538492547101442   0.26656589272848669
LJ  -0.084769022271825339   0.44457515059093627   0.49125081105607382
LJ  -0.090098059298344399   -0.2692455403915392   0.0577586670224325
LJ  0.4814997895975433   0.45876958734646062   0.37670463777229424
LJ  -0.14320733958629989   0.31039766443003086   -0.038729267114273845
LJ  -0.32704281924392148   0.35566034181735529   -0.34497312080530368
LJ  0.0043928978478775787   0.46358712065392421   -0.1020105646344253
LJ  -0.41980135167861227   -0.074933486450312725   -0.33494566597726083
LJ  -0.069938960993966723   -0.0086692251119681266   0.25086395860061006
LJ  -0.16759772103675299   0.26706023860383321   -0.42898199993925729
LJ  0.0040490865515183105   0.17208489990877901   -0.13569877076273637
LJ  0.14817794847877311   0.44312290828560591   0.47091975559078608
LJ  -0.016454018252216953   0.079730682203916159   0.06264513531966702
LJ  -0.20818199277802663   0.1916342020818439   -0.18522925771316195
LJ  0.050035672491466197   0.081634390828583744   -0.29111245126996754
LJ  -0.14898204247165664   -0.184847517533128   -0.20981137343015996
