108
#Comment!
LJ           0.33649         5.88128        -4.98256
LJ          -3.69894        -5.31513        -4.45477
LJ          -3.88255         -2.2179        0.546223
LJ           3.40928        -3.21245        -4.15624
LJ          -1.02527         3.41665         4.20683
LJ          -5.07394         -1.7436         6.08479
LJ           1.22875        -2.79063         5.52949
LJ           -3.0687         1.78723       -0.803036
LJ          -1.96297        -5.44703         6.21655
LJ           3.79353        -2.37333       -0.160197
LJ         -0.245314         6.26827        -2.27674
LJ         0.0266996        -1.70169        0.871597
LJ          -3.22836        -4.01267         2.42066
LJ           1.62491         3.95923        -4.78242
LJ          -5.39039        -4.20913         1.81026
LJ         -0.680715          3.7473         1.05688
LJ          0.665973       -0.459484        -2.26738
LJ          -3.46229       -0.440857        -1.29618
LJ           5.79276      -0.0534301         3.53055
LJ          -5.35377        -2.72533         5.29673
LJ          -2.16015         4.25525         5.72435
LJ           6.17439         5.44544        -1.43453
LJ           1.57219         2.91996         2.65489
LJ          -3.20601        -3.33842        0.653039
LJ          0.106315         -2.9368       -0.227667
LJ         -0.923888        -2.87158         1.56014
LJ           4.50561        -3.23647         5.57003
LJ           2.26547         1.40339         5.33288
LJ          0.704413        -4.46324         4.07106
LJ          0.491592          1.6815         1.54633
LJ          -1.42722        0.364483        -6.30335
LJ          0.533055        -5.88406        -3.23676
LJ           1.15023         6.34973        -6.12258
LJ           1.07015        -3.79456         6.13464
LJ          -5.77982        -5.67237         6.31684
LJ           5.46583         4.10762         5.34882
LJ          -6.18661        -1.46874         -4.6749
LJ          -0.90873       -0.891892        0.815313
LJ          -3.88427        -5.74899        -1.65544
LJ          0.300032        -5.23457        -5.80208
LJ           4.27959        0.623767         3.24892
LJ          -1.05896        -6.16845         3.28866
LJ          -5.14797         3.78504        -2.90917
LJ           1.55427        -2.16401         2.43638
LJ          -2.64167         4.00433        -5.06734
LJ          -1.33873         1.61595        -3.65833
LJ          -4.84665         2.25306         4.72263
LJ           -6.1924        -2.65384         6.00163
LJ          -1.88645        -3.01199        -1.11308
LJ          -4.41071        -1.50967         2.44531
LJ          -5.94163        -5.22598        -5.17487
LJ           -1.9866         4.30977         3.55761
LJ          -1.60628         2.79069        -4.05499
LJ         -0.792192         5.92516        -3.46837
LJ          0.133725        -1.76438         3.71927
LJ          -4.54507        -1.94504       -0.533262
LJ          -4.55697         5.82079        -5.51817
LJ          -1.27514         -1.1704        -4.49987
LJ           1.74877         1.06043         1.67472
LJ          -4.58807        -4.76267         2.66882
LJ           6.08873        -4.09838         1.04477
LJ           2.16168         2.38829       -0.459401
LJ           5.87148         2.38887        -3.44148
LJ          -1.00117         1.43072        -2.66742
LJ         -0.276091        -1.42739         -1.6906
LJ           4.96011         4.88075        -5.67421
LJ          -5.37796          1.8966        -4.11695
LJ           4.00718        -4.32923        -5.19084
LJ           1.15991        -3.61593         4.51965
LJ           1.64403        -5.71529        -6.45728
LJ          0.662999        -1.78356       -0.468064
LJ          -5.43995         -2.6257        -1.98965
LJ          -3.11483         6.12193        0.801407
LJ           2.61191         -5.7759       -0.649652
LJ          -3.51989        -3.52486        -6.45356
LJ           2.84509        -5.88061         -2.9398
LJ          -4.15423        -6.43551         -2.5734
LJ          -6.29412        -1.89433         -2.1747
LJ          -6.41849         4.43798        -1.97766
LJ           5.48619       -0.875519         4.53232
LJ          -2.34099        -5.78627        -3.71533
LJ           3.21181       -0.073398         6.11585
LJ          -4.45974        -4.82129         0.57416
LJ          -2.95881        -3.51082        -2.73112
LJ          -6.45229         5.00907        -5.88887
LJ           4.91083          5.4414        -4.77919
LJ            3.3863         1.09054         1.44735
LJ           3.72772         2.84369       -0.430328
LJ            2.8989        -3.18448        -1.53092
LJ         -0.771066        -1.82044         5.16159
LJ          -4.64648         2.48525        -2.09253
LJ          -2.84011        -6.08151        -5.69115
LJ         -0.950094        -1.98761         2.15078
LJ           2.98995        -4.13235         4.58733
LJ          0.604295        0.706492         6.01828
LJ          0.605292        -2.75469        -1.52056
LJ           1.63495        -3.74988         1.47641
LJ           1.27359         2.44044        -2.42938
LJ            2.9009         1.51611        -6.15929
LJ          -2.35258         3.42842         2.92989
LJ          -5.50246        -1.23462        -1.64867
LJ          -1.00108        -2.19013         -6.0105
LJ          -5.76908        -2.56997       -0.326091
LJ          0.425686         3.59013       -0.345946
LJ           5.43703          6.0887       -0.793695
LJ           1.57433        -4.96641        0.907196
LJ          -4.79097        -2.76853        0.229068
LJ           1.68658       -0.822657        -6.22289
