108
#Comment!
LJ          0.635314        -6.15148         4.18472
LJ          -4.37208         5.87004        -2.51694
LJ          -3.13933        0.856866        -3.38338
LJ           5.49136         -2.3688        -3.67979
LJ           2.64323         4.84633         4.87679
LJ          -3.60041        -1.05715        -6.21721
LJ          -2.56245        -5.15504         3.81402
LJ          -5.08753         1.46251         -4.8094
LJ         -0.722362        -4.59568         5.08711
LJ           1.73003        -2.08124        -5.73005
LJ          0.308287        -4.11946        -4.41164
LJ          -2.09818        -2.64729         2.84217
LJ          -6.08644        0.637248        -6.34928
LJ           -1.9705        -5.99939          6.1686
LJ          -3.61742        -5.54449       -0.680181
LJ          -1.87537        -4.82071         6.42113
LJ           2.20132        -2.12858         2.66504
LJ           6.42556       -0.925378        -6.22852
LJ          -1.66629        -0.50818        0.636973
LJ          0.737028        -6.16624         0.90341
LJ          -3.02976        -6.37804        -5.94971
LJ          -3.46014         5.40964        -3.08875
LJ           1.07933          5.7183         5.56897
LJ           5.14051        -5.14541        -1.45941
LJ         -0.649063         3.68794        -4.52192
LJ          -2.53588        -5.33989       -0.498679
LJ          0.202916        -4.57936         3.96291
LJ          -2.89184          1.2862          1.4684
LJ         0.0745326        -3.97422        -6.12195
LJ           3.67861         4.80462        -3.04738
LJ          -2.90552        0.638378        -2.26285
LJ           3.59426         1.39571        -3.76903
LJ          0.226779         1.19435            4.03
LJ          0.576881        -3.10709         6.26594
LJ            1.4341         3.47464        -5.34502
LJ           4.13309         4.43369         5.67652
LJ         -0.228539        -5.34272        -1.64741
LJ           0.89746         1.46617         3.24294
LJ           -4.0237           5.038        0.896937
LJ           -2.7646         -4.1121        -4.44716
LJ           4.04827         4.91373         4.33678
LJ          0.657952         3.53024         3.01821
LJ          -3.60975         4.62261        -5.87818
LJ           2.40509        -1.64837         3.66146
LJ          -2.82097        -5.43865        -3.90629
LJ           6.13621         5.03442        -6.26747
LJ           3.86853       -0.635239         5.29885
LJ           4.45619         1.17984         4.33191
LJ           5.43243         1.00233        -4.75519
LJ          -3.51107        0.595757        0.934381
LJ          -6.06802          4.4812        -4.30179
LJ           2.19237        -1.50965         5.54305
LJ          -3.16656          1.3789        -5.60946
LJ         -0.417197        -4.23653        -3.34415
LJ           1.76873        -3.66611         6.37793
LJ          -2.69707        -6.38568       -0.355796
LJ           3.59223         5.33654        0.664151
LJ          -5.50531        -1.84958         4.79309
LJ          -3.04841         -2.8938       -0.115702
LJ          -6.26965        -4.92241         2.98458
LJ          -4.62056        -5.49356        0.696272
LJ           2.19322         3.34855         4.47359
LJ           3.77145         -2.6592         -3.3634
LJ          -3.42128         5.79986        0.329879
LJ           2.71803         5.15359       0.0549828
LJ           2.86464        -4.01123         4.37806
LJ          -5.75036        -6.09874         2.75422
LJ          0.472883        -3.58988        -2.74144
LJ           3.61244        -2.52052         1.77356
LJ           5.03765        -4.30035         6.07712
LJ           1.53465        0.558995          3.7329
LJ          -4.86779        -2.16391          1.6163
LJ           1.16704         4.36291        -1.82536
LJ          -5.88874         5.37932        -2.41295
LJ         -0.157819         3.10744        -1.56884
LJ          -5.56631         4.85488         5.84319
LJ          -1.95063        -4.83774         2.22438
LJ          -3.77727        -0.16691         5.84591
LJ          -2.45555         4.36392        -1.73189
LJ           4.33203         5.42606        -4.93621
LJ           4.15693         -2.6631         -2.3814
LJ             6.266          4.2039         5.90962
LJ          0.451872         3.30172        -3.01593
LJ          -6.19905         -5.0133        -2.79204
LJ           5.13369         4.26684          6.2589
LJ            3.2781        -5.50316        -3.39503
LJ          -1.98452         5.09703        -4.87587
LJ            4.2261        -1.88638         -5.0415
LJ          -4.69285       -0.218902         1.81688
LJ           3.56975          -1.795         5.22639
LJ         0.0708111         1.18458         1.76561
LJ          -2.27222         6.19319         2.13423
LJ          0.189723        -3.31967         3.78617
LJ        -0.0240851        -5.79598          3.2601
LJ          -4.61269        0.463193         2.95353
LJ           2.81182          0.9186        -5.84988
LJ           1.08903         2.48717         3.34689
LJ          -1.56749         3.87471         -4.7291
LJ           5.57202         4.16272         4.87126
LJ          -4.17729         2.67301         2.11617
LJ          -3.08396        -4.03201       -0.887756
LJ          -2.23043         2.47011        -4.72897
LJ           3.05716         5.56392       -0.749105
LJ           5.95245       0.0949823         1.02617
LJ           1.72467        -5.64784        -3.49353
LJ           2.96865        0.613013        -2.10559
LJ          -3.69176         2.24483         3.20151
LJ          -3.98725         1.29617         4.58464
