108
#Comment!
LJ        0.00889337        -5.59985         5.18844
LJ          -1.70809         6.04659        -5.21564
LJ           -3.6484       -0.259497        -1.69001
LJ           -3.8178         5.44103        -3.63572
LJ           3.92157         3.86451        -3.33649
LJ          -3.32125        -0.68431         6.24632
LJ           6.23783         4.04375         1.62611
LJ          -5.14754        0.464773         2.69461
LJ         -0.858439        -4.54249        -6.24339
LJ           1.40721        -1.35697         4.89203
LJ          -1.00706        -1.91696        -2.89811
LJ           4.00489         -5.4985          4.1879
LJ          -4.80033         5.04968         4.04732
LJ          -5.75009         3.42797         5.84741
LJ          -5.14538         1.98924        -3.11587
LJ           2.24753        0.228668        -1.66478
LJ           3.80637        -2.07449         4.44025
LJ           2.84795        -4.57417        -4.48184
LJ          -6.06184        -2.28859         0.44203
LJ          -3.41503         0.79583        -5.54795
LJ          -1.13671        -3.79624        -4.33523
LJ           0.27545         5.85092        -5.58812
LJ           1.04841        -5.80424          1.9347
LJ          -1.81802        -1.03293        -1.95118
LJ           1.26275         4.41879       -0.177966
LJ           1.65228        -2.93613         3.75826
LJ         -0.141197        -2.39343          4.8311
LJ           -1.9262         4.14048        -2.81399
LJ        -0.0944708        -2.35425        -2.56221
LJ           6.43291        -4.54959        0.298301
LJ          -2.59612       -0.190537        -1.34169
LJ           5.16899       -0.638891         1.20775
LJ         0.0868567        -2.62347         3.27138
LJ          -3.24389        -4.17862         6.05295
LJ           4.48958        -2.25255         -5.0006
LJ           5.23675         3.83123         5.60375
LJ          0.166567        -2.90009        -3.58465
LJ           2.98238         2.21931         4.70318
LJ           5.80166        0.846808         2.05358
LJ           6.29517        -3.36195        -2.81071
LJ           5.89884         -1.3328         5.41114
LJ           6.41408        -5.35656         3.38412
LJ           2.74614         4.12148        0.844281
LJ           4.95035        -1.08923         4.81129
LJ           1.32352        -5.96308        -3.88385
LJ           1.89778         2.85884         4.48265
LJ         -0.685248        -5.32853         5.95178
LJ           4.58324         1.62471        0.962816
LJ           6.05148          5.5536        -1.21904
LJ          -1.96573           5.916         1.18849
LJ           -5.3094        -2.11208         5.49562
LJ           2.53461         5.40082        -4.88695
LJ          -3.54213         1.46327        0.656388
LJ          -4.41996        -1.37936        -3.78103
LJ           1.02361        -5.11372        -6.02288
LJ             4.516        -2.86969         1.64046
LJ         -0.853387          6.2857          -5.914
LJ           4.62359       -0.508365        -2.55922
LJ           3.36955         3.08596         -1.9245
LJ           5.58723         6.29224          2.5309
LJ          0.516263         1.52991        -1.31325
LJ            2.6321         -1.3949        -4.67101
LJ          0.140862        -6.14164        -5.22933
LJ          -5.29587         1.87777       -0.343425
LJ           2.15485        -2.96686          2.7195
LJ         0.0787123        -5.81953        -1.32916
LJ           -4.9669        -2.41091        -3.39673
LJ          -3.00199        -1.54631           5.463
LJ          -4.82053        -1.65709        0.909473
LJ           4.69003        -5.37083         2.96319
LJ           2.24542        -5.30399         4.62364
LJ          -5.81211        -3.69918         4.35319
LJ          -6.05347         1.36008        -6.13782
LJ          -3.99812         3.32399        0.608598
LJ            5.4567        -2.22437        0.556405
LJ          -5.13658         -1.8056         1.88436
LJ          -2.62694          3.0466          5.2282
LJ          -2.63709        0.270407         3.90505
LJ          -3.21583         1.13792        -3.81018
LJ           2.59537         2.47987        -3.42663
LJ          -1.78234        0.524496        -2.14648
LJ         -0.454959         3.14072         4.55827
LJ           2.19372        -2.36168         1.14531
LJ           4.32822         4.99632        -0.65635
LJ            4.9571        0.807819       -0.858739
LJ         -0.925852        -4.86478        -4.57219
LJ           5.40305        -1.27905        -2.49089
LJ            6.1679         3.10787        -5.76861
LJ         -0.435616          1.7359         4.22186
LJ           -5.6222       -0.204373        -4.48499
LJ          -1.06537      -0.0270419         5.03088
LJ           -3.2481         3.26197        -3.95272
LJ        -0.0406911        -5.74743        -3.69879
LJ            5.0979         6.21088         1.54007
LJ          -1.15557         4.63163         3.13358
LJ           6.10355         3.93386         4.79263
LJ           2.86132       -0.877226        -3.19669
LJ           3.73099        -5.65392         5.95463
LJ           3.33714         4.08445         6.19562
LJ         -0.777769         1.70432         2.32663
LJ          -3.79893       -0.164727        -5.73036
LJ           -2.4848       -0.357899         2.28644
LJ          0.898252         4.87217           4.752
LJ            2.6517         -1.1994       -0.813236
LJ         -0.181785        -2.81625       -0.522368
LJ           1.85889         5.38083        -6.06069
LJ           6.15985       -0.606431         1.56044
LJ           2.96091        0.218325          0.7879
