108
#Comment!
LJ          -2.60281         3.10347        -5.72587
LJ          -5.86995        -4.12886        -2.88795
LJ           4.24834       -0.563269        -3.39337
LJ          0.464166         1.26639        0.919244
LJ           1.06548         5.71398         3.35001
LJ           3.30888          -4.501        -1.69196
LJ           2.73597         2.93677        0.147403
LJ           2.90933         3.93039        -5.60229
LJ           5.92415         5.68173        -1.77524
LJ           -1.0787        -3.43444        -3.71198
LJ         -0.892874        0.776592         4.58805
LJ         -0.915473         6.07522       -0.475221
LJ          0.891803         5.13322       -0.637204
LJ           4.82573        -3.95303         4.96484
LJ          -1.63008         4.95715        -5.88932
LJ           2.11726        -3.05728       -0.847022
LJ          -5.39074         4.32658        0.122503
LJ           1.43992        -3.26707        -2.04208
LJ          -4.12398       -0.727175        0.984902
LJ          -4.14393        -4.74614         5.91079
LJ         -0.647726         1.37122         1.29786
LJ          -1.83824        -4.16915         -4.6981
LJ           4.19649         2.99454        -4.25406
LJ          -3.54129         3.38777        -2.95007
LJ           0.80959        -1.30869          4.6109
LJ           2.10885         4.39722        -3.30383
LJ            6.2259         4.50772        -1.75523
LJ           1.60146       -0.270602        -1.30312
LJ          -2.87944        0.461993        -2.58875
LJ          -4.84689        -2.38015          4.6578
LJ          -3.78347          3.5826      -0.0085269
LJ          -2.03741         1.93213       -0.828828
LJ          -3.23664        -2.92259        -1.28651
LJ           1.25965         3.92876        -3.35237
LJ          -6.09127        -2.46512        0.134218
LJ           2.41203         4.40298        -4.57768
LJ           4.11565       -0.112461        -6.41895
LJ           -1.2391         2.60218        -3.76959
LJ          0.362546         5.33343         4.09387
LJ          -2.53028        -5.92831        -1.13925
LJ            3.9545         1.69012         4.29953
LJ          -1.92054        -2.07245        -5.77543
LJ          -2.54532        -1.98837        -2.04713
LJ          -5.33796         2.19305       -0.542218
LJ           4.58394        0.186073        -5.44273
LJ          -3.99946         1.63863       -0.142348
LJ            4.2948         3.89354        -6.10721
LJ           1.72226         3.09338        0.802291
LJ           3.50117         -2.0222         1.23728
LJ          -5.41813        -1.14082         2.38959
LJ        -0.0027538        0.442531         4.36964
LJ           3.36536         5.17302        -3.79106
LJ           3.66675        -4.45885        -3.94044
LJ            4.5551        -1.77923        -1.64132
LJ           5.11789        -1.28604        -3.78895
LJ           1.03582         6.39534        -2.46726
LJ           -2.6624         1.67527         2.15293
LJ         -0.939098       -0.684164         4.96661
LJ          -1.29298         3.31352         2.49018
LJ          -2.90532         3.33799        -2.05128
LJ           2.40928        -1.23516         1.42943
LJ          -1.14067        -4.44567       -0.879872
LJ          -5.22285        -4.96788        -6.17806
LJ           5.73849         3.24442         -1.1109
LJ           2.07621        -3.55443         2.11418
LJ          -4.05316        -4.95284        0.205575
LJ           1.13711        -4.19132         1.66485
LJ           3.44402        0.839335         4.75356
LJ           4.55473        0.971488         1.11486
LJ          -0.01471        0.539113        -1.48055
LJ           3.90576          1.2817       -0.770925
LJ          0.200762         5.60949        0.391855
LJ          -4.45779         3.44188          2.8152
LJ           2.14109       -0.528218        0.506241
LJ          -5.63138        -3.60352         4.58609
LJ          -5.06601        -3.84344         5.85668
LJ          -3.96234         4.32145        -5.40183
LJ         -0.961848        -3.26477         4.36523
LJ           5.13764        -4.21172       -0.651956
LJ           4.28188        -3.46265         3.65207
LJ           5.17269        -3.27309        -6.11763
LJ          -3.42547         1.81039        -2.65953
LJ          -3.56461         1.62172        -4.07373
LJ          -6.04245        -2.06091         1.80108
LJ          -1.00531        -6.31826         -2.5149
LJ          -3.38035        -3.10743        -5.65154
LJ           4.30513        -5.48794        -3.48947
LJ         0.0341785        -5.89739        -2.75638
LJ           3.59135        -3.78452         5.25688
LJ          -2.72387       -0.169914       -0.817844
LJ         -0.471472         2.66845        -2.82342
LJ           1.52137         4.12255       -0.556954
LJ           1.92373        0.544066         -3.2823
LJ          -4.38309        -1.77343         3.99304
LJ          -2.38073         5.92067        -2.17731
LJ          -5.15052        -1.66455        -3.10027
LJ          -6.05825        -1.60155         4.20231
LJ         -0.888101        -1.92691         1.11017
LJ         -0.635558       -0.622186        -4.73073
LJ           -2.3938        -1.75956         6.19553
LJ           1.39728         5.28829        -3.36979
LJ         -0.740799        0.706124       -0.730576
LJ          -2.58613         5.18736        -6.10669
LJ          -5.64645         1.06995         1.02751
LJ         -0.634014         4.76428        -2.93956
LJ           5.87924         1.35025         4.97139
LJ          -5.45591         0.81783          2.0648
LJ          -5.56734         5.43591        -4.64084
