108
#Comment!
LJ          -2.11472         3.44531        -4.20031
LJ          0.341995        -1.99302         2.85178
LJ          -1.65552          2.7947        0.590052
LJ           2.53044         5.91234        -4.00697
LJ          -3.86736        -1.53763         -3.7578
LJ           6.17754         1.67277        -5.26594
LJ          -5.42484        -3.43603          6.4144
LJ           1.17108        0.583022       -0.887534
LJ          -2.34239        -1.67568        0.298183
LJ         -0.221565          1.6186         1.57994
LJ           4.15688         2.54061        -2.50158
LJ          -5.15289         2.30236         5.11278
LJ           6.10386        0.253928          1.6802
LJ           2.93984        -3.01783         4.97429
LJ           2.37423        -3.61837        -1.44449
LJ          0.306719        -1.64277        -1.04491
LJ          0.860741        -4.90101         1.44504
LJ         -0.619503        -3.14768         2.51647
LJ          -4.05322        -6.00308         3.02749
LJ          -4.81315         2.84655         2.57647
LJ          -4.31836       -0.364391         2.83259
LJ           -4.8417        -2.81561         1.63053
LJ          -4.07329        -1.85609         1.79598
LJ           1.14469         -1.0959        -4.89063
LJ          0.314863         1.63104        -3.17935
LJ           -2.2879       -0.486321         -3.1393
LJ            1.1939        -4.85774         2.70758
LJ         -0.756749         -5.4123        -2.04725
LJ          0.115613        -1.31193        0.130772
LJ            4.3865         -4.9296        0.425397
LJ         -0.836805        -3.05296        -5.21404
LJ           4.35716         -6.2905         2.62345
LJ           5.53291        -2.90595         5.79792
LJ           1.08817        0.799489         3.07701
LJ          -4.97288         3.04097         1.49709
LJ          -3.37283         3.85431        0.503666
LJ          0.870595         4.47608        -2.48842
LJ           3.36256        -4.41397        0.322766
LJ           1.57553        0.908575          1.4319
LJ           3.43129        -5.19425         2.44392
LJ          -1.00268         2.48214         3.19408
LJ           2.41004        -5.60233         2.54121
LJ           4.83362         6.25405        -1.17151
LJ           0.13739        -0.72093        -5.82802
LJ           3.37176         2.34251        -3.60871
LJ           1.63607         4.78722          -5.322
LJ           1.44979        -6.19346        -4.32397
LJ         -0.542828          5.8444        -5.80391
LJ          -6.00633        -6.21951         4.20692
LJ          0.447628        -4.39796        -3.16141
LJ          -4.08162         5.31794         3.42064
LJ          -3.39325        -2.47175        -3.35659
LJ          -4.22804       -0.326324         4.31044
LJ           3.96839        -5.67928        -3.44514
LJ           2.79429        0.936039        -0.44907
LJ            5.6867         6.28711         1.77893
LJ           6.05239         1.95239         3.88525
LJ         -0.610936       -0.227995         6.05761
LJ          -2.47413         1.74601         4.07049
LJ         -0.606067        -5.64766         2.80383
LJ          -3.57042      -0.0651182        -4.98157
LJ           4.69441       -0.699962        -5.08659
LJ           5.09763        -4.62998         4.28516
LJ         -0.502871        -3.85425        -1.85183
LJ           1.88923         2.69715         3.05857
LJ           1.74245       -0.556581        -2.89439
LJ         -0.852461        -1.68066        -3.97152
LJ          -1.70978         2.56298        -5.47553
LJ         -0.993475        -2.18217          1.3131
LJ          -1.29948        -3.23989         3.74254
LJ           1.84405         2.81244         1.13922
LJ           2.07953        -0.33325       -0.518259
LJ           4.38362        -5.30015          1.6313
LJ          -6.09404         2.30935        -3.82358
LJ           3.49448        -1.38665         2.01128
LJ          -2.62666        -5.74485        -4.28156
LJ         -0.940197      0.00562926          5.0595
LJ           1.21118         3.33035        -5.49732
LJ           1.01458         4.18423       -0.707798
LJ          -4.21642        -2.14841        -2.59647
LJ          -1.03798        -4.05744         1.98734
LJ           5.75768         4.48254         4.69988
LJ         -0.435858         4.76397        -5.39991
LJ          -4.55632         2.00007        -5.27406
LJ           4.95722         2.58934       -0.788422
LJ          -2.80074        -2.34282         2.03947
LJ            1.5784         2.94219        -2.94967
LJ          -1.63141        -2.28983        -5.53079
LJ          0.105436        -6.27801        -3.62679
LJ          -2.90917         2.76876          4.9512
LJ           3.84864        -5.15108         3.49215
LJ          0.237733       -0.802148         2.43201
LJ          -2.51531        0.234972        -6.44136
LJ          -3.74282        -4.47249        -3.65635
LJ         -0.615833          2.5085         1.30006
LJ           3.06928         1.55407        -2.65186
LJ          0.192486         2.73682        -5.17118
LJ          -2.80746        -3.94868        -5.06731
LJ          -5.83698         4.60973        -3.78079
LJ          -4.75881       0.0679808        -6.15175
LJ          -4.53316       -0.345865         1.64517
LJ           4.83309        0.801003         4.71899
LJ           3.14638        -4.89468         4.56498
LJ          -2.79553         5.09746       -0.169364
LJ         -0.377914         1.64668        0.498151
LJ         -0.873779        -3.72507      -0.0334241
LJ          -6.04066         -5.8336         2.12201
LJ          0.981096        -2.09493         6.27927
