108
#Comment!
LJ  0.32394804381551151   0.32077606697230387   -0.097425690592994704
LJ  0.11086357241213469   0.13280365545753375   -0.075034642502330051
LJ  -0.26839902217630934   0.10905328666317461   0.16807560293833834
LJ  0.11398952300542392   0.2896404052559341   -0.15397874918836571
LJ  -0.23274236024945064   0.2033954281948358   -0.42632042086410227
LJ  0.17243302191032189   0.17651566700765273   0.38916227900271377
LJ  0.4802393263431638   -0.19145788812170883   -0.28812083208407907
LJ  -0.050055067964764943   -0.087302390827367571   -0.25523800240732558
LJ  -0.30734234322792242   -0.3954843329423734   0.35345024599904779
LJ  -0.10509381144868023   -0.1242530821350845   0.35706670615227543
LJ  0.11631084428696414   0.12843861058969003   0.36122203116191209
LJ  0.3279003032347001   -0.2900019900587591   0.0081372966272231766
LJ  0.46921670014512001   0.44374758039575485   0.16607402215939226
LJ  0.19344954311580481   0.25782704916219629   -0.35629631146502816
LJ  0.29508204350723599   0.31614524700922209   0.11861947417953088
LJ  -0.34966780415360832   -0.15436415804347067   -0.22985396537387998
LJ  0.28124470314647793   -0.15972702291535099   0.29631620421582527
LJ  0.3714847371611294   0.19285119627193933   -0.35245807173837157
LJ  0.42937281447689218   0.2727894322835398   0.33356190331396679
LJ  -0.37525286986057743   0.31534424409349604   0.14763117265170789
LJ  -0.31494245024524559   -0.17806316808134937   0.048967469871017723
LJ  -0.13285556214555319   0.36754111050529498   -0.23109996071486064
LJ  -0.14108451774808034   -0.47675732063973419   0.3809472246058756
LJ  0.13284133940297765   0.1346249181711949   -0.25064684848546659
LJ  0.0029039245471115032   0.12312290084236591   0.25106183315524128
LJ  -0.37342334027864521   0.055896883425360908   -0.2035960355305679
LJ  0.033420008571290155   -0.096568486034334197   0.069308125025412753
LJ  0.1058533168200982   0.41404118917894384   0.40352054967505058
LJ  0.24240293693710788   -0.28299429849559676   0.070640690038383441
LJ  0.20014447909515751   -0.1168802022844687   0.0055090158311532165
LJ  -0.13344715173894919   0.32632079557146415   -0.39159130668867209
LJ  -0.18464005873987283   -0.15459302125632321   0.13957112038239247
LJ  0.44334032474845031   0.10728457626643587   0.31603225123013501
LJ  0.02414763516710541   -0.39363410651960568   0.39027077923902448
LJ  -0.39283955860714492   0.35060357687307431   0.47435868215913535
LJ  0.03721328515851454   0.39428673438428152   0.34373277382161371
LJ  -0.0078240728121228356   0.37930597298130603   0.071946110865726345
LJ  0.15384418705827613   -0.16640498124156569   0.077110410493287207
LJ  0.031609008670117553   0.12564094909370024   -0.16063618532813861
LJ  0.0047535923793101736   -0.3002748553359405   0.22375259054156654
LJ  0.10067460583828369   0.21257518785039708   -0.16099423047407055
LJ  0.31746915690687022   0.47325246788622288   -0.21486766193103982
LJ  0.40239269799852617   -0.4150945902156512   -0.037989160022030032
LJ  0.15676342683720626   -0.16530661934031374   0.35207378225035829
LJ  0.3923839989757959   -0.15608890100544148   -0.21247678218312513
LJ  0.1495561724636979   -0.43980891162391483   -0.090836477993627984
LJ  -0.11729730621230028   0.13117402911385886   -0.16450953898161097
LJ  0.30214410736866421   -0.16391029272123223   0.43942861059099986
LJ  -0.087464213191667084   0.24175580272159822   0.13150739417575272
LJ  0.056866399147119696   0.0020414448508568311   0.2707456881506215
LJ  -0.48745749395591809   0.22753814616751003   0.16391208946751776
LJ  -0.37879418895127992   -0.19399076910097504   -0.077946027760573453
LJ  0.44810015362780409   0.28747107734693456   0.2546997745611152
LJ  -0.061709076299849015   0.13707374277104814   0.04873621561764109
LJ  0.30977075555627892   -0.44063652494169314   -0.19702980234760681
LJ  0.14043104799838596   0.16059386187300528   0.23172354057767333
LJ  0.02352613781031513   -0.086774192532934433   -0.015511278972348301
LJ  0.16226637211205192   0.46056072090887001   0.48972078262898416
LJ  0.34759375824073246   0.32422685639429322   0.30767878887581795
LJ  0.44128467981757374   0.26533815865177746   -0.3526197697783427
LJ  0.26148746030326298   0.020733218696853187   0.13921331485264662
LJ  -0.24404290669039894   -0.49908069607654781   -0.27036073638203972
LJ  0.1224559970486251   -0.19467860193961375   -0.26445266398107525
LJ  -0.25276506424917944   -0.45774904167661784   0.33600934979336688
LJ  -0.23775977510994556   0.3136041903267619   0.085643787002861418
LJ  0.21267762400400544   -0.14143729614124737   -0.07283754631376807
LJ  -0.22178203870023003   0.13540417228971621   -0.19891533916636958
LJ  0.098012052832097019   -0.24552977667457715   0.1149931640851484
LJ  -0.48623943529886132   0.24373338791446822   -0.4758556449032314
LJ  -0.4695383035550596   0.14493217747219   -0.17009610172516251
LJ  0.27422002860410621   0.41226196621018402   0.48679417288753768
LJ  0.054145678827607714   0.23275532535401242   -0.0819471242481426
LJ  0.2356815068628908   -0.098569595297387055   0.10116964585254097
LJ  0.17383793914607007   0.16089075191340196   0.30444358306422947
LJ  -0.090376197649996562   0.40531803328272992   -0.0030119818403945599
LJ  -0.31505401442601499   -0.30172154836197068   -0.3939563634547581
LJ  -0.35449762136229596   0.27191115155170731   -0.41789623414167443
LJ  -0.20265664925345217   -0.24451797839691819   -0.37149119083320375
LJ  0.32897090145983954   -0.12198063127851888   -0.40519571623199679
LJ  0.28687850927648922   -0.076671481725902546   -0.22637948167980954
LJ  0.30023020255122046   0.225842410309127   0.089191053681598992
LJ  0.49471256100663635   0.18931381984687143   0.25069164381772774
LJ  0.22506324761183888   -0.44696382989711508   -0.18156388346464386
LJ  -0.10133757369614034   0.39658546581224829   0.18059526738388373
LJ  -0.20623081023638934   -0.36503450368272827   0.21276199348724623
LJ  -0.44333442800751932   0.47195759557221578   -0.1272987341028026
LJ  0.16815741233138648   0.13066737782530033   -0.3544134803633831
LJ  -0.37452215002990724   0.37254359832790884   0.3606599150188245
LJ  0.082318619131646231   0.49346229037915484   -0.074250385086185783
LJ  -0.34120527468148654   0.43620681241451476   0.30788925826310376
LJ  0.21899387135554213   -0.4095735606644722   0.053941606910772377
LJ  -0.26928396506085261   0.4786126690399552   -0.020839696989840506
LJ  -0.36870319474583729   -0.25499215396750757   -0.017934335974060082
LJ  -0.32292361284161331   -0.19884892194875053   0.2259205600005679
LJ  0.39947596941747238   -0.1433891917290103   -0.28948749606856516
LJ  -0.30216127518009911   0.045000860755196638   0.026863542715829334
LJ  0.080397180917151312   -0.41041633803094701   -0.049756136223317551
LJ  -0.4705082142557484   0.3335988203302433   -0.24513330387523655
LJ  0.1291014222534414   -0.22744951931483823   0.0058064597628496618
LJ  0.43570963238520466   0.38425367581032782   0.22167964148722646
LJ  -0.25434706371861332   -0.15998624005455492   -0.16853542670658453
LJ  0.40400889282515673   -0.22767770665366219   -0.36905353292642845
LJ  0.1032362197990906   0.45238130763982648   -0.42449572122757545
LJ  -0.31712658800399979   -0.30759618314364434   0.41443349012547082
LJ  -0.38800129845536124   0.47971722558714663   0.2449207992734001
LJ  -0.16768207675380559   0.22067466105057432   -0.48733661047116034
LJ  -0.27739248659871707   0.38724666382596035   -0.17712910106043855
LJ  -0.45720132699743216   -0.036971699049922153   0.016806242751515533
