108
#Comment!
LJ           2.77215         2.91744        0.412648
LJ           3.09522         1.49392        -2.64255
LJ          -4.65313           5.485        -3.07671
LJ           6.16463         1.34683        -6.22375
LJ          -4.47175         3.08082          4.2271
LJ          -5.27834        -2.04218         6.25234
LJ          -2.53667        -4.93004        -4.74737
LJ          0.410106         2.34544        -6.10889
LJ         -0.716498         3.76572        -5.24617
LJ           4.84487        -1.50081        -6.00866
LJ          0.348619        0.336602         1.72517
LJ          -1.14404         2.30257        -2.94523
LJ          -6.12655         1.78986        0.485615
LJ          -4.92785         4.19332        -4.15912
LJ           1.96984       -0.858616        -5.99819
LJ          -2.17717         3.57051        -6.28342
LJ           5.61982         -3.1829        -5.95622
LJ          -3.78329         1.21584         0.44136
LJ         -0.688339        0.966573         1.79793
LJ          -1.99911        -1.67186        -1.41738
LJ          -2.24159        -4.60131         3.16532
LJ          -4.95174         4.38441        0.576169
LJ         -0.728665        0.275565        -3.77447
LJ          -5.38934        -6.00393        -4.84253
LJ          -2.47507        -5.66967         4.41617
LJ           3.39271        -1.93961        -4.49539
LJ           6.21205        0.627217         1.99584
LJ          0.366821          1.6018          2.1016
LJ           3.45322        -3.59044        -6.04968
LJ           5.70766         1.79953         -2.8176
LJ          -2.85651         4.51735         4.84072
LJ           5.21048        -2.02848        -3.93355
LJ            1.1244         2.37322         1.18766
LJ          -0.51202         2.77246        -5.56305
LJ           1.01308         3.15582         5.43323
LJ           -5.1063        -2.80108         3.10923
LJ          -6.31484         2.78943         0.19797
LJ          -3.98167         3.82002         3.21539
LJ          -4.93778        -3.45496         4.17416
LJ          -2.72793         2.50556        -5.05834
LJ           4.12438        -1.40496        0.355385
LJ          -4.12589          2.4723         2.93147
LJ          -4.18693        -3.22114        -5.64809
LJ            3.8485        0.407025         4.65629
LJ          0.526765         2.23421         5.53364
LJ          0.721127         4.53242        -2.98706
LJ          -3.07899        -3.14316         2.74653
LJ          -5.95541       -0.376882         1.28356
LJ         0.0906561         5.22685         3.15691
LJ          -5.43305        -4.30037         6.13094
LJ          -2.23692         -3.2839        -3.01556
LJ           -2.2292         4.19208         2.55674
LJ          -1.04863         -2.1057        -4.31824
LJ          -5.33595         2.05423         5.80927
LJ           5.28854          2.9627         2.91575
LJ           5.94878          4.8682         3.24871
LJ           6.27932         -4.9752        -4.65245
LJ          -1.57768        -2.88211        -4.75728
LJ          0.802256       0.0900913        0.804519
LJ         -0.126593         5.72906        -4.55417
LJ          -4.91349          4.3951         -2.4389
LJ          -2.22664        -4.75198        -3.77522
LJ           5.79562        -6.08848        -1.05544
LJ           3.45513         4.67711       -0.710464
LJ           3.86422         3.84903        -2.89313
LJ          -2.48449        -2.68846         6.39881
LJ          -4.10541         2.46321        -1.79957
LJ          -1.46076        -1.33999         2.73189
LJ           3.44246         2.66857         6.36656
LJ           -1.7153        -1.20331         3.75242
LJ           6.22235        -1.84088        -6.08331
LJ          -6.13865          3.8717        -3.82952
LJ          -5.25732        -3.46543        -5.46924
LJ          -2.09917        -6.23417       -0.962586
LJ          -4.54481        -5.55891         1.26392
LJ          -1.14723       -0.178587          2.4611
LJ           6.13564         -3.8679        -2.36126
LJ           3.32533         5.31063         1.89126
LJ           3.90832         4.78668        -3.45188
LJ          -5.82138        0.634817         3.09665
LJ          -4.40599        -4.42019        -5.14612
LJ           3.75174      -0.0300979        0.160757
LJ         -0.123533        -4.70835         1.68729
LJ          -6.45274         1.43547          2.7814
LJ           -3.7358         5.25273        -5.36575
LJ           3.43604         4.00947        0.866835
LJ           5.18456         2.08299      -0.0206729
LJ          -4.14704       -0.281351         2.63111
LJ         -0.627954         -1.2951        -3.68152
LJ          -1.26124         -6.2265         5.91118
LJ            5.3874         1.07226       -0.404961
LJ         -0.442902         3.96604         4.99669
LJ          -3.11572        -3.62565        -3.40533
LJ           4.75305         -5.9907        -5.07338
LJ          -4.48985        -2.96674         6.23018
LJ          -4.42112         6.15853         2.81997
LJ           2.01424         2.45329          1.7918
LJ          -5.14447          5.6204        -4.48798
LJ          0.587423          3.4659         1.79213
LJ          -4.74552         4.98057         2.04287
LJ          -6.14153         3.59727        -0.45748
LJ          -2.62475         2.08678         3.36803
LJ          -4.46772         3.37356         -2.4867
LJ           6.36283      -0.0535066        -3.54806
LJ           1.77865         1.84158         -1.6438
LJ          -4.41333         2.08346        -2.91281
LJ         -0.349588        -3.14801         0.69062
LJ         -0.750424        -1.16242        -2.11571
