108
#Comment!
LJ           1.87637         3.78078        -4.91976
LJ          0.768709        -2.65781        -4.71745
LJ           5.03601         2.58237       -0.430643
LJ          -6.00786         4.42569        -4.32359
LJ           3.03448        -3.00383        0.680592
LJ           4.96626       -0.361139        -4.65485
LJ          -4.02673        -2.99798         5.44767
LJ           1.68928        0.438119         5.30396
LJ          -4.33885          1.6495         5.87224
LJ          -1.81887        -1.70472        -3.61352
LJ           4.09495        -2.10309        -5.93416
LJ          -3.63844         2.99899        -6.42225
LJ           1.28212        -4.02438         2.37391
LJ           5.41224         -5.6333         -4.3467
LJ           2.69147         2.34673        -2.06308
LJ          -4.10854         6.03565        -2.48942
LJ           3.26189        -3.26027         2.38575
LJ          -1.77626         1.37852        -6.02963
LJ          -2.82029        -4.47966         3.43778
LJ          -6.19523          2.5357         6.05921
LJ          -4.14148         -1.3035         4.55814
LJ          -6.26321         1.18792         1.47655
LJ          -4.41507         2.33813         -2.2861
LJ            5.1154        0.700979        -0.46044
LJ         -0.418181         1.94791         3.97494
LJ          -1.11927          2.4431        -6.10159
LJ           2.40106        -5.41373         3.23832
LJ           1.80098         3.31744        -3.96415
LJ          -1.54806        -1.06306         3.75532
LJ          0.980921         3.20499          1.1039
LJ          -1.84751         5.40344        -5.38756
LJ           2.17673         6.03574         3.35259
LJ            4.3144        -6.12725        -4.26279
LJ          0.378398         2.51828        0.560382
LJ          0.552586        -4.85258         5.98544
LJ           -4.8386         3.80428       -0.538486
LJ           -1.3166         2.48432        -4.38021
LJ           4.21911         6.04678        0.516669
LJ            2.5401       -0.486723         5.35433
LJ           6.30309        -6.31062         4.99472
LJ         -0.555238        -2.43812         -4.3749
LJ          -6.17718         -3.7919         3.98568
LJ           6.43774        -5.75329        -1.48232
LJ           4.16004        0.871825         4.66095
LJ           3.53244       -0.374086        -4.07371
LJ           2.65152         3.47648          2.9249
LJ          -3.89945        -6.17256         5.81867
LJ          -1.82707        -6.42723         5.44882
LJ           4.73499         6.21923         4.43255
LJ          0.811238         -5.6051        -1.47872
LJ          -2.09373        -4.46387           5.423
LJ          -5.44497        -4.47862         6.23682
LJ         -0.257476       -0.458967        -5.27595
LJ          -3.53301        -5.18688        -5.03924
LJ           5.97381        -5.52274       -0.497052
LJ          -4.62861         -6.1527         2.02433
LJ          0.720311         5.24301         3.86638
LJ           2.65695         1.74866         5.82735
LJ          -2.28074         4.90081         2.61182
LJ          -4.14947         2.98524         5.50158
LJ          0.151444         -5.7828        -4.78054
LJ          -5.81794          3.4177        -4.73266
LJ           6.29792        -4.47603         1.08348
LJ           1.11321         6.10064        -1.10549
LJ          -1.04812        -6.14056         6.22467
LJ           2.30198        -2.21952        -5.84311
LJ           4.05554       -0.633329         5.43074
LJ           5.65273         2.43564         5.71752
LJ           1.26151       -0.126273        -4.85499
LJ          -2.62572        -4.71222        -6.36819
LJ          -1.67744        -3.71037         3.58598
LJ           2.98674        -1.54359        0.151419
LJ          0.957469           6.031          2.7698
LJ          -4.18497         2.88411        -1.44139
LJ           -1.0722         4.29075         3.41621
LJ          -1.38786         -6.3021        -5.40809
LJ          -3.60598       -0.940733       -0.754756
LJ           2.44338        -4.31795         4.84555
LJ          -2.31344         2.79946         -4.8521
LJ          -3.79793        -1.84862         0.22267
LJ          -2.92098        -6.14016         5.19708
LJ           5.99558         5.45081         5.36668
LJ          -2.84303         5.54101        -6.13593
LJ          -2.82258         2.40426        -6.16997
LJ           4.10837        -2.84805         5.69377
LJ           -5.0974        -2.02144        0.429156
LJ           3.46001        -5.26393        -3.80458
LJ          -1.49979        0.333839        -3.01296
LJ          -2.64785        -3.12233        -4.55145
LJ          -1.57185         4.14968          1.7365
LJ           5.52215        -6.03374         2.04713
LJ           2.26373        -2.63795        0.178812
LJ          -2.35979        -1.96719        -5.59265
LJ          -3.65729        -5.39732       -0.743436
LJ          -2.69208         2.96543          4.8713
LJ           1.21094         1.73267        -2.65995
LJ           1.16647         3.15223        -5.86377
LJ         -0.978454       -0.938908        -3.98591
LJ           4.17834         1.68702         5.70806
LJ          -3.41715       -0.866567        -2.98218
LJ           3.38519         1.63315         1.24642
LJ           4.46977         2.95141          2.2339
LJ           5.56872        -4.32615         3.06997
LJ           3.42492        -5.97042         6.29417
LJ           1.21757        -2.00441       -0.146848
LJ          -1.44615        -1.43179         -5.4905
LJ           3.55468         5.00278       -0.930176
LJ            3.0379         1.07688         4.43359
