108
#Comment!
LJ           1.55366         1.63363        0.590407
LJ           1.69824         2.62377        -2.05804
LJ          -4.35449         5.78625        -4.52833
LJ          -4.75541         1.37252        -6.12882
LJ          -4.39748         4.67259         4.13223
LJ          -4.01772        -2.28999         6.04634
LJ          -3.90647        -5.48228        -5.72733
LJ           1.14337          1.0646        -5.67176
LJ          -1.70898         3.95401        -5.34576
LJ           5.05237        -1.30986        -5.64096
LJ           1.17531       -0.484436         2.32896
LJ         -0.702819        0.827338        -2.13624
LJ          -4.83012        0.471132       -0.989102
LJ          -4.81595         4.61874        -5.26632
LJ           3.21957        -0.12807         -4.9306
LJ          0.759354         3.89313        -6.05548
LJ           4.24168        -3.16583         5.95168
LJ          -4.80696       -0.969665        0.114662
LJ          -1.22718       -0.649966          1.0804
LJ         -0.911186       -0.814193        -1.57539
LJ          -3.11064        -3.30926         3.21956
LJ          -4.31663         4.81286        0.501585
LJ          -1.38691         1.11083        -3.97972
LJ          -4.19149        -6.44096        -5.91104
LJ          -2.02279        -4.59203         3.80632
LJ           4.12134        -2.23044        -6.09653
LJ          -5.36313         1.06569         4.10326
LJ            1.5106        0.230753         3.52224
LJ             3.619        -3.16679        -5.12762
LJ           4.68484         2.29512        -1.06502
LJ          -3.83166         3.20545         3.82009
LJ            5.6716        -1.25552        -4.45999
LJ           2.05437         2.79386         1.49707
LJ         -0.466528         2.30689        -4.68562
LJ          0.721543         2.62566         4.43412
LJ          -5.12877        -3.97824         2.26714
LJ          -4.47727         2.92383       -0.597148
LJ          -5.77879         5.26061          3.7585
LJ          -4.79892        -2.32454         3.96101
LJ          -3.16092         1.56006        -5.10314
LJ           4.69017        -1.77181       -0.193728
LJ          -3.55143          2.6313         2.76839
LJ          -3.92488        -2.76899        -5.73982
LJ           4.41144         0.87511         4.89078
LJ           1.06831         1.37067         6.05108
LJ            1.9959         5.47547        -5.16512
LJ          -3.95355        -2.81772         4.56261
LJ          -5.50964        0.922571      -0.0180991
LJ         -0.561831          5.7009         1.66178
LJ          -5.46487        -4.99151        -5.79686
LJ          -3.49975        -2.62482        -1.67707
LJ            -1.555         3.91814         2.12243
LJ          -1.53692        -1.66326        -4.55108
LJ           6.14739         2.70813        -4.95772
LJ           5.93994         3.03123         3.36897
LJ          -6.25942          4.7231         4.93696
LJ           6.26156        -4.75552         6.31686
LJ          -1.89547        -3.68122        -4.18733
LJ         -0.322675       -0.278395        0.472162
LJ         -0.388555         4.49034        -3.98002
LJ          -4.14913         4.14949         -3.3285
LJ          -2.56689        -5.41838        -2.16726
LJ           5.22776        -5.37822          1.3629
LJ           5.15232         4.70491      -0.0016718
LJ           4.49685         3.26423        -3.16215
LJ          -1.49333        -3.91483        -6.34517
LJ          -4.88237         1.58241        -0.41737
LJ          -2.84597       -0.980364         1.68476
LJ           4.03547         1.88125         -6.0828
LJ          -4.29289        -1.56381         4.65839
LJ           4.71165       -0.969885         5.77258
LJ          -5.77294         4.21735        -4.49249
LJ           6.44628        -3.97944        -5.94949
LJ          -3.43631         6.30327        -0.40619
LJ           -4.5135        -5.78382        0.419437
LJ          0.651094         1.41667         2.81216
LJ           5.80568        -3.20138        -1.76634
LJ               2.1         4.99443         2.30142
LJ           4.12403         3.94873        -3.93367
LJ          -4.62621        0.225447         2.69592
LJ          -3.54192        -3.47019         -4.5533
LJ           3.94027        0.354287       -0.757716
LJ         -0.164767        -5.06298         1.70805
LJ          -5.91848          2.9454         4.24633
LJ          -3.30328         5.53209        -5.31081
LJ            2.5236         3.66481         1.79222
LJ           5.33732         2.95702        -0.14249
LJ          -3.96292        -1.12485         1.60735
LJ         -0.688605        -1.15973        -4.04814
LJ          -1.84856          6.2361         5.46626
LJ           4.80448        0.553702        0.120962
LJ          -1.23066         2.75187         6.17523
LJ          -3.91666        -4.61941        -4.37987
LJ           4.81545        -4.05065        -4.54601
LJ          -4.27837        -3.40996         5.45591
LJ          -5.98752        -5.84858          3.0085
LJ           2.30308         3.33476         3.16692
LJ          -4.97457         6.40238         5.46741
LJ         -0.892541         3.88811         1.21055
LJ          -4.72543         5.41683         3.16296
LJ          -5.71921         4.27765        -0.45319
LJ          -3.35114       -0.206201         2.28105
LJ          -3.08293         2.66987        -1.43976
LJ          -6.23865         1.09461        -4.40519
LJ          0.445116         1.47719        -1.65065
LJ          -5.46262         3.93052        -3.53734
LJ          0.751638        -2.19603        0.830759
LJ          -1.60167        -2.67789        -2.31434
