108
#Comment!
LJ          0.514466         -6.3642         4.28984
LJ          -1.01624         5.70984        -4.59454
LJ          -3.43185        0.241325        -2.11716
LJ          -5.24375        -4.75679        -2.67111
LJ           4.90488         2.94306        -5.23662
LJ            -2.975       -0.528377         5.44797
LJ          -5.71114         3.95817          2.1778
LJ          -6.01795         2.54226         1.81871
LJ          -1.03832        -2.74582         5.48312
LJ           1.42609        -1.01858         1.76909
LJ         -0.344875        -2.47363        -3.12635
LJ           5.45398        -3.65423         3.23523
LJ          -5.35824         3.79375         4.91739
LJ          -4.20764        0.608574         6.34826
LJ           -3.9654         2.21874        -1.88484
LJ           1.39916       -0.444032         -3.0007
LJ           3.79479        -2.11801         4.82154
LJ           2.67782         -3.0711         6.25813
LJ           5.44814        -1.71824        0.695324
LJ           5.94053         2.02489         5.73795
LJ           -1.3708          -4.308        -5.12977
LJ          -2.17425         5.31611        -4.43354
LJ          0.564115        -4.35598         3.41186
LJ         -0.154004        -4.05633         -3.1092
LJ          0.556659         4.65121         2.87227
LJ          0.591808         -4.2817         1.89674
LJ         -0.676574        -2.86511         4.33874
LJ          -1.83734         3.18448        -1.67954
LJ          0.753321         -2.8341        -4.04032
LJ           6.35551         5.47022         3.54117
LJ          -3.26113         1.42103        -1.46808
LJ           4.58366        -1.32702       -0.699634
LJ          0.497412         -3.0337         3.29694
LJ         -0.671039        -5.06525        -5.58656
LJ           4.10431       -0.599244        -6.34704
LJ           4.95168         3.15248         6.29446
LJ          0.481038        -4.01196        -4.30184
LJ           2.45884         2.09376         4.27648
LJ          -6.28383         1.67579         2.78452
LJ          -5.29646         -3.5736        -3.83615
LJ           4.73126        -3.38844         5.10942
LJ          -3.48618        -6.42996         2.92109
LJ          0.735241         3.67093         2.46286
LJ           4.26015        -1.11404         4.73671
LJ        -0.0335326        -4.80222        -3.73548
LJ           1.82262         2.94697         4.76226
LJ           1.85521        -4.75518         6.44952
LJ           6.00715         2.33242         2.11044
LJ          -6.25822         6.02912        -2.57094
LJ          -2.52275         3.63827        0.535385
LJ           -5.1119        0.241644          5.2678
LJ            2.8392          -6.196         -6.2069
LJ          -2.56852         1.39613         1.55999
LJ          -3.22812        -2.32848        -3.79988
LJ           1.10164        -3.59849         6.43388
LJ           2.10678         -4.3758      -0.0187994
LJ          0.155665        -5.60764         6.40709
LJ           5.70236       -0.612654       -0.480166
LJ           4.14136          4.6713        -2.29142
LJ           5.70832        -5.18188         2.92191
LJ         -0.744316         4.04936       -0.793618
LJ           2.29605        0.840372         -6.1134
LJ            0.8306         -5.1317        -4.49179
LJ          -6.19592        -1.73304        0.632478
LJ           2.54563        -4.74987          2.8354
LJ          0.858526        -4.23045        0.412808
LJ          -6.23553        -1.82182        -2.04417
LJ          -2.23475        -2.96675        -5.31862
LJ          -4.94451       -0.434766        0.707619
LJ           6.33994         -4.3224         2.88743
LJ           1.69188        -3.32166         5.52759
LJ           -5.5834        -3.09835         3.64534
LJ           4.22923         2.01547         -4.5228
LJ          -4.54341         4.07052       -0.271771
LJ           3.47627        -4.20162        0.506922
LJ          -4.98566        -4.06407         3.13934
LJ          -2.46121        0.490854         4.27584
LJ          -1.76878        -1.28273         4.66794
LJ          -2.98404         2.05023        -2.41983
LJ            2.9486         1.64135        -3.08276
LJ          -0.67839       -0.332018       -0.939054
LJ           2.10789         4.29352         5.09045
LJ           1.30658      -0.0520987       -0.338866
LJ           4.83542        -6.44298        -1.36652
LJ           5.90511        0.145483        -2.83951
LJ        -0.0863535        -5.89849        -4.71643
LJ          -6.28441        -5.14138        -2.71342
LJ           5.49579         2.22471        -5.49723
LJ         -0.489903         1.61244         3.85385
LJ          -5.88631        -1.12972        -5.66376
LJ          -4.61519        0.514705          4.4449
LJ          -3.52265         4.18537        -2.10162
LJ         -0.624101        -3.63967        -4.66157
LJ           2.61263         6.42711         1.92037
LJ          -4.09866         2.43491         2.32827
LJ           5.31954         3.76089         5.28094
LJ           2.26619       -0.380351        -5.15272
LJ            5.1866         6.04174        -6.31324
LJ           4.06618         4.01157         4.45929
LJ          -2.00661        0.996829          3.2423
LJ          -4.23813        -1.25731         -4.1804
LJ          -3.66914       -0.392203        0.153094
LJ           2.82491         5.13468        -4.68276
LJ           3.53028       -0.291032        0.256792
LJ          -0.22362        -3.02853        -1.31559
LJ           2.24195        -4.66085        -5.29798
LJ           6.40792       -0.582582         2.28084
LJ           4.79104         1.13992         1.58084
