108
#Comment!
LJ          -1.48307         3.41634        -4.30712
LJ          0.446091        -2.19646         3.84209
LJ         -0.526102         2.92102        0.251369
LJ           3.30967         5.65178        -4.05571
LJ          -5.11779        -1.66861        -3.04119
LJ           5.72633         1.52819        -5.12223
LJ          -5.16398         -3.3458         6.20934
LJ           1.26229          0.5393       0.0998574
LJ          -2.67075       -0.988614         1.18284
LJ         -0.371531         1.27058         1.32345
LJ           4.12196         1.66621        -3.24558
LJ          -5.24014         2.29551          5.6348
LJ           5.23149       -0.444998         1.83986
LJ           3.49127        -3.65698         5.95991
LJ           2.66626        -2.65808        -1.58158
LJ         -0.483182        -2.14741        -1.01976
LJ          0.522076        -3.82354         0.81305
LJ          -1.09871        -2.56334         3.26382
LJ          -3.88248        -5.57153         3.01822
LJ          -4.93907         2.54775         3.39723
LJ          -4.16529       -0.265639         2.99331
LJ          -5.40019        -2.23937         1.38036
LJ          -4.53339        -1.35971         3.25089
LJ           1.09336        -1.22425        -3.69906
LJ          0.126249         1.63418        -4.15836
LJ           -2.1556        0.153988        -3.57914
LJ          0.603313        -4.65828         3.23331
LJ         -0.378173        -6.02632        -2.67118
LJ         -0.244122        -1.35943        0.535816
LJ           3.80683        -6.02071        0.489951
LJ         -0.993006        -4.16293        -5.45466
LJ           3.58714         6.23913         2.69466
LJ            5.4725        -3.33019         6.06561
LJ          0.868192         1.56888         2.46947
LJ          -4.03832          4.0325         2.06857
LJ          -3.57862         3.95915        0.240551
LJ          0.613667         4.74996        -2.82408
LJ           3.60664        -4.60319        0.105151
LJ           2.24284        0.851555         2.02911
LJ           3.61441        -5.26227         2.83399
LJ          -1.43871         1.32428         1.84963
LJ           2.57104        -5.33387         3.24574
LJ           4.90129         6.45442        -1.08778
LJ          0.462219       -0.480551        -6.01391
LJ           3.56566         2.41004          -3.955
LJ           1.79939         4.41007        -6.14585
LJ          0.602809        -5.78833        -4.29573
LJ         -0.488764         5.90595        -6.00318
LJ            6.1592        -6.07973           4.025
LJ          0.692069        -5.32186        -2.30298
LJ          -3.90418         5.85768         3.81564
LJ          -3.81147        -2.86147        -3.88775
LJ           -3.5332       -0.585134         5.06973
LJ           4.64993        -5.52682        -3.79438
LJ            3.7666       -0.122201       -0.183106
LJ           6.03972         6.19944         2.07054
LJ           4.97695         2.61158         3.70763
LJ          0.504671         0.62754         6.04236
LJ          -2.34604         1.94767         3.87408
LJ          -1.19053        -6.45562         3.41449
LJ          -2.70058       -0.955271        -5.19103
LJ           5.51048       -0.181431        -5.25037
LJ           5.73802        -5.11091         3.83336
LJ         -0.394102         -4.7049        -2.53738
LJ           1.24109         2.70251         3.35829
LJ           2.14675       -0.598856        -3.34537
LJ         -0.797706        -2.07188        -4.36659
LJ           -2.5739         2.76052        -6.06568
LJ        -0.0676361         -3.2332        0.305918
LJ         -0.723124        -4.01924         3.86787
LJ           1.26297         3.98607         1.50438
LJ           2.54765       -0.461995       -0.367308
LJ           4.42322         -6.0613         2.15835
LJ          -5.74365         2.38052        -3.38646
LJ           2.51499       -0.690091         2.40823
LJ          -2.53416        -6.01979        -4.39879
LJ         -0.532472       -0.480212         4.59793
LJ           1.18854         4.24793        -4.94312
LJ          0.391136         5.01696        -1.62677
LJ          -3.95746         -2.0933        -2.17874
LJ          -1.17939         -4.4493         2.72396
LJ           5.76605         4.55473         4.82781
LJ           -1.0066         4.85546        -5.69906
LJ           -4.1925         2.09147        -5.21031
LJ           5.02825         1.41506        -1.70406
LJ          -3.21044        -2.43559         1.80222
LJ           1.60574         3.84272        -3.30966
LJ          -1.31908        -1.41044        -5.06862
LJ         -0.508713        -5.52584         -4.0238
LJ          -2.80404         2.09203         4.92665
LJ           4.59655        -4.69913         3.29271
LJ          0.788111         -1.0393          1.6869
LJ          -2.65251         1.09908         5.68298
LJ          -3.32828        -5.14986        -3.11055
LJ         -0.770846         2.96522         2.18353
LJ           2.56695         1.54746        -2.55826
LJ          0.663455         2.80796        -5.79742
LJ          -2.09307        -3.15066        -4.69386
LJ           6.32388         4.00829        -4.19827
LJ          -4.55648       -0.116998        -5.33616
LJ          -5.45109       0.0643428         1.49641
LJ           4.78095         1.06588         4.34819
LJ           3.46474        -4.55111         3.84303
LJ          -3.80644         5.15567         1.24329
LJ          0.235386         1.25681        0.147106
LJ          -0.35694        -3.54638       -0.621442
LJ          -6.37094        -5.98135         1.15034
LJ          0.309454        -1.06296          5.2242
