108
#Comment!
LJ            0.6925         5.99803        -4.52591
LJ          -3.52209        -5.08648        -4.80779
LJ          -4.41355        -1.30731        0.725535
LJ           3.17083        -3.44263        -4.08578
LJ          -1.37384          3.3144         3.87273
LJ          -4.88989        -1.41222         6.01087
LJ           1.63258        -2.73979         5.20467
LJ          -2.77654         1.85967        -1.36401
LJ          -2.61682        -5.35192         6.14865
LJ           4.12795        -2.35055       -0.901645
LJ         -0.640005         5.68983        -1.91578
LJ         -0.126478        -2.15385        0.137463
LJ          -3.18832        -4.68317         2.03748
LJ           2.05599         4.08112        -4.58037
LJ          -5.15909        -4.78148          1.7553
LJ         -0.342559         3.25367        0.746219
LJ          0.178214       -0.743559        -2.58833
LJ          -3.36991       -0.433647       -0.671923
LJ          -6.43903        -0.21205         3.35726
LJ          -5.69548        -2.42661         5.79465
LJ          -1.94184           4.104         5.64354
LJ           5.76575         5.11802        -1.39537
LJ           1.60322         2.74591         2.23917
LJ          -2.32091        -3.51537         1.24968
LJ          0.438187        -3.98821       -0.184723
LJ         -0.451535        -2.72075         1.62392
LJ            4.8864        -2.69323         5.86231
LJ           1.31861         1.22545         5.32755
LJ          0.956729        -4.70713         4.18076
LJ          0.155041         1.43236         2.00072
LJ          -1.22244        0.278584         6.43255
LJ          0.860934        -5.48901        -3.10317
LJ          0.958338         6.32656        -5.73727
LJ          0.818965        -4.16225         6.11985
LJ           6.41628          -5.243         6.19991
LJ            5.6966         3.69857         5.32176
LJ          -5.60439       -0.778769        -5.24732
LJ          -1.04112       -0.717499        0.907293
LJ            -3.879        -5.90226        -1.81766
LJ          0.518089        -5.69955        -6.00406
LJ           3.90115        0.174667         3.02743
LJ          -1.21199        -5.41165         3.30767
LJ          -4.93507         3.75134        -2.86433
LJ            1.6159        -2.16386         2.43904
LJ          -2.53259          3.5757        -5.24855
LJ          -1.74705         1.51133        -4.31895
LJ          -3.91979         2.95382         5.22138
LJ             6.127        -3.38393         6.14269
LJ          -2.61884        -3.25362       -0.719965
LJ          -4.50271        -1.89512         2.43424
LJ          -5.72371        -5.09555        -5.45432
LJ          -2.27048          4.6591         3.87941
LJ           -1.1018         2.78759        -3.86493
LJ         -0.514137         5.66346        -3.09447
LJ         -0.211174        -1.23733         3.29874
LJ          -4.63681        -1.23587       -0.851584
LJ          -4.16862         6.26115         -5.9513
LJ         -0.732045       -0.889251        -4.51458
LJ           1.38403         1.29952         1.51942
LJ          -4.18715        -4.61093         2.54962
LJ            6.3116        -3.54337        0.682539
LJ           2.03159         1.54168         -1.3542
LJ            5.9559         2.96657        -3.38299
LJ          -1.01427         1.53383        -2.45734
LJ         -0.104923        -2.37594         -1.6843
LJ           5.10066          4.3053        -5.87267
LJ          -5.38162         1.44788        -3.46389
LJ           4.34466        -4.16188        -5.44573
LJ          0.953814        -3.78223         4.72313
LJ           1.51879        -5.05928        -6.37988
LJ          0.328778        -1.94967       -0.786373
LJ          -5.33304        -2.40628        -2.11817
LJ          -3.68461         6.45628        0.776521
LJ           2.17704        -5.63803       -0.513579
LJ          -3.68264        -4.24302         6.33924
LJ           3.53084        -5.58859        -2.68671
LJ          -4.47574         -6.1698        -2.96154
LJ           6.22201        -2.47822        -1.92128
LJ            6.1528         4.57062        -2.29253
LJ            5.2902        -0.57572         4.37674
LJ          -2.25053        -6.32042        -4.24962
LJ            3.1517       -0.459128         6.33726
LJ          -4.19991        -4.48074         1.16446
LJ          -2.44228        -3.33575        -2.51209
LJ          -6.25265         5.01162        -5.62388
LJ           5.11214         5.56506        -4.34689
LJ           2.29894        0.619907          1.0359
LJ           3.94379         3.68262        -0.15223
LJ           2.48182        -3.33362        -1.85803
LJ         -0.901974        -1.94772         5.36783
LJ          -5.02627         2.29784        -2.71747
LJ           -3.2952         -5.9435        -5.41023
LJ         -0.963824        -1.37614         2.60706
LJ           3.30928        -3.76778         4.78902
LJ           1.15306         0.68004         6.35167
LJ           0.22295        -3.15975        -1.05526
LJ           1.65699         -2.6713         1.53004
LJ           1.91571         2.27442        -2.01225
LJ           2.45915         1.19883        -5.76337
LJ          -2.30968          3.1623         2.81946
LJ          -5.60162        -1.00425        -1.28737
LJ          -1.01376        -2.94611        -5.97156
LJ          -5.66818        -1.51931        -0.44557
LJ         -0.457619         4.27937       -0.374761
LJ           5.65285         5.72164       -0.397375
LJ           1.35725        -4.47739        0.958173
LJ          -4.43141        -2.87131        0.428794
LJ           2.29042       -0.670344         -6.1574
