108
#Comment!
LJ          -2.01144         2.04967         3.61953
LJ          -1.07509        -6.33412         4.22237
LJ           -2.0701        -4.01876         4.77647
LJ          -5.34292         4.29064        -1.88076
LJ           3.27967         5.71857        -0.52276
LJ         -0.636491        -3.99117         4.36666
LJ           3.53016        -6.23866        -4.55262
LJ           3.82801        -4.71175        -4.04502
LJ          -3.59417         2.48866         4.53679
LJ          -5.76987         2.28073        -4.22997
LJ           2.34547        -2.93453        -4.66108
LJ           1.01507        -2.63641        -2.85723
LJ           -3.8231        -2.91614        -1.77402
LJ           3.62679        -5.50504         6.12745
LJ           -2.7524        -3.29327        -2.28703
LJ           -5.0856         3.02102        -3.98318
LJ          0.880192        -3.86505        -1.55279
LJ           4.98552        -5.84122         1.16951
LJ          -4.30817         2.27419        -1.26632
LJ           2.18097        -4.40731        -5.20764
LJ         -0.970648         1.80305         1.92698
LJ          0.142339         1.57208         1.98638
LJ          -3.45038       -0.581709        -4.49026
LJ          -1.88652         0.38746         5.91238
LJ          -3.83433        -6.28027        -0.53851
LJ           4.50689        -4.41843         1.79085
LJ             5.213          2.8735         2.38819
LJ          -6.29953        -3.62501        -6.01106
LJ           2.90714        -2.06963         1.02177
LJ           2.43807         6.12987         6.22039
LJ          -5.57132        0.983192        -3.99882
LJ          -6.05228         1.70475        -5.21545
LJ           3.79143         -3.2831        0.930955
LJ          -3.35178        -2.99283        -3.19715
LJ          -6.03934       -0.878248         2.72671
LJ            2.6026         5.42697         -3.8893
LJ          -4.30564        -6.42282        -5.66326
LJ           4.16007       -0.554216        -5.71493
LJ           2.57761        -2.17522        -1.18962
LJ           -3.4195        -1.84942        -2.69713
LJ            4.2682         3.60291         0.67593
LJ          -2.54453      -0.0693107        -2.98378
LJ          -2.13151       -0.271368        0.987368
LJ          -5.02235         3.62153        -4.83745
LJ           2.46818        -2.63363        -6.31976
LJ          0.234332         2.72938        -1.01902
LJ           5.24353        -5.67627        -3.76131
LJ           -3.1007         -4.3844        -2.64842
LJ          -4.31691         3.38056        -2.84605
LJ          -2.44444        -1.69929        -2.31069
LJ            3.2019         3.24508        0.653409
LJ        -0.0756443         1.27945         2.98006
LJ          -3.30572        0.450289        -5.01504
LJ           6.34749        -1.77491         -5.3373
LJ            4.4353          6.2161         4.06425
LJ           -1.0345        -4.57726         5.11502
LJ          -5.01813         1.35523         5.16724
LJ          -4.91965         5.07472         6.26935
LJ          -5.23866        -3.86357        -5.82167
LJ           2.29177         -2.1636        -5.44652
LJ          0.951231         5.46112        -6.42352
LJ          -3.03355         3.95441          1.5796
LJ          -2.39605         2.64075         1.24629
LJ          0.622817          4.0626        0.844136
LJ          -5.32694        0.571151       -0.382047
LJ           3.73829         5.43665        -3.63182
LJ           6.23969         3.75025       -0.503258
LJ          -2.78365        -1.16548         5.66714
LJ          -3.47627        -1.28558         6.33591
LJ           2.08297         -2.2946         2.53648
LJ         -0.256107         2.51196         2.57022
LJ          -2.40161         5.12899         4.03639
LJ           2.18743         1.57281        -4.44362
LJ           1.50189         5.49354         4.10504
LJ          -3.35398         6.17812         3.51989
LJ          -3.78436          2.4046         1.81762
LJ          -4.26594        -4.33767        -3.09229
LJ          -4.07878        -4.63052         3.48775
LJ          -1.14042           3.133        -3.96677
LJ          -1.59109        0.435796         2.00707
LJ          -3.74941         6.24135        -2.24834
LJ            -5.362         1.64019         0.02445
LJ          -1.54443         4.51882         1.03021
LJ           2.87482         5.14848          5.8152
LJ          -2.93066         3.03711         6.15104
LJ           3.98296         5.60108         5.09561
LJ             3.115        -5.90717        -2.16563
LJ          -4.42254       -0.621928         1.76398
LJ          0.283508        -3.82407        -5.07508
LJ           2.57477         4.55382        -4.64197
LJ           1.51992        -1.06112        -2.44677
LJ          -3.97399        -1.02692        -1.89079
LJ           6.41987         -3.3028         4.37237
LJ           1.45505         6.34598        -3.89078
LJ           5.16681        -2.04793         3.99221
LJ           3.80532        -6.04631        -3.59061
LJ           2.99042         3.64963        -3.43424
LJ          -3.23274         5.77484         -3.3433
LJ           6.46123         5.93035       -0.421453
LJ         -0.800841         3.58698        -6.20229
LJ          -2.35954         6.29279         4.31768
LJ           4.22028        -1.68849         3.31909
LJ          -3.10471         -2.1327         3.22961
LJ          0.902481       0.0335501        -6.38307
LJ          -2.38525         4.17996         3.11149
LJ           3.10204        0.534937         6.44081
LJ           4.17778         4.11456         3.55259
LJ          -5.56316        -5.25199        -5.97184
