108
#Comment!
LJ         -0.135007        0.279846         1.49439
LJ        -0.0767394          4.3059        -1.43302
LJ          -4.97017         6.05077        -6.13271
LJ           -1.4207         2.09798        -6.04199
LJ          -3.82258         5.04622         5.92583
LJ          -2.13802        -2.63971         5.43446
LJ          -6.39043         5.85445        -5.63292
LJ           2.10879       -0.703664        -5.23999
LJ          -3.02282          4.1394         -5.9141
LJ           5.91375       -0.356429        -6.45486
LJ           2.21448        -1.29883          3.5909
LJ        -0.0098304       -0.306463        -1.92115
LJ          -4.68826       -0.150224         -2.1295
LJ          -3.29185          5.1403        -5.79027
LJ           5.29007         1.02607        -3.52852
LJ           5.08018         4.35196        -5.17285
LJ           2.99071        -3.29082         3.69861
LJ          -5.07265        -3.96451        0.669409
LJ          -2.99487        -3.13512        0.662518
LJ          0.687758        -2.56111        -1.52049
LJ          -3.52687        -1.73713         3.53007
LJ          -3.92646          3.8707        0.494307
LJ           -1.9954          2.5757        -4.61409
LJ          -3.24833         3.74444         5.42372
LJ          -1.56697        -2.63166         2.73646
LJ           4.64102         -2.3465          4.9042
LJ          -2.99823         1.31765        -6.00326
LJ           2.56167        -1.63343         4.99979
LJ           4.24654         -2.8107        -3.35008
LJ            3.8722         3.58782         2.01832
LJ            -5.742         3.45859         5.74844
LJ          -6.38843      -0.0112525        -4.73521
LJ           2.12056         1.24291         1.89896
LJ         -0.810355         1.17096        -3.56381
LJ          0.428221         1.46662         2.83987
LJ          -5.27311        -5.61123        0.470337
LJ          -1.92332         2.77218         -2.3363
LJ           5.98531        -5.66482          4.8573
LJ          -5.61344        -2.11908          3.1491
LJ          -3.49467      -0.0490062        -4.66838
LJ           5.03264        -1.26151       -0.260736
LJ          -2.79962          1.5539        0.566164
LJ          -3.27998        -2.04236          5.5856
LJ           5.24636         1.48762         5.42273
LJ           1.92226        0.290963        -5.99707
LJ           3.78305        -6.10948         4.40013
LJ          -6.02868        -2.20563        -5.51266
LJ           6.22464       -0.980051        -1.79961
LJ          -1.70684         6.28732        -0.67743
LJ          -5.38003        -5.16746        -4.94885
LJ          -5.46967        -1.77631        -0.88419
LJ         -0.913266         3.51877         2.40263
LJ          -2.21249        -1.20412        -4.69584
LJ           5.98902         3.18955        -4.03195
LJ           6.32602         3.47522          3.6846
LJ          -5.58829         5.69007         5.40366
LJ           6.23662        -4.67608         4.51879
LJ          -1.75426        -4.84738        -2.93559
LJ          -1.40941       -0.845647       -0.388438
LJ         -0.926633         2.63604        -3.24034
LJ          -2.45823         3.82474        -4.38377
LJ          -2.88663         6.24863        0.427389
LJ           3.64388         -4.0324         5.13421
LJ          -4.81587         4.23762        0.815124
LJ           2.79211          2.8835        -2.09984
LJ        -0.0971261        -5.78089        -5.93619
LJ          -3.09522         4.02735       -0.264239
LJ          -2.08556        -1.51749        -1.51333
LJ           4.98048        0.525863        -5.27167
LJ          -5.74751         2.16659         5.37195
LJ           2.07292        -0.20646         4.94753
LJ          -6.01806         4.54585         6.07501
LJ           5.00668        -5.99712        -5.79638
LJ          -5.39689          6.1891       -0.438888
LJ          -4.81547         -5.6688       -0.567008
LJ           4.05835         3.82781         2.96379
LJ           5.81968        -3.02294        -1.66637
LJ          -0.01087         4.41971         2.87648
LJ           5.42759         2.10496        -3.77983
LJ          -3.53018        0.550981         2.40305
LJ          -2.94702        -3.43231        -3.21759
LJ           4.99089         0.92044       -0.793264
LJ         -0.274295          -5.685         1.72043
LJ          -4.32726         3.96816          5.4951
LJ          -2.36089         5.79704         5.97692
LJ           2.43742         4.67954         3.26666
LJ            4.9235         3.86197       -0.621293
LJ          -5.33738        -2.90313        0.607992
LJ          -1.09569         -1.0528        -4.61547
LJ          -2.25026         5.78309         4.98378
LJ           3.30968     -0.00257627       -0.439384
LJ          -2.53045         1.24612        -4.58787
LJ          -5.13632        -3.76671        -5.74288
LJ           4.00199        -1.04757         -4.0969
LJ           -4.9161         -4.5163          5.4874
LJ           5.30908        -4.95027         2.35219
LJ           2.53962         4.36775         5.14449
LJ          -4.60037        -5.46384         1.94478
LJ          -2.08065         5.27771       -0.487158
LJ            5.8134        -5.54096         3.67369
LJ          -4.19259         5.21827        0.307423
LJ          -5.76699        -3.37127         2.39472
LJ          -1.69142         1.57895        0.197431
LJ          -5.89438         3.11812        -5.74198
LJ            -1.728         2.33037       -0.668638
LJ          -6.15592        -5.72737        -4.24157
LJ            2.3816       -0.606343         1.11494
LJ          -3.25279        -4.58333        -3.07594
