108
#Comment!
LJ           3.28541         3.82928        0.421756
LJ           4.98081        0.437775        -3.40529
LJ          -4.75951         5.52578      -0.0392527
LJ           4.04395         1.67041        -6.41219
LJ          -3.94574         2.59204         4.26948
LJ           -5.8005        -1.61255         5.82912
LJ          -1.94167        -4.73496        -6.38574
LJ          0.098781         3.11175         6.30946
LJ         0.0468656         3.81644         -5.7217
LJ           5.46476        -1.93811        -6.37498
LJ         -0.397734         1.06515        0.908739
LJ          -1.63646         3.88115        -4.03342
LJ           5.30649         3.00249         1.39822
LJ          -6.04575         4.63934         -3.5626
LJ          0.618871        -1.70991         5.74854
LJ          -5.07372         3.03731        -5.50072
LJ          -5.49773        -3.76719        -5.39509
LJ          -2.54255         3.34054         1.19507
LJ          -0.86271         2.44415         3.24489
LJ          -2.86289        -2.72143        -1.77333
LJ          -1.32815        -6.21724         3.25861
LJ          -6.10087         3.67483        0.273949
LJ          0.124231       -0.445606        -3.30569
LJ           5.95402        -5.94879        -4.34781
LJ          -2.86756         6.15666         4.99473
LJ           2.76249         -1.6344        -2.97849
LJ           5.84795        -0.53278       -0.255376
LJ          -1.67486         3.01719         1.69647
LJ           2.81637        -4.16195         6.34665
LJ           -6.0575         1.26979        -4.69418
LJ          -2.23256          6.2134         6.02236
LJ           4.54657        -2.85369        -3.56912
LJ           1.11469         2.80485       -0.205523
LJ          -1.52834           3.293        -6.05923
LJ           1.87495         4.55731         6.17694
LJ          -5.03188        -1.47659         3.73223
LJ           3.67053         3.34113         1.49086
LJ          -2.97006         1.60176         2.76973
LJ          -4.91311        -4.78911         5.07648
LJ          -2.18145         3.82721        -5.48226
LJ           3.55226         -1.5706        0.961102
LJ          -3.97997         2.29455         2.21413
LJ          -4.18565        -4.99368        -4.40244
LJ           3.22809       -0.106297         4.41131
LJ         -0.379412         3.10204         4.81125
LJ         -0.837181         3.50162       -0.630605
LJ          -2.27224        -3.49791         1.00273
LJ           6.31974       -0.968945         2.55888
LJ           1.61241         5.63776         3.49706
LJ          -5.27741        -3.51413         5.17716
LJ         -0.171653         -3.6558        -4.36167
LJ          -3.11694         4.22905         3.31135
LJ         -0.308004        -1.47672        -3.91397
LJ          -3.60071         1.51006         3.92904
LJ            4.4179         2.83878         2.33509
LJ           5.64198         4.74022         1.36441
LJ          -6.35212        -5.77121        -2.57996
LJ          -1.39001        -2.29101        -5.18701
LJ           1.84748        0.853562         1.27835
LJ          0.221586        -5.95907        -5.21977
LJ          -4.86408         3.39577        -1.07127
LJ         -0.927695        -4.65722        -3.12018
LJ          -6.37696         5.78844         -3.3783
LJ           1.62805         4.44976        -1.27603
LJ           3.13211         4.55969        -2.57962
LJ          -3.73364        -1.38796         6.37082
LJ          -4.06561         4.47146         -3.6647
LJ           1.00232        -2.23784        0.883744
LJ           2.68278         3.57362         5.82712
LJ          0.588642        0.259666          5.1154
LJ          -4.93148        -1.99635        -5.00576
LJ          -6.24875         3.51822         -3.7717
LJ          -5.18689        -4.49602        -4.22306
LJ         -0.623573        -5.78414        -1.58683
LJ          -4.55025        -5.41181          2.3032
LJ           -2.6601        -1.24535         1.40728
LJ          -6.44334        -4.20094        -2.89314
LJ           4.31695         5.37555         1.13039
LJ           3.69213         5.63056        -2.83668
LJ           6.07201       0.0884111         3.63073
LJ          -4.53211          -4.875        -5.74882
LJ            3.7882        0.323892         1.23904
LJ         -0.340027        -4.06807         1.38516
LJ           5.10406        0.298413         1.49743
LJ          -4.39847         4.86267        -5.47333
LJ           4.74375         5.25988       -0.043085
LJ           5.23573         1.66308        0.373712
LJ          -4.64104      -0.0371664         3.20675
LJ         -0.806268         -1.7448        -2.80531
LJ         -0.707416         -5.6857         6.37965
LJ           6.13992        0.959241        -1.22942
LJ         -0.208935         4.06595         5.18585
LJ          -3.34331        -1.92011        -2.64986
LJ           4.86939         4.87398        -5.68198
LJ          -5.94919        -1.92763         -5.9596
LJ          -2.76551         5.39666         2.71092
LJ           1.73198         1.84676        0.585706
LJ          -5.48885         5.36473        -2.33814
LJ           2.47626         1.82766         1.60385
LJ          -4.47174         3.68482         1.11335
LJ          -5.84973         3.39148       -0.799157
LJ          -1.79455         4.88056         4.62756
LJ          -5.77842         2.75337        -2.39414
LJ            5.9547        -1.29838        -2.60885
LJ           2.97016         2.07833        -1.47626
LJ          -3.21459        0.871672        -2.01469
LJ          -1.40787        -4.39722        0.865948
LJ         -0.189664        0.445043        -2.42229
