108
#Comment!
LJ          -1.73336         2.97476         4.83223
LJ          -3.98318        -5.87082        -2.85153
LJ           5.36777        -2.44742         6.19218
LJ            2.6478         3.50736         1.54659
LJ          -1.02561        -5.25265         4.81902
LJ           2.27476        -4.00218          1.1134
LJ           1.32794         5.34211        -2.22036
LJ            4.6082          4.6232         -4.6398
LJ          -5.71377         4.76411          2.3597
LJ          -3.48179        -1.72787        -4.90225
LJ         -0.352446       -0.674026        -6.27694
LJ            1.7505        -5.17229        -1.84351
LJ          -1.14065          6.1957       -0.224227
LJ            4.5708        -3.91075         5.92627
LJ          -1.57717        -5.30333         6.25992
LJ           5.99358        -5.97817         -1.9009
LJ          -3.97465        -5.64423         -4.1453
LJ           1.46698        -4.70856       -0.314403
LJ             -5.57        -3.10171         -3.4734
LJ          -2.98178         3.43139         5.07509
LJ          -1.92106         4.21529       -0.626998
LJ           1.30766       -0.993189        -1.58612
LJ          -5.18389         2.92665        -3.37694
LJ          -2.92996         1.30087        -4.59885
LJ            -0.225         3.39716         -5.6211
LJ           4.01551         5.93157        -0.98108
LJ           2.56644           4.674         2.83508
LJ          -2.39277        -2.84919        -3.50685
LJ          -2.45581        0.133452       -0.607037
LJ          -5.82518       -0.306706         6.11588
LJ          -6.02027         2.10162        -3.68584
LJ           4.08897         2.03749        -2.60302
LJ          -5.89434         4.89271        -2.03224
LJ            -1.826         5.23362        -1.62968
LJ           2.01732        -1.72212         2.28269
LJ           2.41179         4.23246         -3.8653
LJ           6.23208        -2.83573        -1.31672
LJ           1.10496         2.99461        -3.86822
LJ         -0.542132        -4.57991        -5.85732
LJ          -1.36375        -5.42828        -1.76093
LJ           4.30952          2.5106         3.17053
LJ           -2.8798       -0.974303        -4.29318
LJ          -2.64482        -1.13237       -0.588144
LJ          -3.96604         2.30294         -1.8184
LJ           5.08017        -4.67777        -6.28138
LJ          -3.62139         1.97064       -0.769272
LJ           5.58651         4.24417        -4.90009
LJ         -0.374312          3.7476        -2.01891
LJ            1.9138         1.10232         3.98297
LJ          -3.85754        -1.35733         4.42195
LJ           3.13707        -1.99392         4.06973
LJ          -5.62195         5.20679        -6.45822
LJ          -6.20686        -3.39943        -5.30388
LJ           -4.5727        -1.21733         6.15655
LJ           5.61119        -3.45642        -5.45214
LJ          0.328314          5.9358        -3.15755
LJ          -2.25127          3.7401         2.77459
LJ           2.27974         2.86335         2.65854
LJ          -2.51436         -1.9335         4.11292
LJ           5.83035         5.08046        -2.73782
LJ           2.70893         1.85242         2.59912
LJ          -1.99725        -6.42326        0.402915
LJ          -6.35049        -4.62427        -5.74215
LJ          -2.18914         1.47689         -2.1281
LJ         -0.312523       -0.107418       -0.314098
LJ         -0.942428         -4.2839       -0.342848
LJ           2.11103          5.9832        -6.30522
LJ           6.23419       -0.927394        -4.22613
LJ          -6.14598         2.42652        -2.59319
LJ          0.811127        0.887106         1.26422
LJ           3.16528         3.01015        -1.06571
LJ          -1.23287         5.36396         1.79624
LJ            3.3254         1.70508        0.670396
LJ          -1.91848         2.15336       -0.949887
LJ           3.87333        -5.68285        -4.54434
LJ          -5.61337        -1.36951         -6.3992
LJ          -2.23081        -5.49208        -5.09972
LJ          -3.49873        -3.76656         3.83609
LJ            3.8151       -0.555029       -0.758872
LJ           2.64885         5.09658        -1.51427
LJ          -6.33738        -6.32217        -4.94751
LJ         -0.842847          0.4472         -1.3595
LJ          -1.17592        0.532534         -0.2256
LJ           6.03997        -3.63856         5.27803
LJ          -2.12602         4.71302        -5.52697
LJ          0.397522        -5.30666        -1.34411
LJ           6.20685        -4.73044        -3.98327
LJ         -0.698141         4.93582       -0.958006
LJ           3.19923        -2.91405        -6.38255
LJ           6.11476        0.628453        -3.35331
LJ          0.772293        0.344318        -3.00894
LJ           -0.7482        -5.81862       -0.743877
LJ           4.03964        -1.88646          -1.299
LJ           4.01571        -1.37984         4.64319
LJ          0.558291        0.669326       -0.391654
LJ           5.15707          -3.932        -2.66748
LJ           5.68978       -0.631114         2.44683
LJ          -3.52434         3.18663       -0.606083
LJ           1.27918        -2.62124         4.65633
LJ          -3.18494        -2.20212        -5.95375
LJ          0.670907         6.17766        -4.45662
LJ          0.341533         1.59785        0.343141
LJ          -4.55147        -3.44524        -4.67897
LJ           4.54444       -0.508035         3.81818
LJ         -0.218985         3.46319        -4.00736
LJ           4.95088         1.27061         4.19608
LJ           3.97651         1.24081         2.92957
LJ          -5.54824         4.90603         5.43842
