108
#Comment!
LJ           5.60637          3.8193        -2.76329
LJ           1.53973          1.9358       -0.678184
LJ           -3.4199         1.59456         2.27605
LJ           1.50238          3.2982        -1.96884
LJ          -3.07697         2.62755        -4.48782
LJ            2.6171         2.39912         5.56057
LJ           6.22564        -3.23353        -4.52583
LJ         -0.792552       -0.829692        -2.79819
LJ           -3.8906        -4.70934         6.14448
LJ         -0.739883        -1.12083         3.91577
LJ           1.15781         1.53891         3.20141
LJ            5.0953        -2.74042        0.759097
LJ          -6.09812         4.95616         1.29755
LJ           1.95918          2.6115        -2.97218
LJ           2.34103         3.58058         1.39141
LJ          -5.79873        -1.92818        -2.71913
LJ           3.29337       -0.545318         3.56361
LJ           4.09251         1.44553        -3.04893
LJ           6.27065         3.23669         4.59986
LJ          -5.12601         3.65551         2.47229
LJ          -3.82194        -2.79168        0.432147
LJ           -2.4875         4.68187        -2.26391
LJ          -1.64003        -4.13885         4.57617
LJ          0.747331         1.81261         -5.0945
LJ          0.448828         2.16769         2.76774
LJ          -3.80015        0.347775        -2.01349
LJ            1.0376        -2.66729          2.1978
LJ          0.231053         5.70312         3.58344
LJ           2.63169          -2.284        0.228976
LJ           2.37046        -1.31551        0.665012
LJ          -1.77911         3.87507        -4.48295
LJ          -3.02459        -1.79873         1.43265
LJ           5.94683        0.870076         4.09431
LJ          -1.20385        -5.55213         3.63504
LJ           -4.8637         -6.2411        -5.88081
LJ       -0.00222769         3.90393         4.51116
LJ          0.848172         4.68213        0.367945
LJ           1.78846         -2.2613         1.50406
LJ         -0.237408          1.4625        -1.92952
LJ          0.904729        -3.78437         1.60206
LJ           1.74189        0.527348        -1.91831
LJ           3.74642         6.35353         -2.2344
LJ           4.60426         6.35939       -0.651854
LJ           2.02724        -2.01898          5.3688
LJ           3.89755        -4.12776         -2.5463
LJ           2.44907        -5.73302        -1.75966
LJ           -1.0104          2.8719        -3.59059
LJ           2.64453        -0.98413         5.94956
LJ          -1.65318         3.50019         1.84736
LJ           1.53268        -1.10076         2.73482
LJ          -5.82711          3.0942         1.95628
LJ          -4.77163        -2.36222        -1.55992
LJ            5.9846          3.0409          2.9375
LJ          -1.29387         3.24947        0.100885
LJ           6.36556        -6.38921        -2.24597
LJ           2.19048        0.447926          1.5279
LJ           1.16671        -1.26172        0.800076
LJ           1.08208        -5.96234         6.36404
LJ           5.90835          4.8046          4.6493
LJ           4.84604         2.15099        -3.91092
LJ           4.30284        0.474066        0.521301
LJ           -2.0003        -5.45926        -3.74974
LJ           1.56608        -3.01901        -4.82564
LJ          -2.93294         -4.8416         4.21646
LJ           -4.1465         4.57449         1.39281
LJ           1.76256       -0.905321       -0.479398
LJ          -2.92851         1.26063         -3.6917
LJ          0.903266        -2.70139        0.507265
LJ          -6.00441         2.87291        -5.88539
LJ          -5.45669         1.78351        -1.28423
LJ           3.51518        -6.25027        -5.09974
LJ          0.250495         2.61971        -1.13679
LJ           2.79996        -2.00345         1.83434
LJ           3.38711          1.9935         4.60109
LJ          -1.67074         6.41802         1.11781
LJ          -5.56939        -3.37606        -5.59549
LJ          -3.92854         2.24244        -5.47816
LJ          -2.20113        -2.98535         6.40363
LJ           5.01134         -1.8649         -4.7369
LJ           4.68568        -1.23781         -3.4859
LJ           3.39726         3.76163        0.687213
LJ          -6.08093         3.11499         3.72774
LJ           2.67271         6.40372        -2.89326
LJ          -2.12206         5.71507         3.24721
LJ          -2.57163        -5.62115         3.22231
LJ           5.49726        -5.66886       -0.790394
LJ            2.4818         2.01856        -4.32427
LJ          -5.05929         5.30679         5.09909
LJ           2.02038        -6.40605       -0.819478
LJ          -3.85263         4.89967         4.04524
LJ           2.80558        -5.42518        0.390036
LJ          -2.88123          6.1896      0.00150434
LJ          -3.95028        -3.24888        -1.44761
LJ          -4.62452        -1.26571         2.30104
LJ           5.86063        -3.08544        -3.18958
LJ          -4.72983       -0.462727         1.46211
LJ          0.953447        -5.98086       -0.795797
LJ          -6.09509         4.50684        -3.44262
LJ          0.461284        -3.61241       -0.196616
LJ           5.27211         3.64693           1.893
LJ          -3.25952        -1.66714       -0.960435
LJ           5.55591         -1.7676        -5.99433
LJ           1.73176         5.83464        -5.77894
LJ           -5.8269        -4.09765        -6.27059
LJ          -3.25598         6.00818         1.97202
LJ           -1.5527         1.95379        -4.04124
LJ          -3.26817         5.30314        -2.17963
LJ           5.98102         1.64353        0.495728
