108
#Comment!
LJ          -1.80825         2.83717         3.73351
LJ          -2.98312         6.19239        -4.04204
LJ           3.34029        -3.06755         5.31188
LJ           4.23754          4.3507         1.31095
LJ          -1.11107        -5.28972         3.68644
LJ           1.19168        -4.00222         1.96347
LJ           1.81895         5.32722        -2.96228
LJ           6.00738         5.07143        -3.66712
LJ          -4.87408          3.7602         3.91684
LJ          -4.42371        0.502502        -4.11101
LJ          0.154097         -1.4884        -5.23082
LJ           1.74906        -3.94653        -2.32736
LJ          -2.17193        -5.60286       -0.720821
LJ           5.18043        -4.24149         5.52087
LJ          -1.62615        -3.44511        -6.08374
LJ          -4.81239         4.82063        -2.19661
LJ          -2.26476        -5.40723        -4.01633
LJ           2.70717        -5.41267       -0.084466
LJ          -5.56012        -2.26086        -3.60536
LJ           -1.3546      -0.0587578         4.77533
LJ          -1.53395         4.50812       -0.211601
LJ           1.69482          1.1357        0.686685
LJ          -3.98766       -0.113263        -5.31606
LJ          -2.53121       0.0194256        -5.15987
LJ          -1.17674         5.51023        -3.57466
LJ           4.61486        -6.34417        0.360695
LJ          0.073006         3.71326         4.37826
LJ          -4.43223         -4.1518        -4.93387
LJ          0.100475       -0.367818         1.05474
LJ           5.65034         2.09352         6.09653
LJ           6.04752         1.76632        -4.19642
LJ           6.33004         1.21157        -3.12469
LJ            5.9187         6.40528        -1.13764
LJ          -2.35628        -5.30228         -2.4116
LJ         -0.461718        -1.37457         3.49947
LJ           2.91149         5.75512        -3.98796
LJ          -6.13441        -3.99484         2.49251
LJ           2.03554         1.97194        -3.78228
LJ          -1.10738        -3.16904        -4.61934
LJ          -1.88728        -4.14818        -2.00827
LJ           3.28666         3.36086          1.5576
LJ          -1.97057        -1.80599        -3.99557
LJ          -2.15657        0.222691        0.163132
LJ          -3.72722         3.08317        -2.28776
LJ           4.95564        -5.05144         6.28632
LJ          -2.91735         2.55551        -1.76409
LJ          -6.37796         4.61722         -4.7477
LJ            -1.541         4.30958         -3.7086
LJ          0.068086         2.82479         4.99303
LJ          -3.55356        -1.48676         2.86562
LJ           2.90591        -4.59805         3.59265
LJ          -4.22132         3.27278         5.46337
LJ          -4.41211        -2.88557        -6.35828
LJ          -5.04654        -1.81174        -6.21702
LJ            4.0651        -4.25721         6.10278
LJ         -0.484909        -6.34638        -6.04752
LJ           -2.4592         3.99651         3.71593
LJ           4.39537         3.57399         4.22508
LJ          -2.48163        -3.87232          4.7944
LJ           4.77952        -6.10924        -4.17514
LJ           2.11854         3.51297         4.55528
LJ          -2.66038         5.76377        0.904316
LJ          -5.45692        -5.29637         5.93406
LJ          0.158777         2.44662       -0.981587
LJ           1.80875       -0.148098       -0.611026
LJ          0.652003        -5.06978        -1.12059
LJ           3.13812         4.48393         3.31076
LJ          -5.43656       -0.758999        -1.06454
LJ          -5.05214       -0.586578        -4.65966
LJ          0.442184         1.14354         1.92973
LJ           2.60862         2.05158       0.0878196
LJ          -1.31439         5.56898         2.77884
LJ           2.12314         1.75846        -2.03411
LJ          -2.73407          3.5213        -3.54936
LJ           1.46408         6.35132        -1.72812
LJ          -2.48564      0.00979361         6.13948
LJ            -2.023        -4.14058        -4.01904
LJ          -4.74075        -3.87521         3.63102
LJ           2.89302         0.85285        -1.52692
LJ           1.15565         3.50254        -4.75053
LJ          -4.64201         5.79088        -4.62969
LJ          -2.55285        0.503241        -1.03689
LJ           -1.8624          1.1418        0.396104
LJ           6.28088        -4.54472         5.53662
LJ          -2.71605         3.64866         6.43234
LJ           2.61666        -6.14605         1.54515
LJ           4.81359        -4.47367         -3.6725
LJ          -1.69675         3.11902        0.897713
LJ           2.30004        -4.48232        -6.00609
LJ           4.61446         1.64425        -4.14943
LJ           1.17539       -0.640488        -2.85062
LJ          -2.03428        -4.28177       -0.825576
LJ           5.32397        -2.41673        0.644164
LJ           2.97207         -2.5604        -6.25316
LJ           2.40609       -0.641227         1.72958
LJ           4.16745        -5.29361         -2.7915
LJ           4.90725        0.791138        0.530009
LJ          -5.73178          4.6667        -3.28268
LJ            2.6624        -3.53833         2.69811
LJ          -3.82687        -2.42608        -5.44628
LJ          0.183304         -6.0749        -4.91163
LJ          0.944763        0.191096        0.814342
LJ           -4.2337        -1.02715        -5.79841
LJ           3.39419       -0.488068         4.77188
LJ          -1.61519         3.84576        -4.62286
LJ           4.38169        0.689287         3.88259
LJ           4.11056         2.85685         3.24556
LJ          -5.73591         5.23571         4.94996
