108
#Comment!
LJ         -0.899467         3.38557        -4.45712
LJ          0.414442        -2.34513         4.70909
LJ          0.559419         2.93389        0.077495
LJ           4.00269         5.42687        -4.10025
LJ          -6.06391        -1.85605        -2.40877
LJ           5.33978         1.28053        -4.98876
LJ           -4.9426         -3.2622         6.02438
LJ           1.40683        0.430041         1.10639
LJ          -2.99727       -0.454814         2.04168
LJ         -0.404426         1.08177        0.895346
LJ           4.03136        0.904033        -3.81152
LJ          -5.30021         2.28716         6.09782
LJ           4.45191        -1.06989           1.973
LJ           4.03439        -4.23948        -6.10302
LJ           2.92241        -1.78376        -1.69736
LJ          -1.18538        -2.91763        -1.11427
LJ           1.25491        -3.87968         1.26332
LJ          -1.33967        -1.93522         3.93832
LJ          -3.73157        -5.29342         3.06386
LJ          -5.02585         2.27363         4.22106
LJ          -4.13218       -0.432435         3.15979
LJ          -5.98983        -1.83402         1.11215
LJ          -4.70264       -0.525846         4.52782
LJ           1.32119        -1.16238        -2.59585
LJ        -0.0367025         1.66027        -5.06222
LJ          -2.03678        0.697361        -4.01662
LJ          0.627135        -4.59189         3.37894
LJ          0.298771         6.20887        -3.41429
LJ          -0.49247        -1.40927         1.13615
LJ           3.24081         6.15767        0.593349
LJ          -1.21355        -5.11654        -5.56142
LJ           2.93705           6.225         2.81915
LJ           5.38736        -3.72632         6.30535
LJ            0.3718         1.42866         1.43804
LJ          -3.09617          4.8325         2.53178
LJ           -3.8205         3.93246        0.091227
LJ          0.413583          4.9049         -3.8682
LJ           3.91853        -5.03664      -0.0195552
LJ            2.6911        0.669023         2.64338
LJ           4.15922         -5.6758         3.20961
LJ          -1.56902        0.370967         0.49242
LJ           2.97733        -4.99837         3.91927
LJ           4.94138        -6.27419       -0.976497
LJ           0.75259      -0.0586423        -6.44809
LJ           3.69726         2.36773        -4.21673
LJ           1.77405         3.92802         6.27195
LJ         0.0650467        -5.46646        -4.22097
LJ         -0.452362         5.76085        -6.08754
LJ           5.62263         6.39363         3.96823
LJ          0.293522        -6.17726         -1.7881
LJ          -3.74262         6.44312         4.10215
LJ          -4.14098        -3.16836         -4.4057
LJ          -2.90624       -0.783971         5.71898
LJ           5.25038        -5.40574        -4.10888
LJ            4.7031       -0.946353       0.0736884
LJ           6.44618         6.41639          2.1136
LJ           4.00033         3.11696         3.59281
LJ           1.48805          1.0762         6.24042
LJ          -2.16429         2.05428         3.59548
LJ          -1.71534         5.78314          3.9547
LJ          -1.67973        -1.78833         -5.2788
LJ           6.22918        0.417713        -5.37506
LJ           6.06675        -5.02335         3.21144
LJ        -0.0606117        -5.33599         -3.1752
LJ          0.929695         3.44706         3.88478
LJ           2.20566       -0.800783        -3.79708
LJ         -0.484963        -2.15723        -4.92569
LJ          -3.37727         2.90282         6.35122
LJ         0.0266501        -2.75962       -0.876211
LJ         -0.687918        -4.59008          4.3323
LJ          0.722325         5.01376         1.85031
LJ           2.78431       -0.627803        -0.22031
LJ           4.39417         6.40249         2.63719
LJ          -5.44438         2.46037        -3.02514
LJ           1.62185        0.113494         2.69128
LJ           -2.4506        -6.20171        -4.43709
LJ          -1.04161       -0.489636         3.44215
LJ           1.19326         5.02788        -4.53519
LJ         -0.206013         5.84961        -1.85949
LJ          -3.90113        -2.02687        -1.78267
LJ          -1.40812        -4.87506         3.34932
LJ           5.77388         4.62218         4.93175
LJ          -1.48707           5.116         -6.0153
LJ          -3.84107          2.1757        -5.19114
LJ           5.04208        0.367246        -2.59869
LJ          -3.59544        -2.40496         1.56118
LJ           1.63954         4.73804         -3.6816
LJ          -1.18568       -0.748555        -4.59099
LJ          -1.29249        -4.83374        -4.00981
LJ          -2.94131         2.51876         4.25633
LJ           4.90106        -4.53921         2.92687
LJ           1.21013        -1.26109        0.958256
LJ          -2.61995        0.908082         5.72208
LJ          -2.90181        -5.78725        -2.69394
LJ         -0.955621         3.17013         2.90007
LJ           2.25723         1.60196        -2.57017
LJ           1.19564         3.03826        -6.31224
LJ           -1.7562         -2.5558        -4.32073
LJ            5.6421         3.43382        -4.56475
LJ          -4.32806       -0.280353        -4.59002
LJ          -6.24169         0.39278         1.44162
LJ           4.75007         1.39923         3.97173
LJ           3.63543        -4.25198         3.17431
LJ          -4.77708         5.42963         2.43334
LJ          0.583354        0.965593         0.20529
LJ         -0.162074          -3.426        -1.89007
LJ           6.05668         -6.3574         0.55345
LJ           0.58883       -0.530253         5.06395
