108
#Comment!
LJ          -3.68532         3.27957        -4.29197
LJ          -0.08839       -0.469464        0.274642
LJ          -2.86078         2.16575         2.21721
LJ           1.69214         4.23442        -2.84212
LJ          -0.92349        -1.42338        -3.32198
LJ           5.67875         2.06085        -6.14861
LJ          -6.20751        -3.64897        -5.95571
LJ          0.719884        0.378416        -2.58492
LJ          -1.75813        -2.31131        -2.11491
LJ          0.715726          1.2465         1.60355
LJ           2.91276         3.93349        -1.34528
LJ          -5.18198          1.3047         3.39285
LJ          -4.24751         2.36704         1.31401
LJ            1.1695        -1.30592         2.12963
LJ           1.60104        -6.36004        -1.06154
LJ           2.66869        -1.60493        -2.01952
LJ           1.51058         4.92364         2.31074
LJ           1.31292        -1.82478         1.23457
LJ          -5.02153         5.25804          3.6355
LJ          -4.46081         2.98477         2.10073
LJ          -3.88821         -1.5286         1.12305
LJ          -4.52984        -5.97149          1.3897
LJ          -1.78867        -1.33555        0.904032
LJ         0.0309935       -0.523047         4.83609
LJ          0.903451          1.5901      -0.0594377
LJ          -2.42338        -1.49937        -1.47117
LJ           3.44102        -5.02526         2.78122
LJ          -1.13181        -4.52579       -0.390715
LJ           1.33029       -0.485507         0.65962
LJ           3.87547        -2.89156         0.63069
LJ         -0.560572     -0.00834136        -4.72469
LJ            5.9084        -4.15517          2.2889
LJ           5.75748        -1.79803         5.05382
LJ           0.55778        -2.81129         3.66397
LJ           5.71598        0.821712        -1.86086
LJ          -3.04184         3.04731         1.16881
LJ           2.00675         3.26416        -2.18148
LJ              3.44        -3.80594        0.769011
LJ         -0.616603         1.56059       -0.155189
LJ           3.58173        -6.04479         2.06683
LJ          0.426393          5.7729        -6.34388
LJ           2.85251        -6.02981        0.942663
LJ           4.59562         5.72612        -1.35827
LJ         -0.837229        -2.16097        -5.39138
LJ           3.23322         3.57331        -2.61617
LJ           1.07648         5.16868        -3.04028
LJ           1.10966        -5.08432        -5.42856
LJ           0.03378         4.79038        -4.73089
LJ          -3.93208         6.27267         3.78571
LJ          0.289453        -2.47144        -5.96363
LJ          -4.62389         4.50112         2.20101
LJ          -1.94016        -2.18807        -4.55453
LJ          -6.38535          1.0096          3.1016
LJ           1.81308        -6.37529        -2.43888
LJ         -0.275787         3.23211        -1.24856
LJ           4.25248        -4.62663         1.57289
LJ          -3.30599         0.95061         4.36142
LJ          -1.27867        -3.35072        -5.65742
LJ          -3.24197         2.52129         4.87544
LJ           1.07354        -3.09882        0.442485
LJ          -5.46176         1.01923         -3.7384
LJ            2.4056        -2.13463        -4.63181
LJ            2.5102          -3.762         5.22336
LJ          -0.79162        -1.89247        0.293538
LJ           4.05954         3.73988         2.50468
LJ        -0.0268997        -0.75993        -2.21061
LJ          -1.04882       -0.484995        -2.84546
LJ         -0.297466          1.7346        -3.65899
LJ          -3.68831       -0.156786         4.03918
LJ          -2.81043       -0.876416         2.39067
LJ           2.90331       -0.823452     -0.00677681
LJ         0.0719431        0.261393        -1.37911
LJ           4.62196        -3.94903        0.513242
LJ            5.8762         2.17629        -4.97245
LJ          -6.38523        -3.13585         1.25859
LJ          -3.52712        -4.44623          -4.507
LJ          -2.46499         1.01853         5.16032
LJ           0.04068        0.802568        -6.39763
LJ           2.68022         1.73755         2.29915
LJ          -5.40829        -1.90545        -2.41121
LJ         -0.263044        -6.12448          1.2793
LJ           5.76768         4.28642         4.31306
LJ           1.03892         4.94467         -5.0154
LJ          -4.42221         2.92775         -6.1223
LJ           4.63856         5.87653         1.58201
LJ         -0.691606        -2.59089         2.42025
LJ           2.77549         2.60147        -2.30158
LJ          -2.89521        -4.34314         6.33743
LJ           2.42321         4.94369        -1.81653
LJ          -2.98984         3.54449         4.59132
LJ           2.11507        -5.89498         2.45108
LJ          -0.55717        -1.43081         3.94028
LJ          -2.69118        -1.12733        -4.82713
LJ          -4.23354        -3.00121        -5.93542
LJ          -2.89107         4.83345       -0.210106
LJ           4.61367           1.482        -1.81991
LJ           1.23458         4.11632        -3.86097
LJ          -4.53945        -5.93904        -4.83801
LJ          -3.68554         6.23048        -2.61563
LJ          -5.23779        0.610259         5.02538
LJ          -2.93264        -0.73843         1.21865
LJ            5.1373        0.206691         5.66016
LJ           2.60689        -5.84501         5.55813
LJ          0.105779         5.28366        -3.91397
LJ         -0.960211        0.149998        0.808353
LJ           -2.3298        -2.98634       -0.403717
LJ          -5.45303         -6.1973         5.17866
LJ           2.61749        -4.56689        -3.45307
