108
#Comment!
LJ          -2.10005         3.00827         5.85068
LJ           -4.7606        -4.83913        -2.78876
LJ           4.47374        -1.56595        -5.38908
LJ           1.60916         3.03936        0.888143
LJ        -0.0731469        -6.10855         3.99045
LJ            3.1204        -4.08163        0.225915
LJ           2.08287           4.475        -1.12983
LJ           3.64939         4.43591        -5.28579
LJ            -6.226         5.25045        0.573732
LJ          -2.39545        -2.45224        -4.23302
LJ         -0.786466      -0.0098995          5.7832
LJ          0.909646        -6.27384         -0.8124
LJ       -0.00173885         5.39502       -0.325582
LJ           5.01269        -2.90879        -6.44434
LJ          -1.42998         6.33924        -5.68677
LJ            3.8926        -4.84502        -1.57736
LJ          -4.78893         6.16441        -2.92944
LJ        -0.0388225         -4.9484        -1.00854
LJ          -4.90666         -2.1027        -1.47464
LJ          -3.85841         6.37862          5.1561
LJ          -1.50802          3.2028        0.204563
LJ          0.269736        -2.63926         -3.0718
LJ           6.26466         3.54389        -3.52962
LJ          -3.21421         2.27775        -4.02538
LJ          0.420498         1.37733         6.23772
LJ           3.39153          5.3345        -2.15238
LJ           4.08719         4.58823         0.88358
LJ         -0.751942        -1.67967         -2.4996
LJ          -3.29168        0.948781        -1.31967
LJ          -5.37455        -1.59604         5.48579
LJ          -4.85985         2.77799        -2.13127
LJ           1.39766         3.37553        -1.98003
LJ          -4.73868          6.4626        -1.88316
LJ         -0.939703         4.33394        -2.22202
LJ           4.13494        -2.04174         1.38443
LJ           3.05271         3.48539         -3.2275
LJ           5.73418        -1.98438        -4.69619
LJ          0.616189         2.95658        -3.99994
LJ         -0.291547        -5.94943         5.94695
LJ         -0.798177        -5.53463        -1.02752
LJ           4.23588          2.1327         3.96081
LJ          -3.40005        -1.15525         -4.9843
LJ          -2.59099         -1.5927        -1.19373
LJ          -3.99547         1.80196        -1.08286
LJ           5.23854        -3.48394        -5.47867
LJ          -3.77024         1.80973      0.00529654
LJ           4.65895         4.05482        -4.90399
LJ          0.359269         3.56059       -0.735786
LJ           3.05791       -0.337852         2.82246
LJ          -4.29468        -1.28319          3.5372
LJ           2.13707       -0.624979         3.42429
LJ           5.74877         6.40241         -5.4058
LJ           5.27057        -4.71399        -4.41442
LJ          -5.43679        -1.23906        -4.30872
LJ            4.6557        -2.39385        -4.60286
LJ           1.04412         6.13488        -2.15627
LJ          -2.57139          2.8951         2.46237
LJ          0.376679         1.14909         2.72502
LJ          -2.09318        0.391887         3.56993
LJ          -5.61224         4.24176        -2.02838
LJ           2.48664        0.415294         2.33324
LJ          -1.16499        -5.92946      -0.0188227
LJ          -6.11088        -5.42051        -6.31121
LJ           -4.7569         1.29512         -2.1162
LJ          0.668017        -1.74255        0.722955
LJ          -2.40459        -4.43364      -0.0212658
LJ           1.84853        -5.38789         -3.0614
LJ           5.09017         -1.3181         5.91065
LJ           5.89881         2.59253        -1.06915
LJ          0.895381         0.71845       -0.123706
LJ           3.30877         2.98483        -2.26563
LJ         -0.877173         5.97994        0.451412
LJ           5.36432         2.43334         1.85137
LJ         -0.740098        0.559517        0.254585
LJ           5.96351         -4.7242          5.8794
LJ          -5.99016        -2.55409         6.33282
LJ          -3.07705         6.02172        -5.49077
LJ           -2.3893        -3.56403         4.05316
LJ           4.31196        -2.19048       -0.647432
LJ           3.37974        -5.95103        0.827717
LJ           5.47543        -5.16166        -5.53836
LJ          -1.29014         1.34325        -2.17787
LJ          -2.55471        0.671579         -2.0938
LJ           6.33438        -3.60491          4.4242
LJ          -1.59027         5.70185         -4.7517
LJ          -1.29701        -4.43449        -3.37269
LJ           6.36049        -5.02559        -3.89618
LJ         -0.190456         5.95439        -2.45373
LJ           4.38289        -1.95443         5.96652
LJ          -5.20946        0.345742        -2.21124
LJ          0.364189         1.17201        -2.94279
LJ          0.740316         5.67226        -1.29346
LJ           3.06039       -0.862813        -2.32915
LJ           5.84628       -0.216224         4.40836
LJ          -1.02496         2.80518         -1.4173
LJ           6.26405        -2.95541        -2.72973
LJ           5.89644        -1.48918         4.36749
LJ          -1.65405         1.04051         1.11635
LJ          0.467896        -1.78724         6.21245
LJ          -2.79983        -2.08249         6.39409
LJ          0.417638         5.22083         -2.7466
LJ         0.0304244         1.64355       -0.146342
LJ          -4.44521        -5.61336        -4.77799
LJ           5.94681       0.0241815         2.26083
LJ         -0.547102         4.06901        -3.87509
LJ           5.50746        0.834643         4.51567
LJ           4.59527        0.860387         2.79351
LJ          -5.55234         5.01978        -6.33813
