108
#Comment!
LJ          -2.56207         3.08929        -5.83331
LJ          -5.78807        -4.18285        -2.88632
LJ           4.23244       -0.611152        -3.52325
LJ          0.564674         1.45702        0.864739
LJ          0.943189         5.77807         3.42434
LJ           3.38894        -4.45267        -1.51875
LJ           2.61744         3.09032       0.0669162
LJ            2.8725         4.04817        -5.45173
LJ           5.99247         5.63305        -1.59422
LJ          -1.18883        -3.27436        -3.69121
LJ         -0.902737        0.765565         4.70761
LJ         -0.807814         6.11275       -0.501768
LJ          0.807232         5.03203       -0.619562
LJ           4.85124        -3.80409         5.10031
LJ          -1.57896          5.0529        -5.87471
LJ            2.1884        -3.19357       -0.889895
LJ          -5.34036          4.4509       -0.113601
LJ           1.31431         -3.4067        -1.99339
LJ          -4.18587       -0.840683         0.80155
LJ          -4.36089        -4.67148         5.90131
LJ         -0.749289         1.51741         1.23195
LJ          -1.64468        -4.12559        -4.61921
LJ           4.36881          3.0248        -4.18543
LJ           -3.5216         3.31894        -3.07259
LJ          0.814695        -1.12522         4.77007
LJ           2.15642         4.48765        -3.27183
LJ           6.03739         4.55438        -1.55389
LJ            1.4327       -0.406415        -1.40267
LJ          -2.87237        0.486855        -2.47853
LJ           -5.0194        -2.42011          4.6595
LJ          -3.83803         3.53123       -0.136736
LJ          -1.75986         2.19706       -0.850778
LJ           -3.3544        -3.19912        -1.32913
LJ           1.13051         3.93224        -3.26206
LJ           -6.2971         -2.4308        0.228266
LJ           2.67385         4.42347        -4.57574
LJ           4.20911       -0.269835        -6.43081
LJ          -1.05738          2.6187        -3.76073
LJ          0.348283         5.48121         4.21051
LJ          -2.42665        -5.90364        -1.16434
LJ           3.92145          1.6369         4.31899
LJ          -2.05768        -1.96786        -5.73611
LJ          -2.54081        -1.95509        -1.98546
LJ          -5.27623         2.15924       -0.607841
LJ             4.691       -0.154335        -5.39974
LJ          -3.93672         1.62806      -0.0831889
LJ           4.29635         3.90078        -5.96114
LJ           1.64918         3.20781        0.622774
LJ           3.45831        -1.88188           1.363
LJ          -5.32209        -1.13188         2.50316
LJ          0.100879        0.371457         4.24242
LJ           3.42858         5.20482        -3.94865
LJ           3.77591        -4.55436        -4.00514
LJ           4.78933        -1.73917         -1.8191
LJ           5.06852        -1.38768          -3.813
LJ           1.10543         6.39882        -2.41224
LJ          -2.68991         1.76794         2.16374
LJ         -0.836993       -0.587487         4.67212
LJ          -1.32989         3.09831         2.59998
LJ          -3.12336         3.47313        -2.04967
LJ           2.43378        -1.14475         1.54428
LJ          -1.12541        -4.52892       -0.771424
LJ          -5.11777        -4.95075        -6.33907
LJ           5.89322         3.07589        -1.20703
LJ           1.85874         -3.5306         1.91364
LJ          -3.93096         -4.9134        0.201809
LJ           1.31618        -4.14147         1.38415
LJ           3.64012        0.753477         4.75189
LJ           4.65738         1.09538        0.951622
LJ         0.0816668        0.573548          -1.413
LJ           3.85913         1.40915       -0.890344
LJ          0.153379         5.56998        0.410193
LJ          -4.69579         3.36889         2.74221
LJ           1.90824       -0.454775        0.486491
LJ          -5.68613        -3.63737         4.72632
LJ           -5.2352        -3.69613         5.84481
LJ          -3.90911         4.43628        -5.40303
LJ          -1.07089        -3.28945         4.33978
LJ           5.03859        -4.09046       -0.652204
LJ           4.21181        -3.65601         3.42905
LJ           5.20269        -3.42416        -6.05974
LJ          -3.25408          1.7796        -2.60674
LJ          -3.48797         1.54061        -3.98977
LJ          -6.10763        -2.24197         2.03988
LJ          -1.10851        -6.38624        -2.71427
LJ          -3.24356         -3.2373        -5.48462
LJ           4.48132        -5.45817        -3.50269
LJ         0.0129214        -5.90946        -2.74919
LJ           3.62959        -3.64894         5.30362
LJ          -2.94947       -0.164089        -0.89778
LJ         -0.440601         2.53732        -2.87812
LJ           1.54312          4.1567       -0.596606
LJ           2.01267        0.438583        -3.21324
LJ          -4.54525        -1.66869          4.0105
LJ          -2.30231         5.66594         -2.1093
LJ          -5.26152        -1.75841        -3.07474
LJ          -5.92889        -1.79454         4.36691
LJ         -0.897012        -1.68047         1.20702
LJ         -0.546261       -0.710912         -4.8807
LJ          -2.40276        -1.80262         6.22361
LJ           1.39962         5.17509        -3.27427
LJ         -0.713669        0.777821       -0.679547
LJ          -2.74499         5.37797         -6.0117
LJ          -5.72296        0.979145         1.04605
LJ         -0.663577          4.7196         -3.0358
LJ           5.86445         1.31772         4.94345
LJ          -5.70604        0.830374         2.19569
LJ          -5.57636         5.40422        -4.77021
