108
#Comment!
LJ          -1.03193       -0.300977         2.07262
LJ          -1.23102         5.25229        -1.05939
LJ          -5.30176         5.74736         5.45875
LJ          0.657479         2.60492         -5.2498
LJ          -4.98327          4.9129        -5.51791
LJ          -1.83342        -2.53291         5.34604
LJ           5.85754          5.6861        -5.11577
LJ           2.70237        -1.62734        -5.06003
LJ           -3.3179         3.44955        -6.35643
LJ           6.30633        0.344569          6.2738
LJ           2.81898        -1.78019          4.5834
LJ          0.246989       -0.916123          -1.912
LJ          -4.79346        -0.54521        -2.66579
LJ          -1.59572         5.77136        -5.89996
LJ           6.35096        0.447748        -2.64664
LJ          -6.43916         4.63456        -3.45723
LJ           2.50846        -3.44295         2.58282
LJ          -5.22751        -4.70922        0.825861
LJ           -4.2092        -4.52102        0.345663
LJ           1.53605        -3.88229        -1.38868
LJ          -3.26867        -0.99864         3.72902
LJ          -3.07082          2.6565       -0.101477
LJ          -2.21933         2.15804        -5.31926
LJ          -2.72039         2.84135         5.04907
LJ          -1.35931        -1.44057         2.11859
LJ            4.7949        -2.41662         3.78298
LJ          -1.86265         1.44354          -3.965
LJ           3.27731        -2.13122         5.82872
LJ           4.82725        -2.22695        -2.37658
LJ           3.35237         4.17287         2.63215
LJ          -5.10702         4.12758         6.40955
LJ          -6.41737        0.678879        -5.05197
LJ           2.11688         0.23068         2.18261
LJ          -1.27266       -0.136848        -3.25879
LJ          0.446495         0.70087         1.77749
LJ           6.38602        -5.44045       -0.123126
LJ          -2.43946         3.66154        -3.14432
LJ           5.47671        -4.58984         4.89958
LJ           6.45197        -2.17134         2.41917
LJ          -3.53435       -0.636065        -4.23749
LJ            4.9624       -0.344406       0.0834762
LJ          -3.05542        0.921549      -0.0704765
LJ          -2.39225        -1.90399         4.21046
LJ            5.7995         1.80232         5.81814
LJ            2.4652       -0.452291        -5.46568
LJ           3.91509        -5.87452         2.28385
LJ           5.87881        -1.94568         -3.8543
LJ           6.01604        -2.31981        -2.58407
LJ          -1.63574        -3.79692        -1.39341
LJ          -5.20262        -4.21113        -5.43147
LJ           5.96664        -1.44784        -1.82889
LJ         -0.634031         2.97471         2.32469
LJ          -2.56122       -0.894942        -4.82083
LJ           5.81486         2.76948         -4.2052
LJ           5.84134         3.89722         3.44062
LJ          -5.99648         6.19986         4.77821
LJ          -6.09985        -3.41245         5.51665
LJ          -1.87176        -5.45616         -3.0487
LJ          -2.28022        -1.43375        -1.36932
LJ         -0.376946         1.75726        -3.62544
LJ          -1.48605         3.93246        -5.23697
LJ          -2.12516         5.67671         2.03519
LJ           2.29653        -2.91797        -5.77429
LJ          -4.04189         4.87476         1.57254
LJ           1.14098         2.81993        -1.22578
LJ          0.686025         6.06196        -5.69922
LJ          -3.18295         4.35107       -0.378332
LJ          -1.30229        -1.68945        -2.82583
LJ           6.02819       -0.330942        -4.64884
LJ           6.07147         4.01436         5.28846
LJ          0.524873        -0.44742         4.27426
LJ          -6.03806         5.12949         4.51359
LJ           4.41271         5.64639        -5.74145
LJ          -6.03957         5.94005        -1.10502
LJ          -4.54814        -6.13415        -2.17338
LJ           6.11752         5.62359         4.10377
LJ           6.13162        -3.18503        -2.11402
LJ          -1.07198         4.44724         3.47168
LJ           -5.9337         2.25478         -3.7466
LJ          -2.94654        0.803579         2.22658
LJ          -2.83777        -4.48331         -2.2223
LJ             5.383        0.964899       -0.474821
LJ         -0.361295        -6.07155         1.71404
LJ          -3.77618         4.44863         6.23021
LJ          -2.49452         5.46869         5.87179
LJ           2.47437         4.95714         4.07151
LJ           4.55135         4.32857       -0.776359
LJ          -6.04672        -4.49182        0.185797
LJ          -1.22734       -0.978075        -4.94326
LJ          -1.54698         5.82081         3.92355
LJ           2.68671       -0.169209        -1.01023
LJ          -3.31356        0.980915         -3.8607
LJ          -5.77729        -3.56365         6.42862
LJ           3.25321        0.355604        -3.82745
LJ          -5.46423         -4.2846         5.21561
LJ           4.70803        -5.02829         1.10667
LJ           2.65215         4.90153         6.17786
LJ          -3.88013        -5.40803         1.25148
LJ          -2.49482         5.15788       -0.854091
LJ           4.72414        -4.31665         3.89583
LJ          -3.50981         4.84599         0.58808
LJ           6.08439        -5.30783         3.65746
LJ         -0.476325         0.33843         1.38338
LJ          -5.02479         3.00721        -5.06129
LJ          -2.13627         3.32244       -0.176619
LJ           5.92422        -4.04253        -4.51111
LJ            3.2206        0.508094         1.37693
LJ          -3.88307        -4.79446        -3.80877
