108
#Comment!
LJ           -2.9691         3.37155        -4.23298
LJ         -0.176003        -1.26209         1.21836
LJ          -2.57491         2.54954         1.42017
LJ            2.3827         5.02042        -3.38944
LJ          -1.74763        -1.63458        -4.51114
LJ          -6.21843         1.86936        -5.61808
LJ          -5.85298        -3.55753         -6.2159
LJ           1.35405        0.773373        -2.30439
LJ          -1.77726        -2.85003       -0.812522
LJ          0.355542         1.45066         1.81924
LJ           3.63813         3.36674        -1.79827
LJ          -5.12912         2.15716         4.22328
LJ          -5.47969         1.31808         1.44586
LJ           2.12547        -2.12676         3.46536
LJ            1.9407        -5.07047        -1.21015
LJ           1.60655        -1.40803        -1.82762
LJ            1.0924         6.26814          1.9535
LJ          0.491039        -2.50988         1.87693
LJ          -4.44863         5.91213         3.14404
LJ          -4.62597         2.94122           2.354
LJ          -4.39547       -0.885752         2.18351
LJ          -4.68036         -4.5117          1.4963
LJ          -2.25724        -1.43283        0.736093
LJ          0.689488       -0.850504         6.07139
LJ          0.604127         1.56486         -1.5549
LJ          -2.46772        -1.35789        -2.43913
LJ           2.41174        -4.78841         2.61492
LJ          -1.09756        -3.95963        -1.18042
LJ          0.588963       -0.958374        0.603079
LJ           4.55901        -3.21386        0.644966
LJ         -0.416586         -1.2431        -4.63067
LJ           5.10312         -4.9137         2.08745
LJ           5.64733        -2.30346         5.39365
LJ           1.01893        -1.09723         3.44957
LJ           -6.3217         1.92025       -0.365068
LJ           -2.9434          3.3698        0.840974
LJ           1.38719         3.87471        -2.33013
LJ           3.40464        -4.29565        0.632762
LJ          0.336117         1.23005        0.636618
LJ           3.37871        -5.50427         2.27025
LJ         -0.231862          4.2511         4.99353
LJ           2.53717        -5.95121         1.52699
LJ           4.71524         5.97535         -1.2772
LJ         -0.391928        -1.18083        -5.81373
LJ           3.26474         2.91152        -3.08586
LJ           1.15182         5.17965         -3.9271
LJ           1.41054        -5.69018        -4.89173
LJ         -0.571946         5.44462        -5.35216
LJ          -4.91788        -6.34591         4.21835
LJ         -0.245925        -3.02833        -4.33988
LJ          -4.36617         4.89219         2.77764
LJ          -2.47087        -2.02683         -3.7934
LJ          -5.42626        0.305969          3.4982
LJ           2.87708        -5.97397        -2.93713
LJ            1.1769         2.28922       -0.851765
LJ            5.0875        -5.91283         1.62347
LJ           -5.1303         1.00518         4.28725
LJ          -1.48815        -1.82056        -5.50274
LJ          -2.69288         1.78769         4.54458
LJ          0.375289        -4.30308         1.64437
LJ          -4.83377         1.04481        -4.64092
LJ           3.47445        -1.46321        -4.84355
LJ           3.77983        -4.08583         4.79149
LJ          -0.61771        -3.11258       -0.903672
LJ           3.06415         3.26352         2.78402
LJ          0.959892       -0.371553        -2.30498
LJ          -1.13099        -1.24179        -3.76614
LJ         -0.724867           2.204         -4.4619
LJ          -2.40956       -0.800337         2.91589
LJ          -2.07982        -2.18346         3.34357
LJ           2.53331        0.882499        0.572451
LJ          0.998657        0.173808        -0.81542
LJ           4.58794        -4.64384         1.22133
LJ           6.22955         2.23751        -4.44501
LJ           4.94476        -2.44793         1.39065
LJ          -2.91003        -5.09352        -4.18652
LJ          -1.87221        0.771435         5.04301
LJ          0.674384         1.95518        -6.08051
LJ           1.91356         2.92634        0.916857
LJ          -4.89821        -2.01632        -2.47134
LJ         -0.853229        -5.04244         1.20139
LJ           5.75707         4.37616         4.49648
LJ          0.644916         4.86937         -4.9196
LJ           -4.9539         2.00227        -5.48035
LJ           4.79698          4.3424        0.491869
LJ          -2.26331         -2.0392         2.02564
LJ           1.67468         1.64782        -2.47181
LJ          -2.30932        -3.45773        -6.15207
LJ           1.16886         5.60689        -3.04634
LJ           -2.9737          3.3841         4.79741
LJ           2.92175        -5.83355         3.26473
LJ         -0.365131        -0.92379          3.5078
LJ          -2.32138       -0.986594        -5.28743
LJ          -4.10013         -3.5503        -4.77114
LJ          -1.78318         3.68047        0.468491
LJ           4.08312         1.40463        -2.24381
LJ          0.405004         3.21427        -4.44447
LJ          -3.86324        -5.13611        -5.24542
LJ          -4.68694         5.47828         -3.1531
LJ           -4.9109        0.390595         5.68473
LJ          -3.13591         -1.1721         1.65844
LJ           4.98233        0.481699         5.22469
LJ           2.77941        -5.45238         5.21507
LJ          -1.28869         5.20771        -2.16375
LJ         -0.899368        0.958935        0.597749
LJ          -1.78231        -3.40621       0.0597838
LJ          -5.80511        -5.95838         3.74853
LJ           1.88348        -3.43316        -4.94253
