108
#Comment!
LJ           0.83934         6.19254         3.86601
LJ          -1.85061         4.89411        -4.31857
LJ          -2.69793        0.673878        -1.91261
LJ          -6.35394        -3.14144        -2.41566
LJ           3.95537         3.44981        -5.82111
LJ          -2.82031       -0.165151         4.79623
LJ          -4.79984         5.04448          2.6367
LJ          -5.63645         1.10055        0.310423
LJ         -0.441061        -2.63884         4.99965
LJ           1.41283       -0.856355       -0.143239
LJ            0.3331        -3.47232        -3.74427
LJ           -6.0924         -2.5254         2.81483
LJ           -5.7755          3.0209         5.42716
LJ          -3.63842        -1.26889         6.36735
LJ          -3.86674         3.79687        -1.62639
LJ          0.516036        -1.75505        -3.49635
LJ           3.31843         -2.1524           4.067
LJ            3.6439        -2.00915         5.91923
LJ            3.3947        -1.49005        0.740409
LJ           4.29121          2.8733         4.26057
LJ          -1.31909         -4.6431        -5.28185
LJ          -2.75465         5.79813        -3.77294
LJ          0.556389        -4.95931         3.83805
LJ           1.39166        -4.20325        -2.51192
LJ           0.33007         4.48756         4.66525
LJ          0.400189        -5.06281         1.01071
LJ          -0.78703        -3.24191         4.09384
LJ          -1.90703         2.65041       -0.742002
LJ          0.470201        -2.82764        -4.58372
LJ           5.96348         5.46402         5.87775
LJ          -3.79791         1.45342        -1.55733
LJ           4.81676        -1.25947        -1.74192
LJ          0.422841        -1.70292         3.26374
LJ          0.612681        -4.77639        -5.53848
LJ           4.00548        0.926221        -5.99368
LJ           5.02484         2.66819        -6.29354
LJ         -0.146779        -4.25854        -4.17937
LJ           2.42808         1.84091         3.95922
LJ          -5.71977         2.63529         2.41457
LJ          -4.66871        -3.74895        -4.09361
LJ           4.29906        -4.76689         4.75621
LJ          -1.72266         5.85535         2.62863
LJ         -0.641484         3.75544         3.52386
LJ            3.8119        -1.54973          4.8024
LJ          -1.28067        -5.14873        -3.83414
LJ            2.5534         4.06098         5.28217
LJ           2.60809        -3.45191         6.19755
LJ           4.92121         2.83091         3.19276
LJ          -6.34223         4.96354        -3.38125
LJ          -2.86089         2.24299       0.0427525
LJ          -5.19628          1.4263         6.38247
LJ           2.11468        -5.15951        -6.43548
LJ          -2.85867         1.82066          3.4375
LJ          -2.45139        -2.88953        -3.91938
LJ          0.993763         -3.8512         6.25109
LJ          0.545177        -5.07854       -0.479316
LJ           1.82755        -5.92781         5.36177
LJ            6.0861        -1.10468        0.981314
LJ           4.99346         5.74009        -2.25047
LJ           5.86287        -5.27319           2.947
LJ          -1.70313          5.4509       -0.599379
LJ           2.12651         1.79285         6.15447
LJ          0.967214        -4.40388        -4.52935
LJ          -5.89473        -3.68306         1.61602
LJ           2.37624        -5.91513         2.78594
LJ           1.54782        -3.65243         1.55921
LJ          -6.03428        -3.24721        -1.08744
LJ          -1.55684        -3.89544        -3.93767
LJ          -5.88477       0.0396868        0.685515
LJ          -6.43842        -3.53345         2.86283
LJ          0.598333        -2.44787         5.05154
LJ          -5.03161        -2.25526         3.56498
LJ           3.06703         3.05156        -3.86889
LJ            -4.741         4.46936       -0.933147
LJ           1.90217        -5.36274        0.362583
LJ          -5.25855        -5.39597         3.87011
LJ          -2.21248         -1.2593           3.608
LJ          -2.02864        -1.04582         5.14184
LJ          -2.09592         2.61379        -2.17542
LJ           3.65631         2.11898        -3.47675
LJ          0.680892        -1.43237         -1.4375
LJ            3.5441          4.5475         5.29909
LJ          0.558564         1.17546        -1.09138
LJ           5.18924         -5.6173        -1.86569
LJ           5.26063          1.3511        -3.85174
LJ           1.00218        -6.06504        -4.24733
LJ          -4.70357        -5.91053         -2.9597
LJ           5.48838        0.490468        -5.49771
LJ          -1.68403         1.03064         3.33813
LJ           6.33127         -1.4408         6.40904
LJ          -6.22314        0.789872         3.08321
LJ          -3.61419         4.45106       -0.804514
LJ         -0.340356        -3.16066        -6.07596
LJ           1.21294        -6.15064         2.25662
LJ          -5.52817         1.08415         2.45273
LJ           4.45689         3.19467         5.71419
LJ           1.96423         0.31421         6.42512
LJ           -6.2867         5.43746        -6.28615
LJ           4.88815         3.72116         3.80598
LJ          -2.63025        0.763863         3.76266
LJ          -4.00752        -2.23424        -2.95918
LJ          -3.60707       -0.123088        -1.32547
LJ            3.7068         5.36387        -2.88777
LJ           4.49372        0.171344        0.712003
LJ         -0.181139        -3.21794        -2.13456
LJ           2.63617        -3.09624        -4.35824
LJ          -5.88231        -1.37018         2.75616
LJ           6.20679         1.94369          2.2351
