108
#Comment!
LJ          -1.73697         2.56367         3.56371
LJ          -2.65589         6.12746        -4.38504
LJ           2.64761        -3.14401         5.19499
LJ           4.52445         4.33837         1.31533
LJ         -0.791152        -5.79214         3.20712
LJ          0.974971        -3.99728         2.19917
LJ           2.09875         5.39648        -3.20082
LJ           5.84926         5.40626        -3.61755
LJ          -4.54949         3.32412         4.06614
LJ          -4.60483        0.979192        -4.02676
LJ          0.266449        -1.70318        -4.96162
LJ           1.73431        -3.67918         -2.4058
LJ          -2.37594        -5.12131        -0.77892
LJ           5.25478        -4.07631         5.80863
LJ          -1.74685         -3.0217        -5.89156
LJ          -4.43925         4.05132        -2.36243
LJ          -1.77685        -5.16689        -3.88249
LJ           2.90996        -5.71828       0.0500036
LJ           -5.4138        -1.74506        -3.29835
LJ         -0.948831       -0.879795         4.71002
LJ          -1.34683         4.48986       0.0134447
LJ           1.45216         1.48386         1.29164
LJ          -4.06783        -0.18027        -5.07777
LJ          -2.33945       -0.365116        -5.33327
LJ          -1.54635         5.70578        -3.03307
LJ           4.76094        -6.18287        0.678954
LJ         -0.788486         3.66903         4.22156
LJ          -4.92457        -4.43851        -5.33567
LJ          0.450266        -0.52201         1.56238
LJ           5.29221         2.68471         6.09604
LJ           5.99296         1.72919        -4.36126
LJ          -6.39111          1.0294        -3.18281
LJ            5.7065        -6.06459       -0.987898
LJ          -2.47209        -4.60603        -2.74283
LJ          -1.08605        -1.27634         3.81686
LJ           2.92795         6.09217        -3.88232
LJ          -5.97387        -4.28104         3.46901
LJ           2.25452         1.77302        -3.70068
LJ           -1.3316        -2.87715        -4.11749
LJ          -2.02906        -3.98819         -1.9675
LJ            3.1721         3.78336         1.20454
LJ          -1.79265        -2.03582        -3.98125
LJ          -2.08831        0.105231        0.315547
LJ          -3.73345         3.36493        -2.42099
LJ           4.80183        -5.03008         6.19576
LJ          -2.75526           2.711        -2.04573
LJ          -6.25483         4.80567        -4.53284
LJ          -1.85961         4.80502         -3.8192
LJ         -0.309949         2.88627         5.56859
LJ          -3.39806        -1.52703         2.27735
LJ           2.75488        -5.17909         3.38957
LJ          -3.88973         2.84761         5.12158
LJ          -3.86949        -2.64372        -6.37119
LJ          -5.33333         -1.7077        -5.88023
LJ           3.82441        -4.60185         5.65539
LJ         -0.391236        -6.10787         6.35971
LJ          -2.73134         4.07295         3.98967
LJ           4.78708         3.69941         4.67449
LJ          -2.80338        -3.87972         5.05669
LJ           4.51929        -5.67553        -4.50213
LJ           2.03739         4.04392         5.01047
LJ          -2.77641         5.57482        0.961674
LJ          -5.03685        -5.84927         5.36908
LJ          0.699456          2.6917       -0.650742
LJ           2.50875       -0.141564        -0.60609
LJ           1.01277        -5.33091          -1.356
LJ           3.65944          4.1339         2.65873
LJ          -5.12447       -0.699009       -0.287185
LJ          -4.58113         -1.5811        -5.18803
LJ          0.436031          1.0498         1.84767
LJ           2.33478         1.59262        0.373154
LJ          -1.21893         5.82182         2.90731
LJ           1.95723         1.69316        -2.62548
LJ          -2.65179          3.9394        -4.21852
LJ          0.827993         6.04264        -1.08165
LJ          -1.26421        0.198128         5.29207
LJ          -2.00999         -4.0002        -3.78671
LJ          -5.06394        -3.89339         3.56619
LJ           2.47604         1.35494        -1.70788
LJ          0.764431         3.17092         -5.5683
LJ           -4.2079          5.5771        -4.51824
LJ          -2.94124        0.668343        -0.96497
LJ          -1.90549         1.63916        0.518106
LJ           6.17236        -4.74666          5.2094
LJ          -2.87807         3.37333         6.18681
LJ           3.26037        -6.20213         2.16989
LJ           4.49653        -4.47116        -3.65736
LJ          -2.05895         2.76015         1.22057
LJ           2.13006        -4.84521        -5.94049
LJ           4.21971         1.87962        -4.18798
LJ           1.28029       -0.878668        -2.79396
LJ          -2.33213        -4.07117       -0.946179
LJ           5.64642        -2.54357         1.13286
LJ           2.86434        -2.97492        -5.87546
LJ           2.78155       -0.799741         2.12515
LJ           3.91764        -5.66884        -2.84432
LJ           4.70125         1.14914       0.0534234
LJ          -5.52146         4.89981        -3.76996
LJ           3.03207        -3.86549         2.24052
LJ          -4.00082        -2.57953        -5.18206
LJ         -0.256829        -6.04382        -5.18724
LJ           1.62634         0.24605          1.0086
LJ          -4.32779        -1.13928        -6.34475
LJ           3.14242       -0.431503         4.99152
LJ          -2.02618         3.89077        -5.07204
LJ           4.20465        0.500981         3.84755
LJ           4.03014         3.30589         3.18279
LJ          -5.83566         5.45944         5.18509
