108
#Comment!
LJ           1.05101         6.08291         3.57561
LJ          -2.58907         4.67866        -4.01966
LJ          -2.73187         1.02649        -1.55554
LJ           5.98079          -2.435        -2.60204
LJ           3.67707         3.52868        -6.35038
LJ          -3.26321      -0.0608397         5.05602
LJ          -4.31882         5.61299         2.88345
LJ          -5.59689         1.20016       -0.773172
LJ         -0.583747        -3.10379         4.98314
LJ           1.35725       -0.852672        -1.28365
LJ          0.714278        -3.50919        -3.86457
LJ          -5.17069        -2.89217         2.69691
LJ          -6.00692          2.5791         5.72356
LJ          -3.32008        -2.24504         6.30116
LJ          -3.81957         4.52298        -1.52253
LJ         0.0293842        -2.69029        -3.78306
LJ           3.06075        -2.15115         3.65413
LJ           4.15018        -1.54912         6.01406
LJ           2.33339         -1.2833        0.725171
LJ           3.46582          3.6862         3.62917
LJ          -1.71372        -5.07457        -5.57518
LJ          -2.77227         5.86158        -3.56166
LJ          0.584799        -5.34779         4.03778
LJ           2.20099        -4.41147        -2.26011
LJ          0.150309         4.32345         5.47915
LJ          0.210028        -5.20012        0.495551
LJ         -0.809759        -3.45614          3.8145
LJ          -2.07096         2.37306      -0.0168104
LJ          0.268977        -2.77684        -4.83764
LJ           5.48588         5.44712        -6.13054
LJ          -3.75802         1.16938         -1.6645
LJ           4.96663        -1.21953        -2.25908
LJ          0.344937        -1.05405         3.32793
LJ           1.13887        -4.35805        -5.61112
LJ           4.04056         1.79973        -5.79108
LJ           4.73511         2.55976        -6.18158
LJ         -0.656895        -4.71632        -3.86475
LJ           2.41805         1.75918         3.83831
LJ           -5.2639         3.22441         2.06916
LJ          -4.32714        -3.82746        -4.17343
LJ           4.05306         -5.4889         4.56215
LJ         -0.774726         5.51011         2.47628
LJ          -1.29256         3.93297         4.22717
LJ             3.521        -1.78776         4.59797
LJ          -1.76706        -5.11311        -3.88612
LJ           2.98721         4.61845         5.54667
LJ           2.82322        -2.74877         6.09712
LJ           4.38156          2.4345         3.45227
LJ           6.43665         4.05246        -3.80743
LJ          -2.89577         1.55288       -0.437401
LJ          -5.24144         2.06626        -5.96695
LJ           1.97157        -4.32546          -6.369
LJ          -2.91378         1.96988         4.40096
LJ          -1.86207        -3.42101        -3.98642
LJ          0.998593        -3.98418         6.18267
LJ         -0.191104        -5.43604       -0.461671
LJ           2.45241         -6.1804         4.53409
LJ             6.352         -1.2834         1.78696
LJ           6.06647        -6.41133        -1.71604
LJ           6.00229         -5.2303         2.96298
LJ          -2.24359         6.16992       -0.503092
LJ           2.04351         2.06538         5.84013
LJ           1.48854         -4.1224        -4.68792
LJ          -5.44514        -4.41086         1.36233
LJ           1.90798         6.29181         2.62352
LJ           1.84962        -3.53876         2.16185
LJ          -5.92226        -3.86242       -0.285959
LJ          -1.20906        -3.90347        -3.16728
LJ           6.32713       -0.656593        0.839165
LJ            6.0845         -3.4332         3.88817
LJ           0.75769        -1.83852         4.87092
LJ           -5.0925        -1.84918         3.24026
LJ           2.58787         3.38796        -3.42954
LJ          -5.00233         4.60999        -1.33579
LJ           1.13833        -6.11588        0.146288
LJ          -5.47066        -6.06803         4.22909
LJ          -1.99848        -2.10479         3.36677
LJ          -2.07464       -0.967844         5.21689
LJ          -1.75665          2.8222        -2.12846
LJ           4.01978         2.57982        -3.88028
LJ           1.46931        -1.93798        -1.60936
LJ           4.36903         4.55388         5.41457
LJ           0.14601         1.79785        -1.49318
LJ           5.38544        -5.31537        -2.15486
LJ           4.83241         2.02593        -4.41901
LJ           1.50208         -6.0126        -4.06213
LJ          -3.75632        -5.94628        -3.08921
LJ           5.37162       -0.378252        -5.51832
LJ          -2.22108        0.844269         2.97638
LJ           5.94637        -1.59361         5.95485
LJ           5.28103        0.789583         2.82763
LJ          -3.43439         4.69004     -0.00368643
LJ        -0.0350216        -3.19152         6.29498
LJ          0.754486        -5.84815         2.66148
LJ           -5.6452        0.809893          2.2087
LJ            3.9826         2.74373         5.92712
LJ           1.85914        0.930691         5.65199
LJ          -5.25928         5.10013        -5.95096
LJ           5.32871         3.88389         3.92707
LJ          -3.07622        0.934572         3.57788
LJ          -3.82378        -2.82737        -2.34309
LJ          -3.42185        0.345868        -2.23023
LJ           3.57396         5.41009        -2.43798
LJ           5.04545        0.331665        0.961583
LJ        -0.0603058        -3.35419        -2.81482
LJ           2.75534        -2.29113        -3.90104
LJ           -5.2107       -0.839779         2.91197
LJ          -6.03102         2.09809         2.78872
