108
#Comment!
LJ          -1.82419         2.89408         3.76327
LJ          -3.03501         6.20684        -3.98375
LJ           3.45746        -3.05746         5.34073
LJ           4.17822           4.344         1.31325
LJ          -1.16492        -5.20767         3.76583
LJ           1.23143        -4.00255         1.92558
LJ           1.77879         5.32155         -2.9268
LJ           5.93553         5.04554        -3.70422
LJ          -4.92519         3.83175         3.89796
LJ           -4.3937        0.411194        -4.13683
LJ          0.134286         -1.4534        -5.27513
LJ            1.7508        -3.99235        -2.31334
LJ           -2.1377        -5.68643       -0.714388
LJ           5.12974        -4.27085          5.4878
LJ          -1.60518        -3.51474        -6.10965
LJ           -4.8764         4.94488        -2.17513
LJ          -2.34878        -5.43194        -4.03058
LJ           2.67361        -5.36307       -0.104939
LJ          -5.58354        -2.34582        -3.65823
LJ          -1.42579       0.0794804         4.79123
LJ          -1.56635         4.51001       -0.247036
LJ           1.73392         1.06933        0.580823
LJ          -3.93427       -0.034844        -5.33512
LJ          -2.57199       0.0817929         -5.1345
LJ          -1.12343         5.45956        -3.67217
LJ           4.58995        -6.37104        0.306505
LJ          0.208605         3.79714         4.33801
LJ          -4.34904        -4.10086        -4.86861
LJ         0.0280356       -0.347855        0.975057
LJ           5.70983         1.99524         6.09643
LJ           6.05237         1.76399        -4.15352
LJ           6.29107         1.25006        -3.13084
LJ           5.95283         6.32921        -1.16155
LJ          -2.33544        -5.41769        -2.36738
LJ         -0.359455        -1.38842         3.44846
LJ           2.90244         5.69609        -3.99861
LJ          -6.15769        -3.94707         2.33347
LJ            1.9986          2.0047        -3.78785
LJ          -1.08069        -3.22594        -4.70229
LJ          -1.85985         -4.1759        -2.02003
LJ           3.31686         3.29914          1.6178
LJ          -1.99926        -1.76986        -4.00068
LJ          -2.19795        0.165078        0.104741
LJ           -3.7225         3.03837        -2.26671
LJ           4.97361          -5.033         6.28736
LJ          -2.94834         2.53231        -1.71924
LJ          -6.41041         4.59305        -4.76934
LJ          -1.49325         4.24946        -3.65972
LJ           0.13774         2.73738         4.96224
LJ          -3.57938        -1.48014         2.96376
LJ           2.93004        -4.49345         3.61947
LJ          -4.27582         3.34698         5.51688
LJ          -4.50683        -2.90864         -6.3412
LJ          -4.98267        -1.83585        -6.27084
LJ           4.13299        -4.20546         6.17525
LJ         -0.494139        -6.38341        -5.94574
LJ          -2.40802         3.97354         3.67019
LJ           4.32404         3.54596         4.13651
LJ          -2.42801        -3.87098          4.7512
LJ           4.82086        -6.17552        -4.11462
LJ           2.13218         3.42483         4.47821
LJ          -2.63971         5.79451        0.894111
LJ          -5.53299         -5.2007         6.02658
LJ         0.0692785          2.4052        -1.03643
LJ           1.69174       -0.143478       -0.609598
LJ          0.594246         -5.0302        -1.08297
LJ           3.05568         4.53375         3.41928
LJ          -5.48852       -0.768942        -1.19422
LJ          -5.15663       -0.451316        -4.53363
LJ          0.451767         1.15184         1.93162
LJ           2.64277         2.11871       0.0479043
LJ          -1.33056         5.52802         2.75806
LJ           2.15754         1.76204        -1.93869
LJ             -2.73         3.46177        -3.44215
LJ           1.56989         6.40603        -1.83751
LJ          -2.68491      -0.0257241         6.27761
LJ          -2.01992        -4.17612         -4.0588
LJ           -4.6904        -3.87229         3.63885
LJ            2.9534        0.774925          -1.497
LJ           1.22109         3.55734        -4.61368
LJ          -4.71287         5.82593        -4.64602
LJ          -2.48149        0.474241        -1.03317
LJ          -1.83119         1.14185         0.39418
LJ           6.31813        -4.52418         5.59278
LJ          -2.69148         3.69375        -6.45489
LJ           2.50986        -6.13524         1.43914
LJ           4.86038         -4.4881         -3.6693
LJ          -1.63598         3.17732        0.841234
LJ           2.33052        -4.42025        -6.01811
LJ            4.6897         1.60536        -4.14299
LJ           1.15815       -0.600378        -2.85972
LJ          -1.98752        -4.31367       -0.800279
LJ           5.27025        -2.39561        0.562791
LJ           2.99138        -2.49561        -6.32354
LJ           2.34125       -0.613038         1.66195
LJ           4.21622        -5.22467        -2.79472
LJ           4.94102        0.731576        0.609388
LJ          -5.64971         4.59265        -3.18235
LJ           2.59861        -3.49258         2.77988
LJ          -3.81069        -2.39353        -5.50495
LJ          0.249562        -6.08284        -4.88009
LJ          0.853856        0.209013        0.780732
LJ          -4.22175        -1.05417        -5.75311
LJ           3.43801        -0.49567         4.73347
LJ          -1.55675         3.82552        -4.56574
LJ           4.40917        0.719116         3.89008
LJ           4.12429         2.79604         3.26626
LJ          -5.71864         5.19816         4.91058
