108
#Comment!
LJ           2.12497        -6.23492        -2.49988
LJ          -3.47572         -2.7457        -5.06415
LJ           -5.0766         2.62419         2.70044
LJ           2.09321        -4.54886        -3.89444
LJ           -2.3246         3.83952         3.99901
LJ          -4.10025        0.105268         6.08716
LJ            2.1612        -2.43285         3.82073
LJ          -1.83514         2.22249        -4.01775
LJ          -1.64237         6.04476        -6.30476
LJ           5.80512        -2.55683        -3.85889
LJ          -1.50662         3.60164        -1.08442
LJ          -1.47326         -4.9519         -2.1602
LJ          -4.50224          6.1856        -0.02239
LJ           3.92166         4.69165        -3.63883
LJ          -2.90323        -4.17461         2.52371
LJ           1.19806         1.80968        -1.45384
LJ          -1.68811        -2.20065        -3.63727
LJ          -3.55467         -1.4217        0.891733
LJ          -3.24353        0.679416         2.44609
LJ          -5.39265        -2.51935        -5.22602
LJ         -0.424597          3.4022         4.27138
LJ           4.71406         4.25766       -0.501438
LJ           1.52199         2.12556        0.360416
LJ           1.09047        -4.39353         4.22963
LJ         -0.251533         6.05815         2.44397
LJ           1.69059        -1.69942         1.36935
LJ           5.31356        -1.20213        -5.15638
LJ         -0.964496         1.68747         5.18485
LJ           1.53008        -5.46514         5.12441
LJ          -2.27669        0.657749         3.97487
LJ          -2.01734        -1.78268        -6.00347
LJ           2.37063        -5.13488        -2.69945
LJ          0.206148         5.67092        -4.16814
LJ         -0.303024        -5.95959         5.67529
LJ           4.62497        -6.07113         6.14319
LJ          -6.12188         2.00016         5.14994
LJ          -2.89299         2.38516         5.39977
LJ          -1.68765        -0.12022          1.6712
LJ          -4.59413        -6.05657        -3.95908
LJ        0.00508929         6.08057        -6.21152
LJ           2.28399        -1.86852          2.4395
LJ          -1.68976        -2.14958         2.91503
LJ          -4.82569         5.37911        -3.51598
LJ           1.81592        -1.45355         3.78816
LJ          -1.79294         2.63833        -6.20885
LJ          -3.47785        0.950624         5.92802
LJ         -0.901835         6.15723        -4.97188
LJ           5.11284        -2.89658         4.97396
LJ          -5.80705        -4.28789         1.72337
LJ          -4.88674        -3.22561         2.51149
LJ           5.34844        -4.67477        -5.69001
LJ          -3.01985            5.11         5.19973
LJ          0.495939          1.9074        -2.71629
LJ         -0.214815         4.24156       -0.289938
LJ          0.530796         1.47617         3.36793
LJ          -5.20107         1.49141       -0.402814
LJ          -4.84869        -6.19286         3.56505
LJ          0.113767       -0.627674        -4.66148
LJ           1.09392         1.17108        0.652678
LJ          -1.84667         -4.6242         4.29951
LJ          -5.49211        -1.00777        -1.04744
LJ           1.79464        -3.62619        -3.40159
LJ          -5.83068         5.08975        -3.25219
LJ         -0.530374         2.18878        -2.02318
LJ          0.599666        -5.18362        -1.67476
LJ           5.88763         2.06081        -6.39667
LJ          -6.23384          -3.255        -4.61689
LJ            4.4544        -3.78778        -3.88696
LJ          0.463705        -5.08584         5.09853
LJ           2.41462        -2.04118         6.01766
LJ         -0.831127        -2.11364        -3.03966
LJ          -5.40602       -0.849635        -2.02617
LJ          -5.19873         6.43332        -1.12034
LJ           2.27895        -5.54748        -1.31227
LJ           -4.5491        -5.13699         5.21807
LJ           6.37598        -4.06803        -1.43473
LJ          -4.98543          -5.046        -3.30332
LJ           4.69392        -4.49186        -1.06903
LJ           4.11376         5.26049        -2.82851
LJ           3.89535       -0.163385         5.02216
LJ          -3.17898         5.59096         6.37002
LJ           5.04684       -0.509516         4.81681
LJ          -3.42173        -3.57281         1.24137
LJ          0.359235        -2.73766        -1.16615
LJ          -5.74364         4.94192        -4.34946
LJ           5.95599         6.25602        -2.50249
LJ          -3.00449       -0.675119        0.494284
LJ           5.25289        -5.70442        0.756324
LJ          0.361755        -2.88691        -2.92725
LJ          -1.30486        -2.66045         6.28998
LJ          -5.37326          1.9791        -2.81935
LJ          -2.03776         5.93882        -5.38943
LJ          -2.71806        0.565094         1.30145
LJ           4.26961        -1.18085          5.8162
LJ           3.19109        0.175154         6.35335
LJ         -0.794774        -5.74261        0.678243
LJ           1.67203       0.0781797        0.423398
LJ           4.29933         3.21336        -1.91998
LJ           2.38012        0.623132        -3.00035
LJ          -2.78974          1.7682          1.4532
LJ          -5.90482         1.22976        -1.68257
LJ         -0.995757        -6.07971        -5.96267
LJ           6.29128        0.380282       -0.359516
LJ          -4.19708        -5.89102       -0.770166
LJ           5.76794          3.5334       -0.252561
LJ          -0.29105        -2.46813        0.205354
LJ          -2.39622        -3.96265         1.64182
LJ           1.74469      -0.0522524        -4.93788
