108
#Comment!
LJ          0.272862         3.41761        -4.78567
LJ           0.27131        -2.47509         6.37954
LJ           2.58245         2.79905       -0.171244
LJ           5.30251         4.99908        -4.18633
LJ           5.12031        -2.20941        -1.17077
LJ           5.03087        0.477811        -4.74938
LJ          -4.52632        -3.10481         5.70037
LJ           1.34271        0.358841         2.82904
LJ          -3.61957        0.583655         3.77436
LJ          -1.02955       -0.158938        -1.08173
LJ           4.00804       -0.283129        -4.91542
LJ          -5.14367         2.39083        -6.06223
LJ           2.98149        -2.23461         2.14172
LJ            5.2643        -5.05471        -4.87289
LJ            2.9989      -0.0847849         -1.7363
LJ          -2.55045        -4.53542        -1.84775
LJ           2.72688        -4.10605         2.29268
LJ          -1.70002       -0.546083         5.22891
LJ          -3.40588        -4.99161         3.19596
LJ          -5.18946          1.7565         5.79337
LJ          -4.14713       -0.935095         3.72797
LJ           6.43908         -0.6847         1.02084
LJ          -4.74711         1.09651        -6.19638
LJ           2.60632       -0.712018       -0.957511
LJ         -0.290751         1.76311         6.12398
LJ          -1.73392         1.55379        -4.92202
LJ            1.6657        -4.68489          3.1099
LJ           1.21378         4.81721         -3.7265
LJ         -0.872736        -1.34187         2.31227
LJ           2.23372          4.8594        0.812428
LJ          -1.38407         5.92031         -5.2829
LJ           2.44808        -6.40597         3.03692
LJ           4.81286        -4.73996        -5.81419
LJ          0.347345         1.90593        0.896694
LJ          -1.30245         6.21224         3.79774
LJ          -4.27956         3.89565       -0.162266
LJ         -0.909324         5.08661        -5.14129
LJ           4.17062        -5.83554       0.0898022
LJ           2.88724      -0.0156184         3.75288
LJ           5.11647        -5.88039         3.87014
LJ          -1.17351        -1.03939        -1.80133
LJ           4.61992        -4.28074         4.27584
LJ           5.47395        -5.96788       -0.980979
LJ           1.93531         1.45064          5.6908
LJ           3.95062          1.6035        -4.37983
LJ            2.3586         4.13523         4.81805
LJ          -1.76888         -5.2069        -5.40792
LJ         -0.872836         5.54285        -6.43483
LJ           4.98936         5.94311         4.03278
LJ          0.498488        -5.80912        -1.21051
LJ          -3.33491        -5.22731         4.56074
LJ          -4.74172        -3.73032        -5.39982
LJ          -1.69902       -0.781707        -6.07124
LJ          -6.33363        -5.22155        -4.67086
LJ           5.71299        -2.83615         0.17643
LJ          -5.70819        -6.12496         2.11681
LJ           2.18438         3.99282         3.43019
LJ           2.61985         1.37053         -6.3542
LJ          -1.90366         2.87031         3.17555
LJ          -2.76915         4.54193         4.71363
LJ         -0.403202        -3.35508        -4.56202
LJ          -5.84278         2.05608        -5.44172
LJ           -6.3922        -4.96627         2.12828
LJ          0.481122        -6.12479        -2.68034
LJ           0.33003         4.82912         4.88055
LJ            2.0072        -1.31483        -4.39677
LJ           1.55815        -1.44364        -6.09251
LJ          -5.22425         2.89088         5.61583
LJ          0.514435        -2.03208        -3.14384
LJ            -1.531        -5.42789         5.60995
LJ         -0.300223        -5.98732         2.52618
LJ           3.09337        -1.05075      -0.0609179
LJ           3.47641         5.41637         3.19239
LJ          -4.88891         2.61148        -2.36655
LJ          0.381573         2.03219         3.02942
LJ          -2.06394        -6.28465        -4.47659
LJ          -2.32603       -0.608433         1.00366
LJ           1.65827          -6.201        -5.95584
LJ          -1.92821         4.97827        -3.07045
LJ          -3.83224        -1.89917        -1.06306
LJ          -1.97045        -5.72074         4.60113
LJ           5.77031         4.84446         5.04341
LJ          -1.91934         5.88217         6.44659
LJ           -3.1374          2.4012        -5.39338
LJ           4.83933        -1.41447        -4.55521
LJ          -4.31504        -2.26451         1.11703
LJ             2.478         6.09368        -3.65952
LJ          -1.26678       -0.159393         -3.9464
LJ          -2.07336        -3.97575        -4.13042
LJ          -2.90213         3.52816         2.61755
LJ            4.9239        -4.96243         2.41531
LJ           1.86293        -1.59338       -0.209703
LJ          -2.50799       -0.280166         6.18336
LJ          -2.62211        -6.38194        -1.83814
LJ          -1.60088         3.22397         4.22735
LJ           1.72481         1.68689        -2.63624
LJ            1.4588         2.32048         6.26069
LJ          -1.70938        -1.57861        -4.16107
LJ           4.51845         2.45306        -5.46331
LJ           -3.8768       -0.577544        -3.18917
LJ           5.19208        0.954243         1.34103
LJ           4.64374         2.11644         3.22506
LJ           3.65897        -4.21772         2.58276
LJ           6.21192         6.19285         4.51407
LJ          0.833727       -0.205085        0.177854
LJ         -0.141131        -2.69671        -3.77899
LJ           4.96326         5.72868       -0.282407
LJ            1.4617       0.0688251         4.96774
