108
#Comment!
LJ            2.0747         2.13239        0.465919
LJ           2.10485         2.11347        -2.20548
LJ          -4.44009         5.43237        -4.19008
LJ           -5.5698         1.28167        -6.17527
LJ          -4.48923         3.94643         4.34332
LJ          -4.62399         -2.3966         6.43885
LJ          -3.31297         -5.1038        -5.00248
LJ          0.876599         1.55747        -5.87526
LJ          -1.36397         3.91099         -5.2102
LJ           4.82939        -1.45074        -5.77704
LJ          0.914627       -0.147736         2.09995
LJ         -0.892018         1.45316         -2.4364
LJ          -5.13913        0.794867       -0.329851
LJ           -4.8358         4.62709        -4.64979
LJ           2.69429       -0.419241         -5.3697
LJ         -0.419507         3.76923        -6.28843
LJ           4.56762        -3.23986        -6.41843
LJ          -4.50217        0.126393       0.0770639
LJ          -1.03995       0.0635131         1.28441
LJ          -1.39021        -1.10126        -1.43744
LJ          -2.81846        -3.74245         3.20746
LJ          -4.55301         4.64973        0.542689
LJ          -1.12765        0.760335         -3.9252
LJ          -4.67811        -6.13236         -5.4046
LJ          -2.19559        -5.07184         4.07877
LJ           3.84664        -2.12754         -5.3619
LJ           -6.0545        0.917639         3.27211
LJ            1.1536        0.752448         2.98542
LJ           3.80636        -3.22425        -5.70077
LJ           5.10294         2.07707        -1.81619
LJ          -3.27943         3.64887         4.12335
LJ           5.50812        -1.57384        -4.19376
LJ           1.64197         2.62083         1.33568
LJ          -0.48291         2.47687        -4.99745
LJ          0.868633         2.90127         4.79444
LJ          -5.13565        -3.52719         2.61459
LJ           -5.2165         2.83636       -0.181816
LJ          -5.11747         4.69167         3.48408
LJ          -4.92357        -2.68698         4.04666
LJ          -2.98864          1.9451        -5.08544
LJ           4.46326        -1.64623        0.037687
LJ          -3.80549         2.62448          2.9213
LJ          -4.09955        -2.91835         -5.7014
LJ           4.17859        0.681489         4.79004
LJ          0.840704         1.66959         5.88603
LJ           1.50203         5.08438        -4.26045
LJ          -3.45157         -3.0547         3.70819
LJ          -5.82937        0.344835         0.64934
LJ         -0.288447         5.52276         2.28352
LJ           -5.5083        -4.78467        -6.27911
LJ          -2.99322        -2.88454        -2.20685
LJ          -1.86082         4.03344         2.31809
LJ          -1.36033        -1.82065        -4.50613
LJ          -6.19914         2.51784        -5.84865
LJ           5.75535         2.97227         3.23767
LJ            6.3244         4.79021         4.28043
LJ           6.31852        -4.89252        -5.78807
LJ          -1.76093        -3.41516        -4.41905
LJ          0.123365        -0.16155          0.5526
LJ         -0.297783         5.02479        -4.20663
LJ          -4.77334         4.23645        -3.16075
LJ          -2.49064        -5.09929         -2.8557
LJ           5.46042        -5.66944        0.367133
LJ           4.45207         4.70637       -0.300379
LJ           4.24457         3.44776        -3.00633
LJ          -1.88831        -3.40995         -6.4387
LJ          -4.51335         1.86935         -1.0182
LJ          -2.25956        -1.16154         2.17453
LJ           3.79156         2.20875        -6.27724
LJ          -3.38445        -1.88276         4.52039
LJ           5.38925        -1.29602         6.12086
LJ          -5.60191         4.20732        -4.01467
LJ           -5.8892        -3.41314        -5.88889
LJ          -2.87883         6.46115       -0.639015
LJ          -4.52945        -5.68159        0.763273
LJ         -0.218218        0.792967         2.74859
LJ           5.94209        -3.47651         -2.0102
LJ           2.59545         5.18138         2.16066
LJ           4.02362         4.36081        -3.78902
LJ          -5.00222        0.329619         2.87001
LJ          -3.98855        -3.69795        -4.92112
LJ            3.7728        0.179315        -0.41006
LJ         -0.146681        -4.91871         1.70021
LJ          -6.26349         2.39635         3.57531
LJ          -3.53331         5.42891        -5.22547
LJ           2.93546         3.77972         1.35836
LJ           5.26853         2.64379      -0.0569609
LJ          -4.05833       -0.818062         2.00687
LJ         -0.600428        -1.17613        -3.87619
LJ          -1.60173         6.42334         5.65433
LJ           5.11521        0.752752      -0.0728454
LJ         -0.935262          3.2575         5.69134
LJ          -3.44426        -4.57129        -4.17478
LJ           4.76672        -4.86791        -4.74349
LJ          -4.14242        -2.82352         5.44359
LJ          -5.35494         -6.2825         2.88922
LJ           2.19608         2.97334         2.70969
LJ          -5.11605          5.9745        -6.35934
LJ         -0.273808         3.71463         1.42397
LJ          -4.68438         5.40732         2.64107
LJ          -5.95465         4.09617       -0.507333
LJ           -3.0161        0.753331         2.74586
LJ          -3.57997         3.01415        -1.87117
LJ          -6.37133        0.619062        -4.04715
LJ           1.17151          1.6736        -1.74238
LJ          -5.04606         3.01017        -3.29251
LJ          0.300382        -2.59001        0.770731
LJ            -1.212        -2.12311        -2.26938
