108
#Comment!
LJ          -1.73625          3.0017          4.6397
LJ          -3.83505        -6.06839        -2.94682
LJ           5.26697        -2.70841         6.03432
LJ           2.86105         3.59508         1.70888
LJ          -1.23225        -5.08076         5.03428
LJ           2.09313        -3.99284         1.27286
LJ           1.31208         5.40437        -2.32304
LJ           4.73269         4.68783        -4.47609
LJ          -5.61131         4.66633         2.71697
LJ          -3.72582        -1.38587        -4.79567
LJ          -0.26554        -0.80821        -6.10395
LJ           1.76652        -4.95043         -1.9711
LJ          -1.37443         6.27697       -0.359389
LJ           4.53273        -4.12828         5.73123
LJ          -1.48018        -5.01897         5.99643
LJ           6.40953        -6.21186        -1.97435
LJ          -3.73683        -5.60798        -4.21128
LJ           1.77092        -4.74333        -0.27093
LJ          -5.72289        -3.31722        -3.90859
LJ          -2.73201          2.8117          5.0464
LJ          -1.97338         4.26017       -0.577052
LJ           1.49973       -0.646448        -1.28555
LJ          -4.83429         2.40051        -3.78896
LJ          -2.87446         1.09977        -4.70425
LJ         -0.356082         3.80465        -5.36113
LJ           4.11621         6.04151       -0.752215
LJ           2.25242         4.64261         3.19447
LJ           -2.7288        -3.07453        -3.72346
LJ          -2.03909      -0.0480726       -0.404577
LJ          -6.08534        0.122804         6.10234
LJ          -6.23885         2.12472        -3.85865
LJ           4.67515         1.85229        -2.66522
LJ          -6.11054         5.05115        -1.81143
LJ          -1.91687         5.61834        -1.72024
LJ           1.59835        -1.65691         2.47896
LJ           2.52597         4.50103        -3.94374
LJ           6.33019         -3.0308       -0.679323
LJ           1.27186         2.79699        -3.85741
LJ         -0.613802        -4.32622        -5.69883
LJ           -1.4923        -5.16187        -1.88775
LJ           4.17251         2.56537         2.89192
LJ          -2.63431        -1.09289        -4.19081
LJ          -2.64305       -0.930065       -0.474213
LJ          -3.91088         2.38329        -1.97166
LJ            5.0894         -4.7718        -6.42826
LJ          -3.48061         2.03837       -0.933821
LJ           5.84345         4.26166        -4.92105
LJ         -0.560994         3.83246        -2.26157
LJ             1.574         1.36488         4.18611
LJ          -3.99668        -1.37525         4.65329
LJ           3.25434        -2.34347         4.07714
LJ           -5.3575         4.85423         6.36823
LJ          -5.84576        -3.20387        -5.57665
LJ          -4.40701        -1.35027         5.71788
LJ           5.70013         -3.7088         -5.6452
LJ         0.0430407         6.00695        -3.57909
LJ          -2.18352         3.91185         2.83889
LJ           2.72662         3.20433         2.62944
LJ          -2.38577        -2.40553         4.19317
LJ           5.63397          5.4048        -2.96706
LJ           2.51918         2.03046         2.94054
LJ          -2.12087         6.36962        0.525833
LJ          -6.44909        -4.25941        -5.50467
LJ           -1.7356          1.6051        -2.01015
LJ        -0.0973327        0.041976       -0.456977
LJ         -0.632847        -4.33987       -0.440053
LJ            2.1551         5.66681         5.98503
LJ           6.44783       -0.919717        -3.69398
LJ           -6.1572         1.96975        -2.75391
LJ          0.713228         1.01281         1.38968
LJ           3.09281         2.94661       -0.878276
LJ          -1.33384         5.25071          2.0516
LJ           3.10651         1.66107        0.215524
LJ          -2.14271         2.40738        -1.29851
LJ           3.48186         -5.8089         -4.0718
LJ          -5.19573        -1.16097        -6.30976
LJ          -2.15512        -5.24595        -4.91478
LJ          -3.71777        -3.79596         3.79583
LJ           3.69558       -0.330191       -0.896376
LJ           2.46966         4.73514        -2.01326
LJ          -6.05034        -6.45962        -4.90051
LJ          -1.01935        0.293686         -1.1755
LJ           -1.2238        0.731287      0.00780658
LJ           5.92094        -3.62452         5.52019
LJ          -2.23472         4.53923        -5.69367
LJ          0.701162        -5.55854       -0.843845
LJ           5.97084        -4.72713        -3.92233
LJ         -0.729124         4.60401       -0.591993
LJ           3.02622        -3.17832        -6.30568
LJ           5.82238        0.719894        -3.59218
LJ          0.838263        0.179906        -2.99596
LJ         -0.958646         -5.4776       -0.728134
LJ           4.25601        -1.99127       -0.977357
LJ           3.69789        -1.65244         4.91934
LJ          0.819164        0.265835      -0.0326704
LJ           4.96913        -4.12617        -2.65848
LJ           5.56516       -0.396409         2.12146
LJ          -3.93461         3.52032        -1.02414
LJ           1.45148        -2.78221         4.34181
LJ          -3.24991        -2.25417        -6.00311
LJ          0.737856         6.36077        -4.61246
LJ          0.417957         1.41831        0.459883
LJ          -4.45157        -2.86499        -4.79953
LJ           4.35457       -0.511735         3.96269
LJ         -0.478966         3.45282        -4.08663
LJ           4.87164         1.22064         4.14074
LJ           4.07353         1.49193         3.02458
LJ          -5.57401         4.92059         5.18532
