108
#Comment!
LJ           -1.7748         3.03501         4.21039
LJ          -3.46544        -6.39184        -3.42654
LJ           4.61445        -3.03773         5.86135
LJ           3.48601         4.07837         1.42139
LJ           -1.4607        -4.76575         4.50821
LJ           1.67563        -3.99333         1.58368
LJ           1.45028         5.40231        -2.56351
LJ           5.30217          4.7715        -4.17913
LJ          -5.38208         4.45225         3.54934
LJ          -4.09459       -0.672397        -4.54001
LJ        -0.0726109        -1.11127        -5.71343
LJ           1.75824        -4.47575        -2.15526
LJ          -1.79829        -6.33604       -0.792778
LJ           4.66942        -4.40029         5.35647
LJ          -1.43929        -4.24322        -6.38752
LJ          -5.62874         6.01924         -2.1185
LJ          -3.16604        -5.61472        -4.12089
LJ           2.30055        -4.93378        -0.23603
LJ          -5.80283        -3.19267        -4.20429
LJ          -2.14226         1.46389         4.95486
LJ          -1.86808          4.4431       -0.502971
LJ            1.8353        0.199948       -0.497354
LJ          -4.21698         1.15703        -4.67884
LJ          -2.76491        0.636589        -4.93243
LJ         -0.681795         4.68632        -4.60064
LJ           4.34005         6.28556       -0.245906
LJ           1.58664         4.49116          3.9767
LJ          -3.50485        -3.56032        -4.24467
LJ          -1.00102       -0.305023        0.255805
LJ           6.30353         1.01254          6.0974
LJ           6.29571         2.05151        -4.12681
LJ            5.9315         1.42959        -2.87277
LJ           6.30969         5.56742        -1.41235
LJ          -2.05939        -6.42823        -1.80489
LJ          0.663838         -1.5232         2.93601
LJ           2.75533         5.09402        -4.04389
LJ          -6.38506        -3.46737        0.749317
LJ           1.61866         2.38367        -3.83334
LJ         -0.876742          -3.831        -5.43051
LJ          -1.65156        -4.64777         -1.8808
LJ           3.73618         2.85838         2.21277
LJ          -2.28928        -1.41705        -4.07501
LJ          -2.58184        -0.50482       -0.221446
LJ          -3.72648         2.70098        -2.20467
LJ           5.20732        -4.78435         6.31357
LJ          -3.12714         2.25639        -1.26773
LJ           6.15609         4.41436        -4.83381
LJ         -0.995636         4.02989        -2.81555
LJ          0.861036         1.98769          4.5834
LJ          -3.83758        -1.41827         3.94826
LJ           3.17756         -3.3727         3.83782
LJ          -4.81924         4.11113         6.02676
LJ          -5.24368        -3.05704        -6.01725
LJ          -4.51016        -1.69449           6.064
LJ           4.95559        -3.70247        -6.35208
LJ         -0.381036         6.23753        -4.72219
LJ          -2.06904         4.21593          3.0442
LJ           3.55546         3.46777         3.38399
LJ          -2.13838        -3.47791         4.38026
LJ           5.23728         6.10553        -3.47808
LJ           2.27213         2.60779         3.68301
LJ           -2.4087         6.09679        0.766784
LJ          -5.96487        -4.41562        -5.69939
LJ         -0.830049         1.98454        -1.57569
LJ          0.574914       0.0386453       -0.431931
LJ         0.0249834        -4.63582       -0.724275
LJ           2.25097         4.94635         4.53631
LJ          -6.00824       -0.863848        -2.49917
LJ          -6.10749        0.941321        -3.31144
LJ          0.579225         1.13528         1.79915
LJ            2.9164         2.67582       -0.397252
LJ           -1.5256         5.07271         2.56806
LJ           2.61678         1.67912        -0.86625
LJ          -2.65628         2.87059        -2.26308
LJ           2.60135        -6.09778        -3.00462
LJ          -4.21258       -0.668025        -6.13593
LJ          -2.02648         -4.6913        -4.49781
LJ          -4.18933        -3.83994         3.71582
LJ           3.41184        0.142447        -1.20316
LJ           1.89313         4.08285        -3.22277
LJ          -5.41355         6.16699        -4.78844
LJ          -1.73578        0.333522        -1.17253
LJ          -1.53676         1.09818        0.298377
LJ           5.99217        -4.14679         5.90442
LJ          -2.45722         4.14084         -6.0612
LJ           1.47564        -5.95625        0.295721
LJ           5.43457        -4.65258         -3.7895
LJ          -1.06227           3.848        0.180702
LJ           2.67186        -3.77731        -6.15552
LJ           5.26056         1.07722        -4.01174
LJ          0.988791       -0.193188        -2.94128
LJ          -1.51605        -4.79582        -0.85024
LJ           4.73459        -2.18455       -0.249044
LJ           3.29902        -1.98158         5.76225
LJ           1.63971       -0.267855        0.919146
LJ           4.60774        -4.59269        -2.71385
LJ           5.27337        0.136478         1.40294
LJ          -4.78405         4.03172        -2.05476
LJ           1.91877        -3.12388         3.61849
LJ          -3.54924        -2.27483         -5.9751
LJ          0.690117         -6.2557        -4.73938
LJ          0.556865        0.774634        0.348682
LJ          -4.23354        -1.55523        -5.19311
LJ           3.90599       -0.533008         4.32897
LJ          -1.01749           3.486        -4.38235
LJ           4.64086         1.02456         3.96761
LJ           4.21825         1.98926         3.28144
LJ          -5.57769         4.89945          4.7145
