108
#Comment!
LJ           -2.0808          3.0056         5.79959
LJ          -4.71541        -4.87454        -2.77826
LJ            4.5171        -1.63091        -5.48079
LJ           1.66064         3.06399        0.918676
LJ         -0.120155        -6.06611         4.02835
LJ           3.07826        -4.07676        0.271197
LJ           2.03998         4.52601        -1.18814
LJ           3.71623          4.4386        -5.24511
LJ          -6.20023         5.22632        0.663331
LJ          -2.44128        -2.43725        -4.26707
LJ         -0.765899       -0.043247         5.82646
LJ          0.986483        -6.20882       -0.860181
LJ        -0.0451641         5.42627       -0.300973
LJ           5.01163        -2.96312        -6.41152
LJ          -1.42472         6.42176        -5.73572
LJ           3.99843        -4.90138        -1.59346
LJ          -4.77122         6.26279        -3.03783
LJ         0.0308266        -4.91136        -0.96394
LJ          -4.93497        -2.15198        -1.57297
LJ          -3.81507         6.23232         5.15074
LJ          -1.53228         3.26874        0.153089
LJ             0.331        -2.56094        -2.99935
LJ           6.33861         3.56918        -3.50531
LJ          -3.19943         2.22958         -4.0563
LJ          0.389366         1.47905         6.29035
LJ           3.42801         5.36472        -2.09832
LJ             4.013         4.59477         0.98341
LJ         -0.840415        -1.73481        -2.54767
LJ          -3.32848        0.983813        -1.29746
LJ          -5.37249        -1.52429         5.51313
LJ          -4.91324         2.73768        -2.22274
LJ           1.50667         3.28534        -2.01729
LJ          -4.80251         6.32407        -1.91536
LJ          -1.00145           4.355        -2.17882
LJ           4.02911        -2.02662         1.42856
LJ           3.02321         3.44654           -3.15
LJ           5.77159        -2.01601        -4.52011
LJ           0.67896          2.9773        -3.99117
LJ         -0.315985        -5.88732         6.00765
LJ         -0.857074        -5.62583       -0.979021
LJ           4.25658         2.14352         3.94503
LJ          -3.45072        -1.13273        -4.96573
LJ          -2.59458        -1.57592        -1.16159
LJ          -3.93571         1.77195        -1.10365
LJ           5.23829        -3.55799         -5.5147
LJ          -3.78225         1.82265      -0.0347462
LJ           4.68588         4.07073        -4.91473
LJ          0.331094         3.57054       -0.795855
LJ           3.02158       -0.274687         2.90147
LJ          -4.25748        -1.28946         3.57714
LJ           2.21012       -0.686659         3.44309
LJ           5.86026           6.395        -5.48841
LJ           5.32218        -4.63199        -4.44719
LJ          -5.33266        -1.22091        -4.41666
LJ           4.67396        -2.43924        -4.68211
LJ           1.05963         6.13115        -2.19506
LJ          -2.55583         2.93781         2.47877
LJ          0.464904         1.23783         2.72623
LJ           -2.1288        0.278894         3.59943
LJ          -5.70251         4.23025        -2.02417
LJ           2.52325         0.50728         2.29655
LJ          -1.16466        -6.00664      -0.0345359
LJ          -6.17124        -5.42945        -6.31277
LJ          -4.61247         1.27481        -2.12281
LJ          0.619107        -1.66715         0.67232
LJ          -2.33577        -4.41736      -0.0354211
LJ           1.86435        -5.46251        -3.22716
LJ           5.13971        -1.28213         6.04812
LJ           5.95175         2.65559        -1.15469
LJ          0.899594        0.723603      -0.0501908
LJ           3.28533         3.05379        -2.32028
LJ         -0.916325         6.04599        0.449348
LJ           5.24309         2.39021         1.81514
LJ         -0.842678        0.644652        0.229458
LJ            5.9138        -4.81642         6.01396
LJ          -6.02372        -2.51821          6.3498
LJ          -3.03933         6.09946        -5.48892
LJ          -2.44464        -3.57501         4.04194
LJ           4.29292        -2.10435        -0.63989
LJ           3.34459        -6.04355        0.716506
LJ           5.48927        -5.23599        -5.48974
LJ          -1.23595         1.31345         -2.1522
LJ          -2.49969        0.649523        -1.98201
LJ           6.32168        -3.60883         4.46121
LJ          -1.61335         5.63448        -4.77598
LJ          -1.20981        -4.46938        -3.28016
LJ           6.45051          -5.013         -3.9151
LJ          -0.24219         5.93099        -2.41029
LJ           4.34307        -1.95176         6.00975
LJ          -5.30067        0.348992         -2.2703
LJ          0.390751         1.12772        -2.95131
LJ          0.663862         5.73159        -1.21598
LJ           3.10395       -0.917625        -2.29196
LJ           5.72976       -0.168132         4.43528
LJ         -0.954687         2.69356        -1.39624
LJ           6.20793        -3.00579        -2.71844
LJ           5.90384        -1.47949         4.25967
LJ          -1.71551         1.13368         1.02274
LJ          0.508752        -1.83026         6.13484
LJ          -2.81798        -2.08922         6.41878
LJ          0.386512         5.28598        -2.85359
LJ         0.0669525           1.652       -0.111365
LJ          -4.50822        -5.54396        -4.73081
LJ           5.87648     -0.00587536         2.33254
LJ         -0.526623         4.03463        -3.88428
LJ           5.48897        0.805261          4.4891
LJ           4.50275        0.856545         2.80626
LJ          -5.54866         5.00594        -6.40285
