108
#Comment!
LJ          -2.18023          1.6834          3.8352
LJ          -1.50681        -5.97571         1.74285
LJ          -3.38324         -5.0363         4.45804
LJ           5.39166         3.57781        -3.10193
LJ           5.08792         5.33908        -2.30746
LJ          -1.19848        -2.85451         4.47431
LJ           4.07901        -6.15943        -4.76862
LJ           3.24258        -3.43904        -4.60237
LJ          -3.67368          2.7622         5.19138
LJ          -5.70828         1.47945        -5.49698
LJ           3.75751        -3.08533        -6.32914
LJ          0.724636        -2.06767        -2.35885
LJ          -4.50182        -1.96104        -2.36623
LJ           2.01036         6.45337         6.20317
LJ          -3.37586        -1.43014       -0.605219
LJ          -5.41595         3.87958         -3.2601
LJ           1.41354         -3.7553      -0.0905742
LJ           5.99228        -5.46878          1.3053
LJ          -4.17754         4.30597      -0.0346281
LJ           3.27662        -5.11664        -3.10585
LJ          -1.63225      -0.0883541         3.47333
LJ         -0.505446         2.33925      0.00187601
LJ          -2.89189        0.286346        -5.32649
LJ          -2.07891          1.1758         5.22768
LJ          -2.81266        -4.32568        0.336995
LJ           4.57936        -3.43666         2.00959
LJ            2.1591         2.47308        0.732916
LJ           5.40733        -2.77848        -5.41557
LJ           3.14164        -2.27126       -0.131979
LJ           2.26897         5.87384         4.49257
LJ          -4.64594         1.87957        -4.58986
LJ           5.74453         1.28693        -5.50126
LJ           3.00274        -2.33718         1.94057
LJ          -2.52769        -2.45973        -2.73095
LJ           4.94071      -0.0334382         1.98762
LJ            3.3925         6.15997        -2.49434
LJ           -4.0261          5.7295        -4.45241
LJ           4.72818        -1.60068         6.20838
LJ            4.4175        -2.12825       0.0727252
LJ          -3.79891        -1.23115        -3.16978
LJ           4.51286         1.99504        0.836173
LJ          -2.77317        0.197108        -1.78631
LJ          -2.75148        -1.21901        0.611929
LJ          -5.81567         3.25333        -5.89024
LJ           1.70997        -2.03801        -5.73471
LJ           0.99029         4.14235        -0.19316
LJ           4.28005        -4.25212        -3.88143
LJ          -4.19348        -3.85703        -2.55884
LJ          -3.69964         2.64813        -1.49958
LJ          -2.91308         -2.3347        -4.29555
LJ           3.89158         1.33938       -0.780131
LJ        -0.0475253         1.55563         2.17882
LJ          -3.87142        0.344933          -4.583
LJ           6.13401         -0.7695         -4.7161
LJ           4.95856         5.44188         3.75797
LJ          -2.86656        -4.91117         5.71643
LJ          -5.50869       -0.609303         5.05251
LJ          -3.39892         6.03472        -5.77707
LJ          -4.18012         -3.3207        -4.30513
LJ          0.939793       -0.907993        -4.93798
LJ         -0.133553         4.91036          6.0664
LJ          -2.40307         3.64354         2.37632
LJ         -0.509125        0.724469        -1.07231
LJ          -1.02585         4.50734         1.30603
LJ            -3.068         1.72334      -0.0402723
LJ           3.43057         4.51683        -5.03608
LJ          -4.75713         4.02258        -1.28233
LJ         -0.175125        -1.51281        -5.89775
LJ          -4.32606        -1.00024        -5.53165
LJ           3.53095        -4.48076         3.29058
LJ         -0.924958        0.993168         2.99925
LJ          -3.48002         4.67673         3.74499
LJ           3.14205         2.58273        -5.33675
LJ           3.74184         6.10552         1.94056
LJ          -3.95329         6.05262          6.2153
LJ          0.624195         3.47485         1.90201
LJ          -5.61585        -4.21169        -2.66725
LJ          -3.09276        -6.14701         3.51035
LJ           -2.8516         3.21385        -4.89026
LJ          -1.43189        0.793889         1.89337
LJ          -3.69026         5.98126        -1.55943
LJ          -6.18049         1.40344       -0.110699
LJ          -1.04283         5.62025         1.73169
LJ          0.459437         4.64758        -5.88498
LJ          -2.74352         3.67779        -5.97223
LJ           2.95649         5.43131         5.70623
LJ           3.61592          5.9304        -1.18032
LJ          -5.33772        -2.81396        0.776759
LJ         -0.581585        -1.42704        -4.85624
LJ           2.03498         5.11449         6.38919
LJ           1.56666       -0.824262        -2.16674
LJ          -4.05995      -0.0691975        -2.89372
LJ           5.43919        -3.39744         5.53985
LJ           1.53583         4.06973        -3.59066
LJ           6.29393        -2.66673         4.45287
LJ           3.70467        -5.53888        -2.09731
LJ           2.59634         5.02959        -4.33834
LJ          -3.03751        -6.06275        -1.79907
LJ          -4.73107         5.16218        -1.18378
LJ           1.05906        0.797048         5.52927
LJ          -2.66091         5.34499         2.65393
LJ           4.93516        -3.01739         3.68944
LJ          -1.78052        -1.67099         2.42158
LJ         -0.643582        0.117213        -5.29008
LJ          -2.65244         4.67399         1.54813
LJ           3.82156       -0.189287        -5.29358
LJ           3.90307         2.83146         2.66586
LJ           -5.0055        -4.95171        -5.21643
