108
#Comment!
LJ           0.38389         5.89305        -4.91013
LJ          -3.67455        -5.28901        -4.51225
LJ          -3.94458        -2.07522        0.587099
LJ           3.37364        -3.24309        -4.14398
LJ          -1.06649         3.39593         4.16353
LJ          -5.06168          -1.723         6.06002
LJ           1.27633        -2.80652         5.45085
LJ          -3.02682         1.79798       -0.882675
LJ          -2.05194        -5.43156         6.20107
LJ           3.84238        -2.36916       -0.264936
LJ         -0.299583         6.18691        -2.20773
LJ        0.00989087        -1.76568        0.774175
LJ          -3.21071        -4.10738         2.36858
LJ           1.68682         3.97619        -4.75354
LJ          -5.34322        -4.29426         1.83053
LJ          -0.63545         3.67523         1.01874
LJ          0.599783       -0.494735        -2.31656
LJ          -3.44571       -0.436754        -1.20803
LJ           5.85424       -0.117027         3.56846
LJ          -5.42128        -2.65803         5.40655
LJ          -2.12921         4.23404         5.71428
LJ           6.11323         5.40407        -1.42472
LJ           1.57796         2.89835         2.59738
LJ          -3.07546        -3.36388        0.736663
LJ          0.152539        -3.08561       -0.239227
LJ          -0.85807        -2.86404         1.56806
LJ           4.55848        -3.15808         5.61152
LJ           2.13341         1.38222         5.32399
LJ          0.744446        -4.48857         4.09104
LJ          0.480337         1.63424         1.60372
LJ          -1.39877        0.352561        -6.33087
LJ          0.582512        -5.82412        -3.21821
LJ           1.16303         6.40164        -6.10047
LJ              1.03        -3.85121         6.14428
LJ          -5.88584        -5.61317         6.29069
LJ           5.49887         4.04855         5.34342
LJ          -6.10368        -1.36984        -4.75607
LJ         -0.935656       -0.856135        0.827149
LJ          -3.87801        -5.76348        -1.66429
LJ          0.346206        -5.28666        -5.83762
LJ           4.22397        0.560476         3.21696
LJ          -1.08089        -6.06051         3.29127
LJ          -5.10801         3.71552        -2.88283
LJ           1.56449        -2.15835         2.44138
LJ          -2.62719         3.94374        -5.09356
LJ          -1.40136         1.58562        -3.76088
LJ          -4.71437         2.35305         4.79389
LJ          -6.24407        -2.75578         5.99684
LJ          -1.99047        -3.04636        -1.05627
LJ          -4.42425        -1.56412         2.44625
LJ          -5.90994        -5.20477        -5.20559
LJ          -2.03002         4.37485         3.60666
LJ          -1.53271         2.80656        -4.02902
LJ         -0.757799         5.88294        -3.42859
LJ         0.0885281        -1.68709         3.66329
LJ          -4.54004         -1.8325       -0.592364
LJ          -4.50465         5.87992        -5.58123
LJ          -1.19772        -1.12989        -4.50097
LJ           1.65167         1.10451         1.66061
LJ          -4.56207        -4.74085         2.63917
LJ           6.11756        -4.01901        0.992195
LJ           2.14299         2.26839       -0.586642
LJ           5.88125         2.47141        -3.43321
LJ         -0.999403         1.44389        -2.62722
LJ         -0.265657        -1.55626        -1.69869
LJ           4.97426         4.79185        -5.70958
LJ          -5.37823         1.82916        -4.02709
LJ           4.05698        -4.30758        -5.22926
LJ           1.13893        -3.61563          4.5624
LJ           1.57657         -5.6936        -6.41361
LJ          0.625607        -1.83491       -0.532699
LJ          -5.44975        -2.58923        -2.01782
LJ          -3.19588          6.1688        0.797832
LJ           2.55031          -5.757       -0.630603
LJ          -3.54345        -3.62631         6.45366
LJ           2.94348         -5.8391        -2.90391
LJ           -4.2063        -6.40543        -2.64239
LJ           -6.3356         -1.9989        -2.14192
LJ           6.45638         4.45557        -2.02209
LJ           5.49789       -0.792431         4.44796
LJ          -2.32385        -5.86388        -3.78785
LJ           3.20244       -0.130958         6.14833
LJ          -4.41768        -4.77611        0.646374
LJ          -2.88556        -3.48602         -2.7021
LJ          -6.41761         5.00998         -5.8516
LJ           4.93838         5.46517        -4.70859
LJ           3.23798         1.02149         1.38636
LJ           3.75999         2.96424       -0.390374
LJ            2.8389         -3.2065        -1.57886
LJ         -0.791088        -1.83786         5.19043
LJ           -4.7069         2.52491         -2.1996
LJ          -2.90799        -6.05275        -5.64173
LJ         -0.959349        -1.89316         2.22169
LJ           3.03712         -4.0813         4.61529
LJ          0.676369        0.700451            6.07
LJ          0.558512        -2.80221        -1.42224
LJ           1.64019         -3.5951         1.48236
LJ           1.36458         2.41505        -2.37112
LJ           2.83952         1.47388        -6.09866
LJ           -2.3519         3.38092         2.90463
LJ          -5.51901        -1.17968        -1.60065
LJ          -1.00334        -2.29962         -6.0032
LJ          -5.65716        -2.47571       -0.266112
LJ          0.302128          3.6908        -0.35655
LJ           5.46988         6.03371       -0.740388
LJ           1.54271        -4.90364        0.913108
LJ          -4.86518        -2.75496        0.192427
LJ           1.77585       -0.802904        -6.21413
