108
#Comment!
LJ          0.692378        -6.20515         4.10915
LJ            -4.442         5.74425         -2.5581
LJ          -3.05203        0.854608        -3.26628
LJ           5.51103        -2.34016         -3.6008
LJ           2.83069         4.80584          4.9269
LJ          -3.63008       -0.998354        -6.28532
LJ          -2.68473        -5.30292         3.75912
LJ          -5.12761         1.44636        -4.53721
LJ         -0.755358        -4.52396         5.08473
LJ           1.68688        -1.98345        -5.43144
LJ          0.406464        -4.03716        -4.38482
LJ           -2.2964        -2.66982         2.83312
LJ          -6.16451        0.814539        -6.25877
LJ          -2.04286        -5.66238         6.16778
LJ          -3.52953        -5.81229        -0.75089
LJ          -1.82467         -4.7187        -6.35378
LJ           2.24185        -2.12584           2.698
LJ           6.27986       -0.927498        -6.26918
LJ          -1.39851        -0.56098        0.641822
LJ          0.912474        -6.37325          1.1345
LJ          -2.96888         -6.3255        -5.91649
LJ          -3.34801         5.43096        -3.13172
LJ            1.0466         5.82818         5.50837
LJ           4.94307        -5.09666        -1.50743
LJ         -0.588492         3.72996        -4.72138
LJ           -2.2825        -5.25989       -0.379395
LJ          0.114428        -4.42559         3.92793
LJ          -2.88851         1.27377         1.46995
LJ         0.0572471         -3.9121         -5.9601
LJ           3.80381         4.89369        -3.19573
LJ          -3.03125        0.668256        -2.17893
LJ           3.72685         1.20211        -3.68339
LJ          0.196079         1.02506         4.01096
LJ          0.540851        -3.16229         6.35273
LJ           1.61246         3.36898        -5.34409
LJ           4.14341         4.30066         5.75216
LJ         -0.355157        -5.38149        -1.82368
LJ            1.1337          1.4556         3.21367
LJ          -4.04402         4.93368        0.982204
LJ          -2.86703        -4.12694        -4.41138
LJ           3.91975         5.03425         4.39904
LJ          0.708576         3.49173         3.02755
LJ          -3.46084          4.5763        -6.08239
LJ           2.46679        -1.75731          3.6939
LJ           -2.7911        -5.34234        -3.93358
LJ           5.87105         5.01124        -6.33485
LJ           3.77348       -0.702854         5.37701
LJ           4.35056         1.25119         4.26964
LJ           5.57531         1.15006        -4.83956
LJ          -3.46165        0.654878         0.77999
LJ          -5.99587         4.32752        -4.41037
LJ           2.19169        -1.68479         5.62185
LJ          -3.14975         1.42218        -5.80487
LJ         -0.390339        -4.16088        -3.39818
LJ           1.77313        -3.75948         6.32937
LJ          -2.63502        -6.34065       -0.450602
LJ            3.4669         5.42733         0.87114
LJ          -5.57835        -1.81598         4.60662
LJ          -3.35052        -3.07561       -0.202451
LJ           -6.2962        -4.98092         2.97289
LJ          -4.43462        -5.39321        0.517052
LJ           2.18415         3.27187          4.5962
LJ           3.62782        -2.76941        -3.49018
LJ          -3.57987         5.97107        0.420228
LJ           2.66224         5.19716        0.285844
LJ           2.82441        -3.89183         4.26071
LJ          -5.78101        -5.91332         2.57482
LJ          0.290305        -3.60719        -2.74094
LJ           3.79678        -2.40425         1.70052
LJ           5.05705        -4.07697         6.12093
LJ           1.48894         0.36277         3.82756
LJ          -4.89764        -2.13815         1.71604
LJ           1.28019         4.30876        -1.93515
LJ          -5.75898         5.34232          -2.374
LJ        -0.0835166         3.35285        -1.42893
LJ          -5.82691         4.80005         5.69563
LJ          -1.92055         -4.6768         2.30026
LJ          -3.61034       -0.222277         5.76302
LJ          -2.34253         4.22794        -1.75615
LJ           4.30183         5.20327        -4.89083
LJ           3.98819        -2.61944        -2.28196
LJ           6.25621         4.28968         5.88588
LJ          0.361727         3.21784        -2.93564
LJ          -6.29002        -5.03087         -2.7564
LJ           5.21104         4.18997         6.38721
LJ           3.17858        -5.54315        -3.44214
LJ          -1.96427         5.32012        -4.71311
LJ            4.3603        -1.99934        -5.22578
LJ          -4.47973      -0.0618292          1.8858
LJ           3.78029        -1.82894         5.21472
LJ          0.416241         1.15899         1.83804
LJ          -2.41465         6.02975         2.01365
LJ          0.207278        -3.31157         3.94257
LJ        0.00218702        -5.79604         3.20352
LJ          -4.77832        0.443727         2.80159
LJ           2.89097         1.01192        -5.94695
LJ           1.03378         2.65918         3.39742
LJ          -1.81201         3.93438        -4.80508
LJ           5.70336         4.22779          4.8228
LJ          -4.17544         2.64731         2.19994
LJ          -3.14215        -4.10035       -0.904785
LJ          -2.30013         2.33923        -4.58997
LJ           3.09905          5.5575       -0.878177
LJ           5.96883        0.131964         1.07216
LJ           1.55865        -5.53234        -3.45848
LJ           2.94825        0.416294        -2.21621
LJ          -3.70601         1.97195         3.16706
LJ          -4.11547         1.37168         4.50806
