108
#Comment!
LJ          -5.33094         3.05272        -4.57328
LJ           1.17252         1.83992       -0.908628
LJ          -3.39251         1.96974         2.42069
LJ             1.639         3.74769        -2.09892
LJ          -2.70108        0.787332        -3.79355
LJ            3.7851         2.35226         6.00601
LJ           6.11297         -3.8123        -5.36325
LJ          -1.20347      -0.0425278        -1.95694
LJ          -2.83229        -3.44974        -4.61242
LJ          0.438101       -0.244797         2.57602
LJ            1.7601         1.89045        0.977663
LJ           6.40824       -0.947414         1.90608
LJ          -4.36474         3.23617        0.635365
LJ          0.988876        0.582611        -0.42043
LJ           1.43093         3.92222       -0.113938
LJ           4.89154        -1.98113        -2.20761
LJ           2.51255         2.04181          3.0548
LJ           3.05257      -0.0533294        -1.05309
LJ          -5.72768         3.99828         4.45434
LJ          -4.19629         3.74876         2.30628
LJ           -3.2399        -2.51101        0.302624
LJ          -3.79464         4.06088        0.597737
LJ          -2.01903        -2.08437         2.41325
LJ        -0.0888145         1.62904         5.18421
LJ          0.909967         3.43076         1.58387
LJ          -1.94599       -0.267256        -1.27434
LJ           2.80468        -4.61928         2.98197
LJ          -1.01802         -6.1119         1.54975
LJ           1.90226       -0.936225        0.234365
LJ           2.71955        -2.07051          1.0462
LJ          -1.20401         2.15694        -4.76866
LJ          -4.99294        -2.51449          1.5506
LJ           5.94763       -0.471503         4.43602
LJ         -0.738559        -5.22005         3.04132
LJ          -5.64863        -2.81541         -4.1059
LJ         -0.858352         2.66203         4.00016
LJ           2.07978          3.8481        -1.09413
LJ           2.32906        -3.18118        0.719073
LJ          -1.11446         1.20931        -1.82179
LJ           2.18733        -5.33058         2.21593
LJ           1.59771        -3.32244        -2.76553
LJ           3.57787        -6.09584       -0.547002
LJ           3.81458         5.37602        -1.60615
LJ           1.18725        -2.71875         6.23394
LJ           3.33169           6.134        -3.14934
LJ           1.64175         5.16802        -2.58546
LJ          0.191827          6.3708        -5.05428
LJ           1.35369         1.67267        -5.91316
LJ          -2.67099         4.90243         2.74858
LJ           1.43549        -1.97111         3.98353
LJ          -5.57553         3.72154         1.52404
LJ           -3.9801        -2.48103        -2.65109
LJ           6.23743         2.58971         2.77567
LJ         -0.572224          5.0377         -1.2553
LJ          -3.34279         4.99003        -2.06782
LJ           3.71472        -1.59006          1.2438
LJ         -0.543974        0.547751         2.48012
LJ         -0.304631        -4.73349        -6.18783
LJ          -4.97072         3.98299         5.31653
LJ           2.98599       -0.287459         -2.1419
LJ           5.85011          0.8249        -1.67774
LJ       -0.00256753        -3.76535        -4.18765
LJ           1.51434        -3.63056         5.48547
LJ          -1.70767        -2.87819         3.49448
LJ           6.33376         4.79498         1.95909
LJ          0.416915        -1.01667        -0.52894
LJ          -1.60342         1.06562        -3.15579
LJ          0.577203        -0.24374        -1.71859
LJ           -5.2951         1.97498        -6.20968
LJ          -4.37347         1.57787        0.334856
LJ           3.24408        -4.03063         -2.2298
LJ          0.185957         1.24788        -1.02911
LJ            3.2445        -3.22113         1.15712
LJ            4.8324         2.03022         6.33513
LJ          -3.68445        -4.86914         1.77707
LJ          -5.19142        -3.14283        -5.53839
LJ          -2.94879         1.31976         -6.2121
LJ          -1.33264        -1.79018         5.58284
LJ           4.35625       -0.923701         5.36906
LJ           6.21399        -1.37371        -2.78324
LJ            1.1585         4.42176         1.40235
LJ           6.04427         4.12449         3.77608
LJ           2.05276         5.65135        -3.68874
LJ            -3.116         4.84286         5.10187
LJ            -5.548        -6.05246         2.82569
LJ           2.45172        -3.82815          2.1485
LJ           2.36362         2.94587        -3.02071
LJ          -4.30333        -6.20505         5.61611
LJ           2.56987        -6.25071       -0.906963
LJ          -3.24567         4.10728         4.24684
LJ           2.45602        -5.62241        0.574298
LJ           -1.7187        -4.43949         1.70167
LJ          -2.97864        -2.21207         -3.3727
LJ          -4.46924        -1.98596         4.43582
LJ          -5.12322        -5.49486        -1.74983
LJ           6.06445        0.640446     -0.00947144
LJ           2.58902         5.52645        -1.64432
LJ          -5.70413         5.52119        -3.89644
LJ          -1.49157        -5.06023        -1.37721
LJ           6.28041         1.25957          3.0496
LJ          -3.22873        -1.25493       -0.207658
LJ           5.59243       -0.451785        -6.42409
LJ           2.18301         6.37178         6.34454
LJ           3.88439         -5.5316        -5.08561
LJ          -1.01058          3.0864        0.910144
LJ           -2.7984        -0.77929        -1.94463
LJ            -4.331         6.04841        -4.66226
LJ           4.36725         5.26518       -0.312431
