108
#Comment!
LJ          0.066982         5.84207        -5.55573
LJ          -3.81483         -5.5197        -4.03667
LJ          -3.54341        -2.00526        0.198276
LJ           3.67274        -3.04276        -4.27425
LJ         -0.822312         3.62483          4.4416
LJ          -4.84062        -1.82077         6.25035
LJ          0.873664        -2.43259          5.8568
LJ          -3.37378         1.71452       -0.259688
LJ          -1.40615        -5.60486         6.39526
LJ           3.44094        -2.41376        0.552682
LJ         -0.175626        -6.29051        -2.42019
LJ           0.14657        -1.35012         1.56241
LJ          -3.39143        -3.36608         2.77365
LJ           1.18848         3.84515        -4.98487
LJ          -5.68443        -3.66921         1.67825
LJ         -0.990468         4.24761         1.31942
LJ           1.04134        -0.27669        -1.88011
LJ           -3.5895       -0.478209        -1.90873
LJ           5.34632        0.329554             3.3
LJ           -4.8736        -3.10394         4.61383
LJ          -2.37194         4.40093         5.78951
LJ          -6.38295         5.66733        -1.49847
LJ            1.5267         3.05971         3.04746
LJ          -3.88377        -4.15703        0.104831
LJ         -0.240625        -1.82576       -0.176493
LJ          -1.38775        -3.37376         1.16791
LJ           4.12601        -3.78989          5.2752
LJ            3.1997         1.48548         5.36105
LJ          0.409781        -4.33973         3.90574
LJ          0.630429         1.99593         1.15258
LJ           -1.6167        0.442647        -6.11055
LJ          0.390643          -6.172        -3.82781
LJ           0.92847         5.87345        -6.14865
LJ           1.36489        -3.70996         6.16002
LJ          -5.04729         -6.0773        -6.36467
LJ           5.23724         4.53142         5.41128
LJ           6.16189        -2.16189        -4.10231
LJ         -0.745427        -1.18617        0.712589
LJ          -3.93119        -5.61544         -1.5789
LJ         0.0159305        -4.90572        -5.57595
LJ           4.66595         1.08964         3.47584
LJ         -0.905938         6.00018         3.27139
LJ          -5.45613         4.26597        -3.04849
LJ           1.46117        -2.21059         2.40121
LJ          -2.73443         4.41958        -4.88097
LJ          -1.17267         2.12817        -3.69398
LJ          -5.77314         1.55296         4.22369
LJ          -6.15639        -2.10312         5.96009
LJ          -1.14993        -2.76542        -1.50538
LJ          -4.31431        -1.13583         2.43083
LJ          -6.14485        -5.39758        -5.01362
LJ          -1.38809         4.15131         3.53935
LJ          -2.08107         2.57216        -4.18852
LJ         -0.923623         6.29505        -3.65174
LJ          0.430347        -2.31856         4.14537
LJ          -4.51356        -2.49877       -0.350977
LJ          -4.92864         5.41952        -5.08197
LJ           -1.8085        -1.46243        -4.52004
LJ           2.40522        0.788522         1.76386
LJ          -4.79525        -4.84307         2.79756
LJ           5.94587        -4.64207         1.43172
LJ           2.30283         3.23498        0.408898
LJ           5.82103         1.81199        -3.50511
LJ         -0.782675         1.15683         -2.2503
LJ         -0.228113       -0.513156        -1.63187
LJ           5.01857         5.08361        -6.17353
LJ           -5.3896         2.37583        -4.73325
LJ           3.64366        -4.43702        -4.89139
LJ           1.33855        -3.49781          4.3722
LJ           2.13667        -5.73993         6.13556
LJ          0.889543        -1.46283     -0.00906419
LJ          -5.43641        -2.67497        -1.71886
LJ          -2.54861         5.79624        0.826089
LJ           3.03812        -5.90335       -0.779446
LJ          -3.36185        -2.81211        -6.32054
LJ           2.14928        -6.17041        -3.18909
LJ          -3.78148          6.2574        -2.11291
LJ          -6.28463        -1.41519        -2.60649
LJ          -6.06552         4.44463        -1.64607
LJ           5.41875        -1.41699         5.07547
LJ          -2.50779        -5.24226        -3.23378
LJ           3.24574        0.404986         5.88819
LJ          -4.75025        -5.09201       0.0904437
LJ          -3.46901        -3.69007        -2.92917
LJ            6.1287         5.00634        -6.13742
LJ           4.67228         5.68838        -4.55971
LJ           4.39814         1.56861         1.88995
LJ           3.43961         1.99987       -0.695155
LJ           3.32333        -3.02026        -1.17496
LJ         -0.589759        -1.71201         4.94082
LJ          -4.22095          2.2202        -1.34651
LJ          -2.30792        -6.22646        -6.08071
LJ          -0.79361        -2.11198         1.89145
LJ           2.63677        -4.47236         4.40136
LJ          0.106331        0.740353         5.66103
LJ          0.892428        -2.35953        -2.10703
LJ           1.56768        -4.65804         1.56184
LJ          0.631949         2.61643        -2.83312
LJ           3.33167         1.79088         6.38156
LJ          -2.56735         3.40868         2.85696
LJ          -5.02035        -1.60035        -1.73572
LJ         -0.986999        -1.40744        -6.05996
LJ             -6.45        -3.17479       -0.812064
LJ           1.33015         2.87048       -0.249169
LJ           5.31146         6.39483        -1.23121
LJ           1.82768        -5.57001        0.735284
LJ          -4.60908        -3.38292        0.713008
LJ           1.06433       -0.954214        -6.29832
