108
#Comment!
LJ          -5.21737         3.06822        -4.55044
LJ           1.12699         1.72206       -0.871256
LJ          -3.39613         2.00924         2.42954
LJ           1.68284         3.86196        -2.16952
LJ          -2.55551          0.5819        -3.74417
LJ           3.85424         2.35087         6.02622
LJ           6.14189        -3.80487        -5.40624
LJ          -1.11345        0.112505         -2.0301
LJ          -2.71308        -3.32289        -4.46182
LJ          0.532294       -0.170139          2.4624
LJ           1.85808         2.02942        0.822206
LJ           -6.4156       -0.806452         1.99248
LJ          -4.32045         2.98363        0.635555
LJ          0.902179        0.448391       -0.214267
LJ           1.40033         4.06441       -0.237234
LJ           4.73836        -1.95502        -2.20232
LJ           2.44727         2.24077         3.01004
LJ           2.96824       -0.173567       -0.952142
LJ          -5.66788         4.10623         4.38149
LJ          -4.14349         3.75708         2.21786
LJ          -3.21179        -2.47743        0.329613
LJ          -3.87476         4.16007        0.795422
LJ          -2.05684        -2.02094         2.24536
LJ        -0.0726805          1.4849         5.14995
LJ          0.889036         3.27976         1.52118
LJ          -1.97222       -0.361168         -1.1629
LJ           2.94961        -4.71107         2.97546
LJ           -1.0258        -6.00765         1.41124
LJ           1.84688       -0.866537         0.36346
LJ            2.8097        -2.12778        0.971877
LJ          -1.15945         2.01287        -4.77316
LJ          -5.15571        -2.62113         1.61745
LJ           5.94315       -0.574308          4.4673
LJ         -0.647438        -5.09565         3.11572
LJ          -5.76663         -2.5599        -4.00789
LJ           -1.0024         2.69544         3.79075
LJ           2.11902         3.74343        -1.22419
LJ           2.34909        -3.25141        0.627697
LJ          -1.15767         1.12434        -1.81959
LJ           2.30921        -5.41843         2.22881
LJ           1.54399        -3.62095        -2.97917
LJ           3.56644        -6.09238       -0.396896
LJ           3.71642         5.35326        -1.64731
LJ           1.13244        -2.82953         6.30224
LJ           3.38532         6.00057        -3.15691
LJ           1.57485         4.97069        -2.61917
LJ          0.273199        -6.29041        -5.17568
LJ           1.25331         1.87778        -5.83497
LJ          -2.74664         5.01747         2.81309
LJ           1.37637        -2.00344         4.16744
LJ          -5.52551         3.81441         1.53072
LJ          -3.89951         -2.4894        -2.74519
LJ           6.23148         2.51896         2.77563
LJ         -0.441696         5.15808        -1.33451
LJ          -3.13291         4.86917        -2.01211
LJ           3.81985        -1.74506         1.36511
LJ         -0.740838         0.58065         2.61452
LJ         -0.404013        -4.63869        -6.15523
LJ          -4.85861         3.85303         5.33884
LJ           2.83594       -0.470426        -1.94382
LJ           5.96929        0.847917        -1.83494
LJ          0.151848        -3.63604        -4.22323
LJ           1.49699        -3.62147         5.28104
LJ          -1.62619        -2.72098         3.29513
LJ           6.16022         4.73192         1.98636
LJ          0.364803        -1.06342       -0.664217
LJ          -1.53369         1.05205         -2.9884
LJ          0.505737      -0.0348873        -1.79038
LJ          -5.21104         1.82554        -6.39232
LJ          -4.29264         1.57349        0.466173
LJ            3.2154        -3.87298        -2.00258
LJ          0.161951         1.14291        -1.05894
LJ           3.36427        -3.25024         1.07887
LJ           4.96379         2.02699        -6.44473
LJ          -3.84772        -4.75867         1.72632
LJ           -5.0661        -3.23441        -5.47138
LJ          -2.91403         1.29756        -6.31952
LJ          -1.24302         -1.6159         5.65932
LJ           4.22967       -0.740518          5.1556
LJ           6.31483        -1.41857        -2.69644
LJ           1.05838         4.61046         1.40187
LJ           5.97585         4.13451         3.81665
LJ           1.93336         5.54491        -3.74123
LJ          -3.19613         4.74354          5.2728
LJ          -5.80774        -6.05327         2.77663
LJ           2.22659         -3.7237         2.46041
LJ           2.33516         3.03448        -2.88628
LJ          -4.20201        -6.07228         5.65945
LJ           2.55357        -6.34919       -0.979441
LJ           -3.1978         4.04643         4.21909
LJ           2.40939        -5.64364        0.633109
LJ          -1.66152        -4.25348         1.85631
LJ          -2.92399        -2.13053        -3.51047
LJ          -4.45266         -2.0545         4.61058
LJ          -4.97223        -5.67551        -1.64233
LJ           5.89493        0.739464       -0.149274
LJ           2.75251         5.44887        -1.78942
LJ          -5.63993         5.61588        -3.93943
LJ          -1.64045        -5.17021        -1.46553
LJ           6.40749         1.17879         3.21782
LJ          -3.19782        -1.17571       -0.256587
LJ           5.56026       -0.404291         6.46066
LJ           2.21412         6.41772         6.28413
LJ           3.63771        -5.65273        -5.00883
LJ         -0.938426         2.73938         0.80141
LJ          -2.84641       -0.957349        -1.73264
LJ          -4.39759         6.09771        -4.89122
LJ           4.23237         5.55233       -0.445128
