108
#Comment!
LJ          -2.15455          1.9204         3.76043
LJ          -1.18392         -6.1046         3.08537
LJ          -2.70302        -4.43618         4.59064
LJ          -6.14295         3.85289        -2.49102
LJ           4.16391         5.46319        -1.29197
LJ         -0.861753          -3.474         4.42292
LJ           3.59343        -5.96051        -4.60383
LJ           3.63039        -3.96551        -4.23258
LJ          -3.65736         2.61334         4.82865
LJ          -5.68177         1.89156        -4.78995
LJ           3.05862        -3.03588         -5.3913
LJ          0.963081        -2.23604        -2.60856
LJ          -4.03056        -2.46503        -2.27857
LJ           3.00925        -6.08918         6.01947
LJ          -2.89245        -2.39644        -1.19999
LJ          -5.18029          3.4147         -3.6588
LJ           1.11603        -3.82489       -0.888563
LJ           5.44524        -5.68361         1.22693
LJ          -4.17711         3.13749       -0.800675
LJ           2.87256        -5.02249         -4.4641
LJ          -1.27143        0.921976          2.6405
LJ         -0.107732         2.31879         1.07986
LJ          -3.10594       -0.321863        -4.83638
LJ          -1.97011        0.743409         5.61823
LJ          -3.37213        -5.39413       -0.130289
LJ           4.28958        -3.74116         1.80313
LJ           3.79507         2.85344         1.98693
LJ           6.10793        -2.73841        -5.56033
LJ           3.02114        -2.27459        0.610335
LJ           2.24017         6.17377         5.43268
LJ          -4.94827         1.23565        -4.26453
LJ           6.19078         1.47457        -5.41663
LJ           3.51893        -3.10927         1.68379
LJ          -3.08404        -2.83898        -2.87849
LJ            6.0099       -0.492561         2.39355
LJ           2.95069         5.83427        -3.21106
LJ          -4.18141         6.19477        -5.00136
LJ           4.41926        -1.02399        -6.17779
LJ           3.48178        -2.13618       -0.741404
LJ          -3.78193        -1.56467        -2.90999
LJ           4.54152         2.93959         0.71913
LJ          -2.57079        0.105432        -2.43296
LJ           -2.4152       -0.676509          0.7637
LJ          -5.37913         3.52176        -5.39894
LJ           2.08996        -2.39295        -6.23573
LJ          0.323212         3.06057       -0.416146
LJ           4.80594        -5.08897         -3.7561
LJ          -3.60042        -4.26885        -2.61195
LJ          -4.44187         3.41323        -1.92197
LJ          -2.43698        -1.93503        -3.31141
LJ           3.40361         2.32782      -0.0681934
LJ          0.227902         1.30833         2.55627
LJ          -3.76044         0.70202        -4.78374
LJ           6.21156        -1.81925        -5.22942
LJ           4.70032         5.87837         3.89824
LJ          -1.81436        -4.71908         5.47506
LJ          -5.24269        0.469812         5.11202
LJ          -4.22547         5.44903        -6.32689
LJ          -4.78884        -3.78415        -5.17448
LJ           1.64053        -1.47832        -5.13103
LJ          0.326688         5.25082         6.26913
LJ          -2.78903          3.6139         1.90438
LJ          -1.64779         1.77675          0.2187
LJ        -0.0394915         4.28952         1.01704
LJ          -4.24458         1.03395       -0.240057
LJ           3.84467         5.02824        -4.33593
LJ          -5.71588         4.00076       -0.892354
LJ          -1.61326        -1.34054         6.24954
LJ          -3.88908        -1.18866        -6.15668
LJ           2.79729        -3.17005         2.65729
LJ         -0.639608         1.94092         2.93985
LJ          -2.93667         4.80754         4.01974
LJ           2.84794         1.50825         -5.1651
LJ           2.50078         5.76952         3.11728
LJ          -3.74113         6.17081         4.72805
LJ          -1.54126         2.82671         1.52445
LJ          -4.91138        -4.31982        -2.88643
LJ          -3.67782        -5.31691         3.43928
LJ          -1.90094         3.19646        -4.43924
LJ          -1.64482        0.434254         1.72588
LJ          -3.84365         6.09818        -1.78505
LJ          -5.80786         1.57217       -0.011218
LJ          -1.51976          4.9925         1.41977
LJ            1.8184         4.78958         6.36872
LJ          -2.84317         3.30386        -6.33897
LJ           3.56078         5.62538         5.48575
LJ           3.33678        -6.25141        -1.77397
LJ          -4.83527         -1.6115         1.31875
LJ         -0.119518        -2.76909         -4.9482
LJ           2.41138         4.62564        -5.21142
LJ           1.45938        -1.08971        -2.34597
LJ          -4.12756       -0.487072        -2.25229
LJ           6.00978        -3.31972         4.86421
LJ            1.3339         5.34721          -3.721
LJ           5.68014        -2.34281         4.25052
LJ           3.67894        -5.95227        -2.73856
LJ            2.6645         4.26427        -4.07463
LJ          -3.00024         6.29143        -2.81655
LJ          -5.68864         5.29203       -0.797044
LJ         0.0407365         2.33579          6.1832
LJ          -2.42616         5.92214         3.54017
LJ           4.52267        -2.28563         3.48722
LJ          -2.50983        -1.93044         2.86904
LJ          0.204596       0.0887971        -5.88646
LJ          -2.31632         4.53934         2.29174
LJ           3.18596        0.742608          -5.628
LJ           4.04379         3.36982         2.91548
LJ          -5.27229        -4.95731        -5.61048
