108
#Comment!
LJ           3.20425         4.16201        0.187358
LJ           5.48673        0.156108          -3.599
LJ          -4.75169         5.52047        0.842402
LJ           3.48319         1.75817        -6.46317
LJ          -3.76648          2.9099          4.3407
LJ          -5.93735        -1.65238         5.89713
LJ          -1.73633        -4.73238         6.11397
LJ         -0.199987         3.24111          6.0494
LJ          0.197451         3.77296        -5.83509
LJ           5.74004        -2.05283        -6.45156
LJ         -0.517707         1.27844        0.691706
LJ          -1.79938         4.29595        -4.42073
LJ           5.26674         3.39944         1.17402
LJ          -6.39773          4.4498        -3.60635
LJ          0.260089        -1.92344         5.43417
LJ          -5.79339         2.91098        -5.22962
LJ          -5.02237        -3.95334         -5.3752
LJ          -2.63389         4.12155         1.15408
LJ          -0.94985         2.90152         3.54767
LJ          -3.16304         -2.9033         -2.0206
LJ          -1.11132         6.26361         3.29826
LJ            6.4504         3.44397        0.169233
LJ           0.30654       -0.482142         -2.9407
LJ           5.53277        -5.77252        -4.79191
LJ          -2.81854         5.79316         5.30739
LJ           2.61574         -1.5607        -2.58219
LJ           5.77638       -0.778329       -0.796239
LJ          -1.86811         3.05405         2.05211
LJ           2.64952        -4.31052         6.20843
LJ          -5.75155         1.14591         -5.1816
LJ          -2.14642        -6.20665         6.13792
LJ           4.36719        -3.05894        -3.47262
LJ           1.22713         2.97597       -0.592389
LJ          -1.54109         3.42025        -6.27875
LJ           2.23651         4.87642         6.25205
LJ          -5.01407        -1.07767          3.8822
LJ           3.06032         3.43704         2.09299
LJ          -3.09174         1.11822          2.6487
LJ          -4.93644        -5.04422         5.36133
LJ          -2.15072         4.32527        -5.44137
LJ           3.42309        -1.64498          1.1319
LJ          -3.67131          2.1702         2.05708
LJ          -4.35191        -5.60902        -4.33493
LJ           3.06556       -0.239535         4.34712
LJ         -0.636646         3.03477         4.57735
LJ          -1.24118         3.22432     -0.00443714
LJ           -1.9393        -3.68759        0.522996
LJ           6.10246       -0.997643         2.94578
LJ           2.15401          5.9262         3.35172
LJ          -5.24435        -3.44325         4.90395
LJ          0.247174        -3.91212        -4.64928
LJ          -3.31518         4.31109         3.53168
LJ         -0.199615        -1.03887        -3.79548
LJ          -2.95396         1.60348         3.69293
LJ           3.94077         2.81546         2.43329
LJ            6.0486         4.45744         1.00683
LJ          -6.24172        -6.15794        -2.02658
LJ          -1.25035        -2.13115        -5.16951
LJ           1.83607        0.983939         1.34472
LJ          0.273506        -5.62232        -5.44354
LJ          -4.67868         2.99234       -0.809366
LJ         -0.583791        -4.69784        -2.99528
LJ           -6.0997         5.66764        -3.44531
LJ           1.17302         4.36243        -1.41536
LJ           2.97213         4.83633        -2.49879
LJ          -4.08903        -1.06045         6.37782
LJ           -4.2041         5.02625        -4.16383
LJ           1.63534        -2.48688        0.406315
LJ           2.37314         3.91903         5.72197
LJ           1.19923        0.636156         5.46874
LJ          -4.47019        -2.00776        -4.89613
LJ          -6.12501         3.39242        -3.65126
LJ          -5.07454        -4.74541        -3.85571
LJ         -0.238809        -5.65195        -1.76702
LJ          -4.54528        -5.38076         2.58312
LJ           -3.0402        -1.51422          1.1277
LJ          -6.34608        -4.11642        -2.92851
LJ           4.09579         5.56228         0.80402
LJ           3.59199         5.76077        -2.65037
LJ           5.83624       -0.135657         3.67755
LJ          -4.52946        -4.82226        -5.62789
LJ           3.82583        0.504673         1.53147
LJ         -0.632508        -3.89165         1.15615
LJ           4.67415       -0.158542         1.23897
LJ          -4.57087         4.72126        -5.47369
LJ           5.07771         5.56517       -0.302999
LJ           5.22535         1.51111         0.44973
LJ          -4.92353       -0.622579         2.93086
LJ         -0.772034        -1.92784        -2.73522
LJ         -0.612818        -5.52383        -6.37278
LJ           6.31754        0.921909         -1.3783
LJ         -0.242757          4.1665          5.6489
LJ          -3.30173          -1.572        -2.31532
LJ            4.9042         4.33255        -5.83422
LJ          -6.35036        -1.50732         -5.7247
LJ          -2.33775         5.04859         2.75105
LJ           1.71494         1.67643        0.501938
LJ          -5.69997         5.39849        -1.97673
LJ           3.15805         1.48306         1.30566
LJ          -4.38691         3.33916         0.91111
LJ          -5.92058         3.39195       -0.888786
LJ          -1.57784         5.65892         4.94483
LJ          -6.03346         2.59668        -2.17679
LJ           5.83621        -1.61868        -2.36573
LJ           3.28258         2.14762        -1.41969
LJ          -2.90691        0.575175        -1.78839
LJ          -1.57139        -4.62742         1.08593
LJ       -0.00437528        0.705511        -2.74331
