108
#Comment!
LJ          0.428786        -6.00741          4.5158
LJ          -4.17187         6.32899        -2.35019
LJ          -3.39045        0.844663        -3.68305
LJ           5.34062        -2.46989        -3.93369
LJ            2.0212         4.93195           4.691
LJ          -3.53898        -1.13889        -6.08534
LJ          -2.11182        -4.63806         3.98127
LJ           -4.9368         1.50688        -5.77521
LJ         -0.539373        -4.85699         5.03698
LJ           1.86441        -2.38443         6.05486
LJ         -0.117641        -4.41134        -4.35397
LJ          -1.39998        -2.57626         2.87436
LJ          -5.81331      -0.0350538         6.27299
LJ          -1.81854          5.8411         6.25173
LJ          -4.34769        -4.63331        -0.41457
LJ          -2.03167         -5.2867         5.86287
LJ           2.12576        -2.11728         2.59106
LJ          -5.97152       -0.861175        -6.09183
LJ          -2.62176       -0.310024        0.629178
LJ          0.120435        -5.43888       0.0831954
LJ          -3.12906         6.37445        -6.12988
LJ          -3.83038         5.30088        -2.94634
LJ           1.21738         5.33072         5.74389
LJ           5.83846        -5.31534        -1.30101
LJ        -0.0808269         3.34056        -3.67197
LJ          -2.92765        -5.45704       -0.893826
LJ          0.441533        -5.00373         4.09416
LJ          -2.87789          1.3733         1.53135
LJ          0.209612        -4.10078         6.19902
LJ           3.23972          4.4986        -2.52933
LJ          -2.51889        0.564399        -2.69312
LJ           3.13107         2.06355        -4.06753
LJ          0.103016         1.68673          4.5289
LJ          0.776938        -3.01454         6.01497
LJ          0.799461         3.84457        -5.33878
LJ           4.13625         4.91047         5.23936
LJ          0.215252        -5.20105        -1.02978
LJ          0.353839         1.12659         2.85634
LJ          -3.99748         5.37719        0.635219
LJ          -2.40783        -4.14607         -4.5413
LJ           4.49907          4.4312         4.31421
LJ          0.438447         3.79077         2.93222
LJ          -4.11901         4.80061        -5.16631
LJ           2.18816        -1.31521         3.51562
LJ          -2.92024        -5.70268        -3.84642
LJ          -5.85562         4.98712        -6.17303
LJ           4.12539       -0.532162          5.0206
LJ           4.81977        0.917122         4.55711
LJ           4.92988        0.484647        -4.46271
LJ          -3.73856        0.324781         1.43807
LJ          -6.31999         5.03085        -3.91272
LJ           2.09535       -0.819649         5.27538
LJ          -3.22485         1.24331        -4.89296
LJ          -0.32164        -4.42266        -3.24427
LJ           1.62482        -3.36624        -6.33677
LJ          -2.95524        -6.38313       -0.119106
LJ           4.20048         5.08386       0.0392896
LJ          -5.24991        -1.95926         5.45369
LJ          -2.00052         -2.3417        0.134578
LJ          -6.13135        -4.82493         3.00964
LJ          -5.24341        -5.85397         1.29918
LJ           2.21657          3.6705         4.04562
LJ           4.11784        -2.21474        -3.44635
LJ          -2.86683         5.08966         0.02651
LJ           2.33447         4.48656      -0.0777766
LJ           3.00001        -4.42193         4.79353
LJ          -5.68462         6.28638         3.39254
LJ           1.00324        -3.61718         -2.8265
LJ           2.90792        -2.89858         2.06944
LJ           4.96737        -5.08149         5.92294
LJ           1.55704         1.22984         3.37873
LJ          -4.76245        -2.23003         1.26988
LJ          0.754741         4.52536        -1.45923
LJ           -6.3016          5.5165        -2.57285
LJ         -0.386163         2.27361        -2.10743
LJ          -4.82002         5.01724         6.42985
LJ          -2.07936        -5.39401         1.96186
LJ          -4.33496      -0.0743357         6.23447
LJ          -2.86527         4.85692        -1.65582
LJ           4.44121          6.1999        -5.09659
LJ           4.97153        -2.84547        -2.28309
LJ           6.10023         4.03009         5.93312
LJ          0.828823         3.62769        -3.20056
LJ          -5.88749        -4.95659        -2.90819
LJ           5.06265         4.66638         5.98491
LJ           3.54551        -5.38163        -3.23985
LJ          -2.12277         4.37596        -5.52524
LJ           3.76875        -1.52035        -4.34414
LJ          -5.40221       -0.725442         1.62465
LJ           2.98318        -1.63646         5.25319
LJ          -1.12157         1.27955         1.54816
LJ          -1.75885        -6.16442         2.58058
LJ          0.127793        -3.47819          3.2704
LJ         -0.129557        -5.73137         3.47167
LJ           -4.0237        0.510263         3.42739
LJ           2.53933        0.591967        -5.50601
LJ           1.41885         2.25943         3.29302
LJ          -1.55763         3.69656         -4.5864
LJ           5.15861         3.88666         5.01251
LJ          -4.10444          2.7147         1.98144
LJ          -2.87892        -3.86469       -0.742098
LJ          -1.96667          2.9954        -5.22395
LJ           3.31425         6.03383         -1.0823
LJ           5.90175       -0.036104        0.868073
LJ            2.3831           -6.03        -3.60557
LJ            3.0438         1.30661        -1.73046
LJ          -3.71569         3.20313         3.17249
LJ          -3.54426         1.02157         4.82342
