108
#Comment!
LJ           4.36146         4.31031        -4.20819
LJ           1.67917         -3.0672        -3.49075
LJ           6.45651         1.98459       -0.663328
LJ          -3.31647         6.42733        -2.53327
LJ           2.58967        -6.23525         6.45683
LJ           3.88177        -2.49567        -4.34638
LJ          -4.67868        -3.13831         4.59802
LJ           3.98265         1.66967        -3.43212
LJ          -6.08191         1.44697        -1.57303
LJ          -3.35954        -3.32817         6.34508
LJ           4.22429        -6.15697         3.35261
LJ          -3.47621         4.27887         4.24528
LJ          0.498159        -6.04219         1.49201
LJ           3.28963        -6.37953        -2.63272
LJ           1.60058        -6.21483        -3.06276
LJ            5.6369         2.80395        -3.68413
LJ           4.33799        -1.68297       -0.310955
LJ          0.313372         2.47376        -6.31618
LJ          -1.17104        -1.64704         5.11435
LJ           3.03854         2.75782        -6.42633
LJ           -4.9935        -1.70551         5.02334
LJ          -5.98272          4.5895         2.07042
LJ           -4.3607         2.75794         0.70978
LJ           -3.3992         2.14704        0.834612
LJ         -0.334598         2.93615         1.19855
LJ         -0.241855         3.20325         5.45134
LJ           2.54299        -5.68961         3.92932
LJ           3.84597         1.06518        -5.24673
LJ          -2.06927         1.12802         4.87088
LJ         -0.256954         1.56397         3.01044
LJ          -1.64808         5.79783        -5.99111
LJ         -0.618435         3.84702         3.61936
LJ           4.24259        -6.30994        -1.87083
LJ          -1.00236         1.96644        -1.62224
LJ           2.20037         -1.6258        -2.65833
LJ          -3.38818         4.34328         -2.5477
LJ         -0.561232        -2.74007        -2.56434
LJ           4.86013         4.55556        0.813852
LJ            2.6437       -0.254896        -4.02826
LJ          -5.49165        -6.36909         -6.1997
LJ           3.26932        -5.30494         4.89184
LJ          -2.77834        -3.22983         3.18027
LJ          -5.00303        -5.33423        -1.84525
LJ           5.78258         2.47642         2.43591
LJ           3.47581        -3.66976        -4.04339
LJ           4.09409         2.57197         1.37602
LJ           5.27553         4.15029         3.58014
LJ          -3.57191        -3.46619         5.23762
LJ           4.48186        -5.25625         5.01668
LJ            1.9544         5.59632        -1.03962
LJ          -1.01834        -3.06796        -4.58808
LJ          -6.00114        -4.05848         3.99222
LJ           1.68519        0.249235        -5.16938
LJ         -0.335032        -1.98627        -4.56991
LJ          -6.12093          2.4439        -1.79483
LJ          -3.03936         -6.3466         1.08506
LJ         -0.789665        -5.07703         3.82814
LJ           1.43039        0.556791         3.12324
LJ         -0.567266        -6.26963         1.90917
LJ           5.73249         2.68783         5.88888
LJ         -0.156532         4.93821        -5.66374
LJ          -4.49973         1.54249        -4.71465
LJ           5.58062        -4.06376       -0.778483
LJ           1.78843        -6.19736        0.703331
LJ          -6.38223        -5.05451         4.70617
LJ           3.69487        -3.87728         3.70696
LJ          -5.61861        -1.77592         3.32827
LJ           4.25317         3.00076        -5.75549
LJ           1.67655         4.24798         6.11664
LJ             -2.65        -3.03368        -5.64663
LJ          -4.47115        -1.40035         4.03294
LJ           1.13452        -2.85123        0.209691
LJ          -3.92187        -6.21368         3.78498
LJ          -2.13458        -6.20039         4.73991
LJ          -3.69188        -3.99505         3.24829
LJ          -1.05964         4.89153         6.21351
LJ          -4.05383       -0.120644         1.58236
LJ           3.25427        -2.23776         2.87163
LJ          -4.96718         3.59466        -3.69817
LJ           6.46101        -2.45942         2.41045
LJ          -2.32281        -4.49639         4.84412
LJ            6.2685         4.54259        -6.04798
LJ          -3.78165         3.75375        -3.98692
LJ         -0.750025        -0.34879         3.60303
LJ           2.64734        -4.09068         2.39261
LJ          -4.99249        -2.89316       0.0713881
LJ           -6.1387        -5.13222        -4.49374
LJ          -1.31432        0.461031        -2.66921
LJ          -5.49862        -4.43809        -2.33047
LJ         -0.731606        -5.50451         2.67638
LJ          -5.89852         5.22108         1.29792
LJ           2.38606        -3.08801       -0.249944
LJ          -1.12655        -2.31314        -5.36671
LJ          -5.78768        -3.41351        0.519461
LJ          -4.33028          2.1545        -6.18109
LJ          0.997575         2.10414        -2.68367
LJ           1.95818         3.33124        -4.22643
LJ         -0.200034        -1.33937         -3.2116
LJ           6.29234         1.50854         2.77025
LJ          -2.52628        -3.10232         5.63299
LJ         -0.166203         1.81709        -1.10399
LJ           2.84322           3.155        0.726894
LJ          -3.28775        -4.43868         4.29435
LJ          0.298934        -6.24716        -4.45634
LJ           1.78864        -4.06508       -0.573052
LJ          -4.26336       -0.244121         4.84519
LJ           1.01682         4.14045        -1.52067
LJ           5.24265         1.57126         3.19777
