108
#Comment!
LJ          0.747562         6.02191        -4.47581
LJ          -3.52125        -4.98559        -4.80064
LJ          -4.49992        -1.19118        0.735839
LJ           3.13837        -3.47738        -4.07754
LJ          -1.43639         3.30652         3.81764
LJ          -4.85239        -1.34085           6.015
LJ           1.69693        -2.71369         5.18459
LJ          -2.73449         1.86947        -1.44484
LJ          -2.71752        -5.33778         6.14655
LJ           4.17487        -2.34817         -1.0086
LJ         -0.696902         5.60538        -1.88657
LJ         -0.158982        -2.22861        0.044744
LJ          -3.20176         -4.7767         1.97512
LJ           2.11715         4.09912        -4.55152
LJ          -5.13069        -4.85511         1.71589
LJ         -0.291923         3.18825        0.692331
LJ          0.106226       -0.788899         -2.6314
LJ          -3.36475       -0.438752       -0.581795
LJ          -6.32126       -0.212348         3.29931
LJ          -5.75796        -2.41435         5.85005
LJ          -1.91086         4.08196         5.62931
LJ            5.7051         5.07771         -1.3799
LJ           1.60531         2.71486         2.17665
LJ          -2.19869        -3.54394         1.33722
LJ          0.484385         -4.1482       -0.149125
LJ         -0.382578        -2.68641         1.63074
LJ           4.94769        -2.61916          5.9056
LJ           1.17766         1.19112         5.34258
LJ           0.99178        -4.76003         4.18736
LJ          0.063234         1.41234         2.07232
LJ          -1.19228        0.265891         6.40579
LJ          0.906315        -5.43535        -3.08472
LJ           0.93079          6.2925        -5.65483
LJ          0.792554        -4.22186         6.10761
LJ           6.31628        -5.17843         6.19486
LJ           5.72922         3.64099         5.32007
LJ          -5.52066       -0.680889        -5.33058
LJ          -1.05482       -0.701138        0.922179
LJ          -3.88688        -5.93098        -1.85975
LJ          0.492374        -5.75232        -6.02193
LJ           3.84832        0.109781         2.99638
LJ          -1.23379        -5.30319         3.31045
LJ          -4.91755         3.82796        -2.88512
LJ            1.6221        -2.15818         2.45677
LJ          -2.51572         3.51386        -5.27425
LJ          -1.79909         1.51231         -4.4059
LJ          -3.78689         3.05425         5.29262
LJ           6.03448         -3.4804         6.16423
LJ          -2.72401        -3.28831       -0.664957
LJ          -4.51545        -1.95038         2.42843
LJ          -5.69557        -5.07936        -5.50585
LJ          -2.30647          4.6953         3.92439
LJ          -1.03454         2.77016          -3.839
LJ         -0.471299         5.63011        -3.02183
LJ         -0.237853        -1.15927         3.25693
LJ          -4.66175        -1.14078        -0.88215
LJ          -4.10301         6.33421        -6.00759
LJ         -0.654241       -0.849024        -4.51708
LJ           1.39132         1.31735         1.48723
LJ          -4.09714        -4.59163         2.53654
LJ           6.34606        -3.46407        0.631193
LJ           2.02397           1.363        -1.42614
LJ           5.97076          3.0497        -3.37374
LJ          -1.01889         1.55018        -2.43428
LJ        -0.0838218        -2.50869        -1.70028
LJ             5.127         4.22815        -5.89719
LJ          -5.38017         1.39186        -3.36296
LJ           4.39148        -4.13597        -5.48064
LJ          0.916592        -3.81557         4.75221
LJ           1.54589        -4.93869        -6.39602
LJ          0.294018        -1.91478       -0.807097
LJ           -5.3206        -2.36988        -2.12574
LJ          -3.76649        -6.42066         0.77334
LJ           2.11415        -5.61706       -0.493553
LJ          -3.70298        -4.35037         6.32113
LJ           3.62831        -5.54654        -2.65036
LJ          -4.51228        -6.12459        -2.99902
LJ           6.17112        -2.55199        -1.88284
LJ           6.10648         4.58261        -2.34587
LJ           5.24211       -0.554925         4.38709
LJ          -2.24397        -6.39391        -4.33198
LJ           3.24712       -0.483712         6.31756
LJ          -4.16873        -4.43175         1.27621
LJ           -2.3682        -3.31044        -2.47703
LJ          -6.23041         5.01091        -5.58577
LJ            5.1422         5.57848        -4.29084
LJ            2.1297        0.559971        0.982972
LJ           3.97424         3.80227       -0.112762
LJ           2.42253        -3.35441        -1.90384
LJ         -0.919692        -1.96705         5.39876
LJ          -5.07352         2.18319        -2.78661
LJ           -3.3372        -6.00111        -5.43418
LJ         -0.985132        -1.29948         2.64431
LJ           3.35303        -3.71443         4.81892
LJ           1.24299        0.683119         6.38819
LJ          0.167535         -3.2548        -1.02639
LJ            1.6582        -2.52727         1.51808
LJ           1.99658         2.30863        -2.00788
LJ           2.39244         1.14864        -5.71164
LJ          -2.29553          3.1314         2.81555
LJ          -5.61046       -0.951212        -1.29881
LJ           -1.0149        -3.05254        -5.96854
LJ          -5.66327        -1.38925       -0.423114
LJ         -0.585697         4.37225       -0.369275
LJ           5.68281         5.66757        -0.34408
LJ            1.3246        -4.40127        0.962824
LJ          -4.34864        -2.88019        0.473746
LJ            2.2695       -0.672954        -6.09693
