108
#Comment!
LJ          -1.36688        0.043866         2.55109
LJ          -1.61278         5.75775       -0.854616
LJ          -4.86595         6.10394         5.16063
LJ           1.58731         2.84134         -4.8507
LJ          -5.54381         5.03451        -4.92195
LJ          -1.76796        -2.39413         5.14933
LJ           5.54745         5.94349        -5.03534
LJ           2.92556         -2.0287        -5.04297
LJ          -3.42742         3.20494         6.27841
LJ           6.44964         0.80794         6.29119
LJ           3.07352        -1.98108         4.94423
LJ          0.323035        -1.20762        -1.92987
LJ          -4.85637       -0.722284          -2.938
LJ         -0.908936         5.96167        -6.02474
LJ          -6.06297        0.116389        -2.27063
LJ          -6.27729         5.27039        -2.25466
LJ           2.29278        -3.50488         2.07552
LJ           -5.5247        -4.79504         1.06734
LJ          -4.49662        -5.37156         0.21346
LJ           1.92974        -4.49628        -1.32755
LJ          -2.96412       -0.830015         3.92747
LJ          -2.47049         2.28105       -0.440456
LJ          -2.29395         1.73396         -5.5478
LJ          -2.54904         2.49606         4.97874
LJ          -1.38098        -1.51691         1.72047
LJ           4.84916        -2.49443         3.27015
LJ          -1.40749         1.60972        -2.96584
LJ           3.61929        -2.40826         6.36381
LJ           4.57267        -2.15358        -1.89873
LJ           3.10326         4.47624         2.97103
LJ          -5.06298         3.72557        -6.17332
LJ           6.28269        0.804535         -5.2104
LJ           2.21038       -0.231404         2.13337
LJ          -1.51797       -0.789704         -3.1463
LJ           1.36042        0.554016         1.74754
LJ           5.47423        -5.66963       -0.423199
LJ          -2.79305         4.10671        -3.45264
LJ           5.44573        -4.04553         5.06887
LJ            6.0352        -2.21388          2.0892
LJ          -3.64648        -0.70765        -4.00294
LJ           4.94396        0.191665        0.193879
LJ          -3.13957        0.697891       -0.358365
LJ           -2.0723        -1.74012           3.598
LJ           6.11311         1.85126         6.04628
LJ           2.75288       -0.917859        -5.18523
LJ           3.67538        -5.91148         1.18444
LJ           5.20095        -1.73098        -3.34633
LJ          -6.33499        -2.44151        -2.83857
LJ          -1.64966        -2.43407        -1.25994
LJ          -4.91523        -3.73344        -5.49991
LJ           5.32837         -1.2879        -2.40322
LJ          -0.56062          2.6878         2.27649
LJ          -2.85245       -0.786286        -4.82063
LJ           5.80637         2.13653        -4.12039
LJ           5.59935         4.20443         3.40763
LJ          -5.98183        -6.07978         4.67727
LJ          -6.01137        -2.84814         5.24853
LJ          -2.06037        -5.69512        -3.58808
LJ          -2.63965         -1.7492        -1.94065
LJ         -0.122859         1.26471        -3.92411
LJ          -1.09593         4.02998         -5.6478
LJ          -1.67108         5.45788         2.69055
LJ           1.73961        -2.26153        -4.82884
LJ          -3.57911         5.22129         1.79379
LJ          0.368686         2.78879       -0.817909
LJ           1.04539         5.55035        -5.59314
LJ          -3.31522         4.19557       -0.523951
LJ         -0.942704        -1.63664        -3.35663
LJ          -6.20668       -0.551254        -4.41153
LJ           5.58168         4.86417         5.06205
LJ         -0.179829       -0.582864         3.94535
LJ          -5.45657         4.97085         4.06471
LJ           4.23826         5.03263        -5.68016
LJ          -6.29439         5.80466        -1.50023
LJ          -4.44682        -6.39514        -2.94667
LJ           5.55482         5.93515         3.70974
LJ           6.29332        -3.60467        -2.08796
LJ          -1.55364         4.64606         3.76495
LJ          -5.37416         2.43145         -3.8621
LJ          -2.65252        0.906435         2.13233
LJ          -2.71931        -5.12795        -1.82184
LJ           5.54126         0.86997       -0.295566
LJ         -0.417859        -6.26445         1.71638
LJ          -3.06166         4.56377        -6.20908
LJ          -2.55885         5.25777         5.87828
LJ           2.52199         5.06496          4.4356
LJ           4.38006         4.54677       -0.848951
LJ          -6.19873        -4.89977      -0.0126848
LJ          -1.04769       -0.935461         -5.0649
LJ          -1.12438         5.73027         3.60809
LJ            2.4064       -0.247332        -1.25656
LJ           -3.4828        0.814263        -3.68816
LJ          -6.02573        -3.70442        -6.44348
LJ            2.8948        0.990663        -3.73708
LJ          -5.92046        -4.04988         5.22134
LJ           4.40764        -5.12455        0.610084
LJ           2.71456         5.15924        -6.28296
LJ          -3.48565        -5.40358        0.875072
LJ          -2.81037         5.12188        -1.02137
LJ           3.92943        -3.43763          4.0477
LJ          -3.41445         4.52045        0.856283
LJ           6.25903        -5.64835         4.10546
LJ         -0.738537       -0.439935         1.39994
LJ          -4.12178         2.44748        -4.92518
LJ          -2.52253         3.75828        0.121041
LJ           5.54495        -3.26594        -4.62783
LJ           3.41977         1.04659         1.64199
LJ          -4.10202        -4.81963        -4.06756
