108
#Comment!
LJ           1.48652         6.36967        -3.49761
LJ          -3.49335        -3.85084        -4.89477
LJ          -5.05199        0.683996         1.41435
LJ           2.67883        -3.97781        -3.94251
LJ          -1.97086         3.50636         3.70489
LJ          -4.47981       -0.520054         6.12485
LJ            2.5815         -2.5493         4.87655
LJ          -2.12921         1.99998        -2.66273
LJ          -2.65273        -6.01205         6.17941
LJ           4.95124        -2.38772        -2.49563
LJ          -1.33802          4.4801        -1.50779
LJ         -0.710136        -3.65964        -1.05076
LJ          -3.71859        -5.91747        0.850748
LJ           2.96355         4.36503        -4.14587
LJ          -4.26967        -5.03139         1.82162
LJ          0.433123         2.28648      -0.0625995
LJ         -0.886705        -1.45109        -3.24811
LJ          -3.57027        -0.59266        0.642674
LJ          -4.68836       -0.225564         2.46649
LJ          -6.11356        -2.33249        -6.23986
LJ          -1.29625         3.73993         5.17711
LJ           5.11615         4.61578        -1.03516
LJ           1.63486         2.44848         1.35192
LJ         -0.523774        -3.99893          2.6528
LJ          0.530427        -5.75181        0.896635
LJ          0.633118         -2.1751         1.64029
LJ           5.40699        -1.66954        -6.41824
LJ         -0.385329        0.912017         5.61256
LJ           1.33047          -5.156         4.56746
LJ          -1.10279         1.11261          3.0183
LJ          -1.03612       -0.233018         6.24995
LJ           1.55968        -4.66788        -2.82808
LJ          0.575517         5.83508        -4.85592
LJ          0.139292        -5.09902         6.01906
LJ           5.35862        -5.34422         6.14709
LJ            6.1457         2.86886         5.40649
LJ          -4.30293        0.747563         6.36701
LJ          -1.25857       -0.530613          1.3232
LJ          -4.16865        -6.36825         -2.7491
LJ          0.242947        -6.24448        -6.25836
LJ           3.11579       -0.809793         2.58111
LJ          -1.53426        -3.73399         3.24596
LJ          -4.72386         4.84499        -3.17522
LJ           1.64285        -1.80794         3.19879
LJ            -2.245         2.62413        -5.65014
LJ          -2.49893         1.62245         -5.6083
LJ          -2.12904         4.52337         6.44363
LJ           4.69959        -3.31914          5.6865
LJ          -4.26758        -3.68333        0.330433
LJ           -4.6645        -2.76419         2.25507
LJ          -5.87102        -4.85817        -6.00423
LJ          -2.72632         5.02049         4.61396
LJ         -0.172856         2.40896        -3.43255
LJ        -0.0537405         5.09496        -1.79799
LJ          0.217503       0.0865719         3.34709
LJ          -5.17677         0.09058       -0.898628
LJ          -4.26837        -6.00625         5.47355
LJ          0.448662       -0.290974          -4.484
LJ           1.35669         1.14271        0.866553
LJ          -3.03731        -4.60782         3.38109
LJ          -6.07321        -2.33652       -0.112108
LJ           1.92925        -1.09778        -2.40397
LJ            6.2953         4.27818        -3.21864
LJ          -1.07858         1.84134        -2.12577
LJ          0.098103        -3.85337        -1.66553
LJ           5.58602         3.15417        -6.31703
LJ          -5.89516       -0.820371         -3.3871
LJ            4.6663        -3.89514        -5.17945
LJ          0.715877        -4.35669         4.87277
LJ           1.99101        -3.53338         6.38712
LJ        -0.0674935        -1.73351        -1.80817
LJ          -5.28883         -1.7253        -2.11166
LJ          -4.56838         -6.0966          0.2814
LJ           1.86093        -5.48095        -0.63042
LJ          -4.59275         -5.0959         5.99581
LJ           4.98705        -4.94814        -2.14415
LJ          -4.84286        -5.45829         -3.2453
LJ           5.48494        -3.47346        -1.35382
LJ           5.23438         4.89463        -2.78726
LJ           4.56105       -0.267933         4.52691
LJ          -2.45911         5.72487        -5.62744
LJ           4.50652       -0.828721         6.07347
LJ          -3.91018        -3.77516         1.65397
LJ          -1.27459        -2.95977        -1.91669
LJ           -5.9841         4.98121        -5.03939
LJ           5.60996         5.65668        -3.43577
LJ         -0.276493      -0.0467338         0.39945
LJ            4.4861         5.49494        0.387958
LJ           1.55468        -3.69866        -2.57461
LJ          -1.15656        -2.25787         5.85913
LJ          -5.21222         2.08825        -2.85009
LJ          -2.97087        -6.20167        -5.07045
LJ          -2.02837       -0.370085         2.23989
LJ           3.89348        -2.92403         5.28077
LJ           2.28342        0.587474         6.33397
LJ          -0.37918        -4.63286       -0.110179
LJ           1.60415       -0.812878         0.84891
LJ           3.10508         2.74369        -1.96894
LJ            1.6115         0.31474        -4.66028
LJ          -2.48724         2.51778         2.20004
LJ          -5.64929        0.175687        -1.78253
LJ         -0.995757        -4.54076        -5.98259
LJ          -5.86866       -0.326345       -0.183392
LJ          -2.31188         5.65677       -0.474488
LJ           5.90596          4.6711        -0.11658
LJ          0.628196        -3.44872        0.658328
LJ          -3.18203        -3.24108         1.09097
LJ           1.97907       -0.368374        -5.33473
