108
#Comment!
LJ          -3.44925         3.51805        -4.25732
LJ           6.06951         -3.4785        -2.89998
LJ            4.9067       -0.276848        -2.16496
LJ          0.639146        -1.22326        0.930204
LJ           2.33014         4.79965          2.4262
LJ           1.71362         -5.2057        -2.26576
LJ           3.56452         1.08874         1.35909
LJ           3.10728         3.12622         4.77174
LJ           5.38748         5.64922        -3.94998
LJ         0.0514227        -5.58119        -4.07147
LJ          -2.87674         1.47429         3.76827
LJ          -1.78817         5.63851         -0.1735
LJ             1.813         5.49924       -0.414443
LJ           3.90071         -5.0415         3.16186
LJ         -0.430784         3.26972        -5.61505
LJ           1.62044        -1.48844        -1.58404
LJ          -5.83709         2.66846         2.82818
LJ           2.87136        -1.47825        -1.07647
LJ          -3.21316        0.357348         3.36652
LJ          -2.03624        -5.51719         6.23794
LJ          -1.01131       -0.143756         2.61419
LJ          -3.98508        -4.53329        -5.54595
LJ           2.16748         2.68901        -5.46306
LJ          -3.36336         3.61879        -1.39697
LJ          0.417983        -3.58956         3.01941
LJ           1.07566         3.34323        -4.62262
LJ          -4.81487         4.69398        -4.13048
LJ           3.83008         1.28979        0.242213
LJ          -3.11558        0.557018        -3.86064
LJ          -4.25067        -3.15975         5.05218
LJ           -3.3056         4.11545         1.51865
LJ          -4.46616        -1.17521       -0.271975
LJ          -1.73122        0.513341       -0.448561
LJ          0.391471         2.69331        -4.10221
LJ          -3.72887        -2.56394       -0.663095
LJ          0.477971         4.83127        -3.74488
LJ           3.14355         2.26209        -5.89889
LJ          -2.96987         2.64047        -3.00942
LJ          0.707297         3.69706         2.68607
LJ          -3.39081        -6.24841        -1.91476
LJ           4.60547         2.93693         3.83507
LJ         -0.750484        -2.77344         6.34568
LJ          -2.51867        -2.29867        -2.96422
LJ          -5.69109         2.64526        0.120624
LJ           3.35945         3.36639        -5.20025
LJ          -5.19085         1.83851       -0.383765
LJ            3.9709          3.7325         5.18022
LJ           3.16369         1.63971         2.42272
LJ           3.63782        -3.18653       -0.617726
LJ           6.45688       -0.765699         1.57458
LJ          0.633663       0.0968911         5.37548
LJ           4.02614         6.19135        -2.21485
LJ            3.0685        -3.52287        -3.77061
LJ           1.88911        -2.07971       -0.524963
LJ           5.22134        0.212824        -3.14085
LJ          0.212954         6.17206        -3.01864
LJ          -2.42246        0.424377         1.99641
LJ          -1.63194        -1.64102        -4.31178
LJ          -0.85223         5.87566         1.14454
LJ         -0.524332         2.07981        -2.83371
LJ           2.21842        -3.00117         1.48041
LJ          -1.37252        -3.55982        -2.21903
LJ          -6.07099        -4.81818        -4.77408
LJ           4.01604         5.45443      -0.0864584
LJ           4.65174        -3.92874         4.75552
LJ          -5.51605        -5.42885        0.196881
LJ         -0.935054        -4.71368          5.0182
LJ           1.08234         1.45583         5.11872
LJ           3.27918       -0.510156         2.89723
LJ         -0.711998       -0.119032        -2.84642
LJ           4.11483       -0.186935        0.796488
LJ           0.81145           5.866       -0.578593
LJ          -1.58691         4.29847         3.65757
LJ           4.86324        -1.31886        0.173591
LJ          -4.05182        -2.49773         4.10265
LJ          -3.04647        -5.74118         6.07846
LJ          -4.10578         2.88704        -5.77912
LJ          0.583473        -2.88535         4.34095
LJ           6.33935        -5.65172       -0.664557
LJ           4.86803        -2.42753          5.2866
LJ           5.07229        -1.01942        -5.31104
LJ          -5.17033         2.18807        -3.65638
LJ          -4.19434         2.67486        -4.23187
LJ          -6.23225       -0.586769        -1.83577
LJ          0.467441        -5.67421       -0.739847
LJ          -4.85405         -1.8933         4.73321
LJ            2.0375        -5.53338        -4.16944
LJ         -0.188373        -6.03527         -2.2941
LJ           3.75156        -5.08588         4.19411
LJ          -1.26678       -0.897499        0.397732
LJ          -1.63072         3.90909        -2.55708
LJ          0.833505         4.89069      -0.0493522
LJ          0.929583         1.63011        -4.06232
LJ          -1.99793        -2.11908         2.92675
LJ           -3.2187        -3.85062        -1.86501
LJ          -3.74017       -0.493004        -3.39289
LJ           5.77097        0.442152         1.91128
LJ         -0.774992         -4.8958      -0.0993573
LJ          -1.87985        0.507756        -2.89017
LJ          -2.40326        -1.88595         5.99907
LJ           1.28913         5.92263        -4.16394
LJ         -0.592064        0.911995        -1.22181
LJ          -2.68524         3.19231         5.44175
LJ          -3.93917         1.72443        0.595008
LJ       -0.00585759         5.45606        -1.93634
LJ           5.94306          1.7581         5.27138
LJ           -2.8437         1.26279         0.19938
LJ          -5.45689         5.44239        -2.98803
