108
#Comment!
LJ          -1.96463         2.98936         5.49338
LJ           -4.4555        -5.13385        -2.74289
LJ           4.92779        -2.04949        -6.04502
LJ           1.96622         3.21001         1.09721
LJ          -0.40339        -5.81057          4.2644
LJ           2.82786        -4.05202         0.54127
LJ            1.7628         4.82519        -1.56373
LJ           3.90699         4.53403        -5.05905
LJ          -6.04627         5.08094         1.19984
LJ          -2.72783        -2.33015        -4.48112
LJ         -0.637272       -0.241135         6.08706
LJ           1.37059         -5.8507         -1.1906
LJ         -0.390516         5.65007       -0.100889
LJ           4.92462        -3.07857        -6.27343
LJ          -1.40883        -6.05262        -5.99367
LJ            4.6313        -5.24001         -1.6881
LJ          -4.67323        -6.03358        -3.64034
LJ          0.461874         -4.7457       -0.699065
LJ          -5.10688        -2.44794         -2.1661
LJ          -3.55594           5.354         5.12285
LJ          -1.66318         3.65248       -0.174003
LJ          0.657264        -2.07234        -2.55498
LJ          -6.13194         3.72792        -3.32364
LJ          -3.11209         1.93937        -4.23684
LJ          0.197962         2.08403        -6.32173
LJ           3.63073         5.53617        -1.76931
LJ           3.56642         4.63502         1.58049
LJ          -1.33648        -2.08559        -2.84445
LJ          -3.27379        0.745236        -1.26042
LJ          -5.39537        -1.13742         5.70636
LJ          -5.22724         2.46489         -2.7517
LJ            2.2096         2.78229         -2.2414
LJ          -5.18043         5.51105         -2.1687
LJ          -1.33704         4.49659        -1.92354
LJ           3.39365        -1.93427         1.68955
LJ           2.56097          3.5797        -3.46605
LJ           5.90992        -2.25194        -3.50122
LJ           1.02782         3.12654        -3.92487
LJ         -0.498047        -5.53563         6.39512
LJ         -0.995657        -5.98144        -1.29981
LJ           4.39642         2.16881         3.83564
LJ          -3.75864        -1.02009        -4.84756
LJ          -2.61428         -1.4703       -0.973449
LJ          -4.00359         2.04429        -1.34984
LJ           5.23952         -4.0702        -5.63105
LJ          -3.81833         1.88019       -0.167506
LJ           5.05951         4.08632         -4.9141
LJ          0.144796         3.61815        -1.17647
LJ           2.98835        0.261952          3.2156
LJ          -4.03486        -1.32644         3.82108
LJ           2.48669        -1.14371         3.65556
LJ          -6.45375         6.37044        -5.94874
LJ           5.73746        -4.21906        -4.69718
LJ          -4.69459        -1.11543        -5.07337
LJ           4.88972        -2.73372        -5.21782
LJ           1.00132         6.04845        -2.40088
LJ          -2.46099         3.19208         2.57422
LJ           1.00004         1.76751          2.7292
LJ          -2.34371       -0.400035         3.77676
LJ          -6.24978         4.12191        -2.02543
LJ           2.76691         1.01496         2.13677
LJ          -1.50877        -6.07876       0.0831712
LJ          -6.28335        -5.54012        -6.18152
LJ          -3.70917         1.18229        -2.07153
LJ          0.325955        -1.21054        0.367587
LJ          -1.91055        -4.33523        -0.12435
LJ           1.95208        -5.92094        -4.21096
LJ            5.5479        -1.00191        -6.00962
LJ            6.2855          3.0512        -1.68155
LJ           0.86674        0.800984        0.392498
LJ           3.36341         3.10389        -1.84583
LJ         -0.920591         5.79959         0.77916
LJ           4.50957         2.12161         1.60789
LJ          -1.31423         1.14806      0.00395021
LJ           5.30054        -5.21148         -6.1225
LJ          -6.22261        -2.26052         6.42049
LJ          -2.75175        -6.36526        -5.47208
LJ          -2.77714        -3.63997         3.97548
LJ           4.17393        -1.58665       -0.594293
LJ           3.13228         6.33033       0.0456787
LJ           5.68441        -5.65386        -5.23222
LJ         -0.947225         1.15502        -1.94824
LJ          -2.08055         0.54817        -1.33411
LJ           6.24351        -3.62752         4.69445
LJ          -1.76276         5.29604        -4.98938
LJ         -0.684612        -4.67993        -2.72049
LJ          -5.99938        -4.91468        -4.08728
LJ         -0.637697         5.99554        -1.95477
LJ           3.95451        -2.15073         6.27669
LJ           -5.7995        0.411481        -2.61303
LJ          0.534055        0.870941        -2.99244
LJ          0.246129         6.14441       -0.909788
LJ            3.3685        -1.24946        -2.06395
LJ           5.16426       -0.473082         4.54451
LJ         -0.524065         1.99412        -1.27029
LJ           5.87147        -3.29811        -2.67078
LJ           5.92245        -1.32378         3.64769
LJ          -2.16155         1.75549        0.502704
LJ          0.751364        -2.08457         5.66878
LJ          -2.93103        -2.12419        -6.34658
LJ          0.434005         5.52504        -3.52258
LJ          0.260401         1.62771       0.0988001
LJ          -4.90733        -5.14144        -4.41272
LJ              5.43       -0.175465         2.78751
LJ         -0.368283         3.82289          -3.921
LJ           5.24766         1.13664         4.32837
LJ            3.9326        0.823647         2.89866
LJ          -5.52887         4.93041         6.13794
