108
#Comment!
LJ           1.75437        -6.41073        -3.11298
LJ          -3.48451        -3.40875        -4.96144
LJ          -5.07435         1.47828         1.92646
LJ           2.42796        -4.21296        -3.81768
LJ          -2.14041          3.6362         3.79014
LJ          -4.31404       -0.266352         6.10334
LJ           2.68532         -2.5366         4.58666
LJ          -2.04722          2.0914        -3.23027
LJ          -2.30594        -6.37148         6.30601
LJ           5.35869        -2.47357        -3.08762
LJ          -1.46057         4.10713        -1.34383
LJ          -1.09386        -4.22581        -1.49217
LJ          -3.98549        -6.23905        0.589958
LJ           3.32554         4.48457        -3.96713
LJ          -3.75538        -4.62033         2.09169
LJ          0.792762         1.85938       -0.330272
LJ          -1.26765        -1.74823        -3.46875
LJ          -3.72499       -0.650279         1.18783
LJ          -3.99461       -0.179593         1.99768
LJ          -5.80724        -2.40752        -5.85534
LJ         -0.910296         3.60534         4.83768
LJ           4.95732         4.48521       -0.793051
LJ           1.63132         2.40801          1.0114
LJ          0.107029        -4.18683         3.30957
LJ          0.224318        -6.21011         1.52698
LJ           1.10701        -1.98299         1.60139
LJ           5.28276        -1.38804        -5.98603
LJ         -0.609922         1.22324         5.44579
LJ           1.52015        -5.35832         4.78629
LJ          -1.57827        0.937711         3.41301
LJ          -1.39231        -0.90337        -6.44009
LJ           1.90477        -4.82385        -2.86532
LJ          0.432126         5.75796        -4.56593
LJ         -0.158755        -5.53184          6.1167
LJ           5.05125         -5.6483         6.13444
LJ           6.32354         2.55254         5.46789
LJ            -3.779         1.45144         5.92344
LJ           -1.3503       -0.418758         1.57068
LJ          -4.37345         6.42487        -3.19209
LJ          0.177028        -6.41302        -6.31896
LJ           2.77538        -1.22004         2.41742
LJ          -1.60242          -3.079          3.1186
LJ          -4.66121         5.31828        -3.29828
LJ           1.65477        -1.64514         3.46117
LJ          -2.04186         2.66884        -5.86306
LJ          -2.89309         1.26196        -6.10784
LJ          -1.59701         5.18765        -5.89956
LJ           4.88328         -3.1803         5.38224
LJ          -4.83689        -3.79667         1.04686
LJ          -4.70582        -3.17141         2.12481
LJ           6.38537        -4.77859        -5.86849
LJ          -2.86481          5.0965         4.94601
LJ          0.144124         2.21647         -3.1961
LJ        -0.0642921          4.7802        -1.18693
LJ           0.35701        0.640703         3.35517
LJ          -5.12729        0.679234       -0.618281
LJ          -4.51974         -6.0714         4.69746
LJ          0.460024       -0.327364          -4.526
LJ            1.2726        0.919678        0.501742
LJ          -2.56201        -4.62482         3.76167
LJ          -5.84737        -1.83512       -0.452545
LJ           1.87431        -2.15291        -2.82611
LJ           6.45074         4.82481        -3.21718
LJ          -0.87788          1.9668        -2.01485
LJ          0.338602        -4.41768        -1.65744
LJ           5.79147         2.68647         6.41314
LJ          -6.10873        -1.76753         -3.8233
LJ           4.57619        -3.85673        -4.66415
LJ          0.567267        -4.52366          4.8992
LJ           2.14493        -2.94464         6.26452
LJ         -0.310354         -1.7988        -2.28816
LJ          -5.31465        -1.37777        -2.10583
LJ           -4.9178        -6.25401       -0.354365
LJ           2.03902        -5.51287       -0.877954
LJ          -4.56129        -5.12079         5.69297
LJ           5.57427        -4.63596        -1.89686
LJ          -4.91127        -5.27502        -3.30782
LJ           5.13563        -3.84434        -1.19673
LJ           4.72915         5.04059         -2.7801
LJ           4.26108       -0.174775         4.64966
LJ          -2.72487         5.64173          -6.203
LJ           4.86997       -0.792659         5.70261
LJ          -3.92304        -3.70349         1.62797
LJ         -0.649303        -2.86843        -1.57704
LJ          -5.89552         4.96331        -4.77279
LJ           5.94139         5.67121          -3.099
LJ          -1.35052       -0.294806        0.290378
LJ           4.78863         6.19366        0.542908
LJ           1.11191        -3.36813        -2.74802
LJ          -1.25367        -2.37245         6.06449
LJ          -5.26832         2.06356        -2.85577
LJ          -2.61749        -6.44986        -5.05866
LJ          -2.35589       0.0481829         1.90977
LJ           3.77033          -2.232         5.38968
LJ           2.65291        0.440832         6.32333
LJ         -0.552888        -5.08474        0.211925
LJ           1.52543      -0.0644744        0.611657
LJ           3.57911         2.92346         -1.9507
LJ           1.72529        0.369661        -3.94763
LJ          -2.60914         2.24424         1.89423
LJ          -5.79321        0.592643        -1.82072
LJ         -0.906241        -5.22944        -6.06413
LJ          -6.21229      -0.0507363       -0.236215
LJ          -3.01494         6.18762       -0.610548
LJ            5.8554         4.19527       -0.189048
LJ          0.256607        -3.06417        0.480347
LJ          -2.73606        -3.48885         1.25151
LJ           1.92576       -0.281538        -5.23159
