108
#Comment!
LJ            1.4095         1.51269        0.645933
LJ           1.56701         2.75786        -2.00965
LJ          -4.41653         5.88881        -4.57352
LJ          -4.52243         1.40078        -6.11173
LJ          -4.38341         4.87872         4.04729
LJ           -3.8407        -2.29916         5.94192
LJ          -4.05213        -5.46822        -5.89872
LJ           1.21515        0.936542        -5.66399
LJ           -1.7996         3.96295        -5.38538
LJ           5.17801        -1.22527        -5.60622
LJ           1.25293       -0.556103         2.42152
LJ         -0.631474        0.652273        -2.04694
LJ           -4.7767        0.402013        -1.12491
LJ          -4.80021         4.63396        -5.42213
LJ           3.37167      -0.0460261        -4.80682
LJ            1.0885         3.92398        -5.98879
LJ           4.13944        -3.11482         5.83211
LJ          -4.89295        -1.27069        0.132012
LJ           -1.3626        -0.87099         1.07548
LJ         -0.774162       -0.732531        -1.61981
LJ          -3.20595        -3.18049         3.24614
LJ          -4.25464         4.85813        0.483422
LJ          -1.45456         1.21756        -3.99429
LJ          -4.08261         6.25647        -6.06573
LJ          -1.97929        -4.44765         3.72551
LJ            4.1557        -2.31605         -6.3118
LJ          -5.15659         1.10717         4.32976
LJ           1.58631       0.0763935         3.63772
LJ           3.58836        -3.15972        -4.98945
LJ           4.58002         2.37193        -0.82329
LJ          -4.00937         3.18906         3.88049
LJ            5.7015        -1.16617        -4.56702
LJ           2.07249         2.66855         1.49016
LJ         -0.467294         2.25502        -4.59657
LJ          0.680738         2.54246         4.33264
LJ          -5.12505        -4.10675         2.17105
LJ           -4.2682         2.91363       -0.724279
LJ          -5.92745         5.41114         3.85349
LJ          -4.82771        -2.32086         3.86071
LJ          -3.21096            1.45        -5.10906
LJ             4.755        -1.80514       -0.260711
LJ          -3.47734           2.544          2.5847
LJ          -3.87996        -2.70975        -5.79457
LJ           4.47826        0.929262         4.92209
LJ           1.13503         1.27856         6.14614
LJ           2.13531         5.58559        -5.42379
LJ          -4.10838        -2.75658         4.79575
LJ          -5.57332        0.864354       -0.154007
LJ         -0.641655         5.74585         1.48319
LJ          -5.44908        -5.02908        -5.67025
LJ          -3.63968        -2.55035         -1.5273
LJ          -1.46465           3.884         2.07699
LJ          -1.61049        -1.63718        -4.57596
LJ           5.98713         2.76018         -4.6995
LJ           5.99277         3.05749         3.41313
LJ          -6.13835         4.71157          5.0923
LJ            6.2267        -4.77272         6.04469
LJ          -1.94335          -3.752        -4.12426
LJ         -0.373122       -0.298363         0.40038
LJ         -0.416661         4.33419        -3.92055
LJ          -4.00553         4.12389        -3.39621
LJ          -2.59004        -5.50885        -1.97145
LJ           5.16213        -5.29535         1.64786
LJ           5.35519         4.69658       0.0829711
LJ           4.58563         3.17767        -3.17014
LJ          -1.38288        -4.05867        -6.31562
LJ          -4.79039         1.73419       -0.347665
LJ          -2.95367        -0.96053         1.49231
LJ           4.10556          1.7863        -6.02788
LJ          -4.41348         -1.2585         4.71667
LJ           4.51278       -0.888356         5.70588
LJ          -5.82703         4.23884        -4.69581
LJ           6.30906        -4.11318        -5.91513
LJ          -3.60504         6.26233       -0.332736
LJ          -4.50104        -5.82033        0.315707
LJ          0.921106         1.57874         2.83794
LJ           5.76634        -3.12221        -1.69641
LJ           1.96448         4.91536         2.33477
LJ           4.13726         3.86336        -4.01029
LJ          -4.50105        0.192359         2.64568
LJ          -3.41643         -3.4561        -4.44228
LJ           4.02497        0.415103       -0.828123
LJ         -0.170434        -5.10568          1.7105
LJ          -5.81399         3.09261         4.43234
LJ           -3.1869         5.56632        -5.41807
LJ           2.49009         3.80101         1.99546
LJ            5.3418         3.03546       -0.193368
LJ           -3.9446        -1.19395         1.50467
LJ          -0.69364         -1.1405        -4.08154
LJ          -1.92009         6.18311         5.41279
LJ           4.68146         0.48943        0.145732
LJ          -1.30964         2.61252          6.3222
LJ          -4.04466        -4.59434        -4.46804
LJ           4.82262        -3.80836        -4.49752
LJ          -4.36013         -3.6815         5.55016
LJ          -6.16355        -5.73272         3.04313
LJ           2.33413         3.44469          3.2596
LJ          -4.92714        -6.39796         5.16942
LJ           -1.0707         3.94524         1.14098
LJ          -4.77574         5.40822         3.34379
LJ          -5.64108         4.32238       -0.432632
LJ          -3.52283       -0.451515         2.19032
LJ          -2.95207          2.5717        -1.31069
LJ          -6.20173         1.23558        -4.51081
LJ          0.232899         1.42186        -1.63783
LJ          -5.53354         4.18305        -3.54177
LJ          0.879341        -2.08055        0.848441
LJ           -1.7163        -2.82954        -2.32613
