108
#Comment!
LJ          -1.85012        0.946654         3.29835
LJ          -1.88301        -6.35439       -0.229449
LJ          -4.03277        -6.24383         4.74655
LJ           3.30447          3.2246        -4.07958
LJ           6.33662         5.20683        -3.86501
LJ          -1.69834         -2.0042         4.60351
LJ           4.91723         6.33476        -4.92873
LJ           3.15175        -2.94163        -5.07353
LJ          -3.59295         3.00048         5.78344
LJ          -5.96264        0.996461        -6.20178
LJ           3.66529         -2.5452         5.61693
LJ           0.41898         -1.7448        -2.02338
LJ          -4.71774        -1.02112        -2.94884
LJ          0.352588         6.21952        -6.26883
LJ          -4.98251       -0.650771         -1.7658
LJ          -5.85577         4.62952        -2.58303
LJ           1.90411        -3.61919         1.13806
LJ          -6.10938        -5.10358         1.39299
LJ          -4.49212         6.10612        0.220539
LJ           2.64783        -5.53119        -1.30954
LJ          -1.97654        -1.01533         4.07214
LJ          -1.43944         1.73822       -0.955717
LJ          -2.56466         1.03456         -5.8364
LJ          -2.30707         1.92637         4.96616
LJ           -1.9472        -2.67437         1.05959
LJ           4.85734        -2.82335         2.49893
LJ         -0.344191         1.90731        -1.18561
LJ           4.14289        -2.76306        -5.61068
LJ           3.91129        -2.23767        -1.13659
LJ           2.63818         5.12635         3.84176
LJ          -4.84337         2.98633        -5.45347
LJ           5.82554          1.0121        -5.53485
LJ           2.49436        -1.19466         2.06262
LJ          -2.15523        -1.71122        -2.88039
LJ            3.0327        0.463613         1.62835
LJ           3.98442        -6.27464         -1.0886
LJ           -3.4636         4.94558        -4.03819
LJ            5.2333        -2.95084         5.48618
LJ           5.23761        -2.24122         1.41007
LJ          -3.82269       -0.798991        -3.59917
LJ           4.56912        0.730757        0.697867
LJ          -3.22313        0.385126       -0.903198
LJ          -2.11955        -1.25627         2.51797
LJ          -6.42775         2.58121         6.39576
LJ           2.91771        -1.63011        -4.79605
LJ           2.75024        -6.31036       -0.568271
LJ           3.93708        -2.26297        -4.35934
LJ          -5.41111        -2.99624        -2.75405
LJ          -1.90844        0.208952        -1.23611
LJ          -4.01207        -3.08934        -5.11836
LJ           4.71529       -0.117922        -1.71453
LJ         -0.446273         2.14479         2.18801
LJ          -3.47897       -0.500265        -4.54285
LJ            5.9498        0.856899         -4.1041
LJ           5.31063         4.78329         3.52752
LJ           -4.8162        -5.34747         5.28395
LJ          -5.98355        -2.40052         4.95321
LJ          -2.47188        -6.12151        -4.54218
LJ          -3.04859        -2.36744        -2.94552
LJ          0.194862        0.345639        -4.41883
LJ         -0.475161         4.29633        -6.42188
LJ          -1.78104         4.51868         2.58389
LJ           1.03802       -0.903618        -3.14871
LJ          -2.60006         5.36992         1.76163
LJ          -1.13167         2.66895       -0.110265
LJ           1.86772          4.6313        -5.45896
LJ          -4.05915         3.96125       -0.889822
LJ         -0.158501        -1.71691        -4.44639
LJ          -5.14324        -0.70538        -4.46305
LJ           4.69566         6.45756         4.36266
LJ          -1.21021        -0.49588         3.44639
LJ          -4.29808         4.78714         3.42824
LJ           3.81239         4.01617        -5.57979
LJ           5.69136        -6.28605        0.145209
LJ          -4.24071         6.07921        -4.40384
LJ           3.55501         4.74348          2.7692
LJ          -6.23823          -3.989        -2.26945
LJ          -2.24029          5.6052         3.82991
LJ          -4.32227         2.74947        -4.24776
LJ          -1.94407        0.985729         1.95487
LJ          -2.71806         -6.2488        -1.36572
LJ           6.15324         1.14614       -0.261095
LJ         -0.569553         6.25814         1.75654
LJ          -1.64066         4.64014         -5.6324
LJ           -2.7343         4.64868         6.18066
LJ            2.6881         5.18928         4.88307
LJ           4.07112         4.97656       -0.982354
LJ          -6.12323        -4.70358      -0.0351606
LJ         -0.784834       -0.919418        -5.06585
LJ          0.314277         5.54423         4.73746
LJ           1.87438       -0.404127         -1.7236
LJ          -3.78498        0.390202        -3.48895
LJ           5.96311        -3.59788         6.25206
LJ           2.22836         2.21724        -3.61225
LJ          -6.37041        -3.29711         4.72574
LJ           4.21365         -5.0788       -0.455191
LJ           2.82973         5.53503        -5.33307
LJ          -3.28852        -5.45514       -0.147249
LJ          -3.56147           5.219         -1.2896
LJ           2.61937        -1.59776         4.53488
LJ          -3.39095          4.4791         1.91881
LJ           5.96446         -4.0413         4.19532
LJ          -0.93499        -1.11171         1.72108
LJ          -2.46343         1.34846        -4.72803
LJ          -2.68513         4.08754        0.635011
LJ           4.83212        -1.72713        -4.80861
LJ           3.66669         1.92721         2.14213
LJ           -4.5145        -4.87764        -4.55533
