108
#Comment!
LJ          0.716009        -6.22883         4.06646
LJ          -4.47497         5.67744        -2.58178
LJ          -3.00826        0.854283         -3.2108
LJ           5.51905        -2.32602        -3.56135
LJ           2.93191         4.78428         4.94981
LJ          -3.64513       -0.963926        -6.32468
LJ          -2.74485        -5.37638         3.73035
LJ          -5.14776         1.43807        -4.40164
LJ         -0.768956        -4.48773         5.08042
LJ           1.66515        -1.93551        -5.28367
LJ          0.449884        -3.99634        -4.36538
LJ          -2.39542        -2.68158          2.8285
LJ          -6.20419        0.902005        -6.21246
LJ           -2.0873        -5.51465         6.16231
LJ          -3.48885        -5.93936       -0.783917
LJ          -1.79396         -4.6493        -6.27008
LJ           2.26119        -2.12794         2.70575
LJ            6.2073       -0.927112        -6.28956
LJ          -1.26491       -0.587133        0.644371
LJ           1.00027         6.44977         1.25018
LJ          -2.93377        -6.29683        -5.90292
LJ          -3.29878         5.44384        -3.14927
LJ           1.03022         5.88393         5.47628
LJ           4.84463        -5.07226        -1.53184
LJ         -0.553007         3.74982        -4.81918
LJ          -2.16402        -5.21731       -0.322867
LJ         0.0668454        -4.35267          3.9126
LJ          -2.88033         1.27598         1.47974
LJ         0.0455701        -3.88787        -5.87227
LJ           3.86665         4.93858        -3.27096
LJ           -3.0942        0.682805        -2.13436
LJ           3.79294         1.10478        -3.64005
LJ          0.190831        0.941541         3.99544
LJ          0.533775        -3.18626         6.39104
LJ           1.70143         3.31617        -5.34354
LJ           4.15564         4.23579         5.78938
LJ         -0.418482         -5.4001        -1.91255
LJ           1.24731         1.44698         3.20597
LJ          -4.05069          4.8884         1.02118
LJ          -2.91763        -4.14175        -4.39091
LJ           3.85004         5.09111         4.43708
LJ           0.69101         3.58141         2.98642
LJ          -3.38579         4.55369        -6.18395
LJ            2.4999        -1.80865            3.72
LJ          -2.77646        -5.28743        -3.95032
LJ           5.74366         5.01602        -6.36208
LJ           3.72472       -0.740914         5.41565
LJ           4.29758         1.28666         4.23869
LJ           5.64723         1.22374         -4.8823
LJ          -3.44583        0.675232        0.696375
LJ          -5.95991         4.25092        -4.46481
LJ            2.1947        -1.77284         5.66047
LJ          -3.14082         1.44443        -5.90143
LJ          -0.37384        -4.12485        -3.43453
LJ            1.7678        -3.80246         6.30547
LJ           -2.6005        -6.32683       -0.490951
LJ           3.46401          5.4888         1.01636
LJ          -5.61486        -1.79901         4.51352
LJ          -3.50041        -3.17377       -0.250502
LJ          -6.30794        -5.01333         2.96618
LJ          -4.33894        -5.34483        0.425059
LJ           2.17929           3.235         4.65665
LJ           3.55904        -2.82334        -3.54776
LJ          -3.65825         6.05612        0.464163
LJ           2.57427         5.20297        0.356523
LJ           2.80397        -3.83151         4.20219
LJ          -5.79769        -5.81745         2.48582
LJ          0.201375        -3.61481        -2.73955
LJ           3.88787        -2.34587         1.66482
LJ           5.06663        -3.96513         6.14282
LJ           1.45913         0.27388         3.87151
LJ          -4.91238        -2.12475         1.76595
LJ           1.33482         4.27984        -1.99054
LJ          -5.68845         5.32552        -2.35557
LJ        -0.0442791          3.4764        -1.36253
LJ          -5.91522         4.80089         5.61215
LJ          -1.90611        -4.59689         2.33971
LJ          -3.52691       -0.254119         5.72674
LJ          -2.28621         4.16037        -1.76864
LJ           4.28688         5.09136        -4.86771
LJ           3.90237        -2.59836        -2.23922
LJ           6.19832         4.29581          5.8733
LJ          0.316239         3.17729          -2.892
LJ          -6.33583        -5.03979        -2.73828
LJ           5.24229         4.14334         6.44005
LJ           3.12609        -5.56322        -3.46568
LJ          -1.95373         5.42507        -4.63218
LJ           4.42754        -2.05613        -5.31711
LJ          -4.36892       0.0152758          1.9142
LJ           3.88255        -1.84184         5.20962
LJ          0.590404          1.1469         1.87755
LJ          -2.48643         5.94845         1.95267
LJ          0.215988          -3.309         4.02178
LJ         0.0203009        -5.79527         3.18347
LJ          -4.86285        0.437541         2.73053
LJ           2.93069         1.05852        -5.99543
LJ           1.05055         2.62889         3.46913
LJ          -1.94174         3.96984        -4.84424
LJ            5.7714         4.26192          4.8106
LJ          -4.17083         2.62929          2.2485
LJ          -3.17081        -4.13273       -0.906875
LJ            -2.335         2.27509        -4.52162
LJ           3.11995         5.55422       -0.939907
LJ            5.9772        0.150424         1.09525
LJ           1.47791          -5.474        -3.44097
LJ           2.93852        0.318391        -2.27247
LJ          -3.71763         1.83735         3.14528
LJ          -4.17875         1.41022         4.46644
