108
#Comment!
LJ          0.465348          -5.967         4.35687
LJ          -4.22013         6.19248        -2.40407
LJ          -3.33272         0.85107        -3.61215
LJ           5.40196        -2.44195        -3.86846
LJ            2.2031         4.91757         4.74243
LJ          -3.54723        -1.13255        -6.11066
LJ          -2.24434        -4.78447         3.93557
LJ          -4.98277         1.49721        -5.49759
LJ         -0.604938        -4.77824         5.06131
LJ            1.8246         -2.3656         6.40915
LJ         0.0134572         -4.3277        -4.39624
LJ          -1.60087        -2.59514         2.86473
LJ           -5.8977        0.150041         6.36644
LJ          -1.84554         6.13799         6.21861
LJ          -4.12143         -4.8928       -0.487829
LJ          -1.99138        -5.14134         6.02545
LJ           2.12975        -2.12691         2.59823
LJ          -6.12364       -0.873066         -6.1369
LJ          -2.34369       -0.370192        0.628386
LJ           0.29758        -5.64848        0.324581
LJ          -3.11767         6.42678        -6.07017
LJ          -3.73486         5.33889        -2.98394
LJ           1.17053         5.44452         5.70228
LJ           5.63787        -5.26689        -1.34458
LJ         -0.171287         3.45381        -3.86397
LJ          -2.83978        -5.42027       -0.795665
LJ           0.37703        -4.98839         4.05541
LJ          -2.86545         1.36626         1.51754
LJ          0.154204        -4.08863         6.38379
LJ           3.36553         4.58508        -2.67823
LJ          -2.61597        0.579646        -2.54629
LJ           3.26324         1.87425        -3.98183
LJ          0.140926         1.55157          4.3783
LJ          0.741276        -3.03517         6.08804
LJ          0.983073         3.73907        -5.34335
LJ           4.13248         4.77915         5.39397
LJ         0.0879417        -5.24057        -1.21193
LJ          0.474971         1.22284         2.97489
LJ          -4.00804         5.28247        0.710903
LJ           -2.5091        -4.12794        -4.51758
LJ           4.35913         4.57883         4.28728
LJ          0.495762         3.72542         2.95339
LJ          -3.97378         4.74719        -5.36591
LJ           2.25161        -1.39475          3.5726
LJ          -2.89282        -5.63367        -3.86031
LJ            -6.133         5.02104        -6.17436
LJ           4.06476       -0.548725         5.09999
LJ           4.71747        0.995685         4.49115
LJ           5.07434        0.632633        -4.54608
LJ          -3.68943         0.38849         1.28783
LJ          -6.24857         4.87074        -4.02862
LJ           2.21588        -1.07217         5.34151
LJ          -3.20583         1.28171        -5.10583
LJ          -0.37164        -4.37844        -3.25337
LJ           1.66186        -3.36761         -6.4268
LJ          -2.89336        -6.44017       -0.157623
LJ           4.04262          5.1554        0.229352
LJ          -5.32272        -1.93001         5.26293
LJ          -2.29759        -2.49342       0.0667839
LJ          -6.17411        -4.84377         3.00268
LJ          -5.06765        -5.75056         1.12846
LJ           2.21216         3.56753         4.16523
LJ           4.00971        -2.34732        -3.39429
LJ          -3.00782         5.32071       0.0987412
LJ           2.43575         4.67624      -0.0504613
LJ           2.96207        -4.30536         4.67406
LJ          -5.70079         6.43214         3.21112
LJ          0.865281        -3.59936        -2.79435
LJ           3.12437        -2.80025         1.97485
LJ           4.98791        -4.85826         5.96717
LJ           1.55733         1.14192         3.47251
LJ          -4.79186        -2.21657         1.36804
LJ          0.872901          4.4816        -1.56124
LJ          -6.18625         5.47848        -2.52054
LJ         -0.323961         2.50827        -1.94886
LJ          -5.01019          4.9727         6.24762
LJ          -2.03182        -5.26891         2.05566
LJ          -4.17945      -0.0875261         6.11226
LJ          -2.74456         4.71215        -1.67651
LJ           4.40968         5.97923        -5.05048
LJ           4.73383         -2.7967        -2.31614
LJ           6.18442         4.05207         5.93132
LJ          0.651608         3.51997        -3.19995
LJ           -5.9755        -4.97182        -2.87659
LJ           5.07076         4.50062         5.93888
LJ           3.48455        -5.41076        -3.28113
LJ           -2.0577          4.5427        -5.31408
LJ            3.8954        -1.61507        -4.55882
LJ          -5.20437       -0.580349         1.67953
LJ           3.04989        -1.63595         5.25812
LJ         -0.782099         1.25233         1.60672
LJ          -1.91658        -6.29471         2.43026
LJ          0.145869        -3.42215         3.41379
LJ        -0.0620178        -5.74176         3.46141
LJ          -4.19392        0.495217         3.29145
LJ           2.61635         0.68506        -5.60512
LJ           1.35358         2.20431         3.31916
LJ          -1.58304         3.79456        -4.65869
LJ           5.25516         4.00806         5.07749
LJ          -4.13717         2.70377         1.99483
LJ          -2.93394        -3.89615       -0.791069
LJ          -2.04135         2.83906        -5.07824
LJ           3.23409         5.90172       -0.985658
LJ           5.91466       0.0018346        0.912569
LJ           2.17959        -5.92644        -3.57679
LJ           3.02213         1.10797        -1.83644
LJ            -3.699         2.93335         3.20632
LJ          -3.66805         1.10393         4.75897
