108
#Comment!
LJ           2.38194         2.43271        0.403468
LJ           2.45181         1.84322        -2.35652
LJ          -4.50498         5.51474        -3.72298
LJ          -6.05678         1.27947        -6.18785
LJ           -4.5088         3.55906         4.35838
LJ          -5.01524        -2.46028        -6.38295
LJ          -2.96816        -5.06166        -4.89119
LJ          0.709818         1.85952         -6.0357
LJ          -1.11028         3.86256        -5.17486
LJ           4.82569        -1.44476        -5.87944
LJ          0.745105        0.129455         2.02868
LJ         -0.993509         1.80087        -2.63083
LJ          -5.54936         1.22798      -0.0266567
LJ          -4.83707         4.42636        -4.51957
LJ           2.40079       -0.591706        -5.62238
LJ          -1.14728         3.68509        -6.35103
LJ           4.97034        -3.23371        -6.21664
LJ          -4.18652         0.55114        0.223683
LJ         -0.943447        0.446179         1.43782
LJ          -1.65303        -1.32187        -1.40754
LJ          -2.57993        -4.08971         3.18425
LJ          -4.70343         4.54786        0.556726
LJ         -0.970062        0.569929        -3.87305
LJ          -4.95505        -6.02276         -5.1581
LJ          -2.30619        -5.32429         4.22353
LJ           3.64208        -2.04377        -4.98983
LJ          -6.37237        0.837788         2.77112
LJ            0.8504         1.00416         2.58811
LJ           3.67682        -3.39387        -5.87413
LJ           5.34546         1.96475        -2.21963
LJ          -3.07681         4.00402         4.41715
LJ           5.39511        -1.75639        -4.07865
LJ           1.41472         2.51182         1.28074
LJ         -0.500119         2.59451        -5.19442
LJ           0.94598         3.03519         5.02415
LJ          -5.12654        -3.25507         2.84547
LJ          -5.63793         2.75822      0.00593092
LJ          -4.67149          4.3573         3.35605
LJ          -4.94844        -2.97638         4.05707
LJ          -2.88743         2.16663        -5.07428
LJ           4.33161        -1.56395        0.167471
LJ          -3.94088         2.55879         2.91043
LJ          -4.16824        -2.98198        -5.74166
LJ           4.04628        0.571137         4.73577
LJ           0.71134         1.85654         5.82169
LJ           1.20382         4.85944        -3.74431
LJ          -3.29949        -3.08264         3.30807
LJ          -5.89213        0.031313         0.91374
LJ         -0.135723         5.40878         2.63485
LJ          -5.47295        -4.61795         6.40908
LJ          -2.69023        -3.03187        -2.51471
LJ           -2.0084         4.09733         2.41145
LJ          -1.24061        -1.91543        -4.44888
LJ          -5.84401         2.36042        -6.36348
LJ           5.53982         2.99043         3.10399
LJ           6.17021         4.82583           3.871
LJ           6.29605        -4.92519        -5.32417
LJ          -1.69187        -3.23637        -4.55809
LJ          0.401602      -0.0725561         0.60956
LJ         -0.239796         5.31771        -4.34814
LJ          -4.95714         4.29143        -2.94146
LJ          -2.46816        -4.90114        -3.27542
LJ           5.59428        -5.83674       -0.201757
LJ           4.05475         4.69876       -0.469527
LJ           4.09647         3.59351        -2.94745
LJ          -2.12128        -3.12073         6.44498
LJ          -4.34601         2.07165        -1.30355
LJ          -1.95843        -1.23841         2.45521
LJ           3.65235         2.39347        -6.38982
LJ          -2.69642        -1.60604         4.16261
LJ           5.74759        -1.50687          6.3992
LJ          -5.77497         4.07028        -3.80672
LJ          -5.50631        -3.17794        -5.87576
LJ           -2.5663        -6.37316       -0.768496
LJ          -4.53519        -5.62905        0.959645
LJ         -0.618273        0.397891         2.69796
LJ           6.01967        -3.63313        -2.14998
LJ            2.8851         5.24949         2.06343
LJ           3.97266         4.54885        -3.67009
LJ          -5.26924         0.42307         2.98667
LJ          -4.17324         -4.0248        -4.98458
LJ           3.74527       0.0997834       -0.184181
LJ         -0.136947        -4.83696         1.69598
LJ          -6.33424         1.98787         3.24209
LJ          -3.57994         5.35652        -5.29573
LJ           3.14854         3.87265         1.15913
LJ           5.22467         2.44895      -0.0352337
LJ          -4.08662       -0.612293         2.25203
LJ         -0.585133        -1.21022        -3.79473
LJ          -1.46301         -6.3941            5.76
LJ           5.23478        0.855411       -0.211699
LJ         -0.736735         3.55252         5.41017
LJ          -3.23745         -4.2684        -3.80726
LJ           4.74598        -5.32373        -4.87083
LJ          -4.25199        -2.88905         5.77078
LJ          -4.96295         6.33538         2.81084
LJ           2.12333         2.76815         2.36951
LJ          -5.15782         5.78577        -5.64945
LJ         0.0582009         3.62593         1.57167
LJ          -4.72889         5.38971         2.42849
LJ          -6.05033         3.94603       -0.516709
LJ          -2.84598         1.27679         2.99798
LJ          -3.89236         3.19629        -2.11077
LJ          -6.44726        0.349852        -3.84707
LJ           1.46236         1.76176        -1.72858
LJ          -4.80818         2.59269        -3.17366
LJ         0.0408898        -2.81163        0.737261
LJ          -1.00848        -1.74703        -2.20925
