108
#Comment!
LJ           1.00166         6.35187         3.61846
LJ          -3.74838         4.89625        -3.36635
LJ          -2.56985        0.965175        -2.33457
LJ           5.59519        -2.11912        -2.97792
LJ           3.46989         3.89938         5.99382
LJ          -3.71258       -0.442206         5.90799
LJ          -3.61547         -6.4545         3.26465
LJ          -5.45872         1.31424        -2.39131
LJ         -0.758912        -3.81899         5.00996
LJ           1.36062        -1.25495        -3.08103
LJ          0.898645        -3.49371        -4.03148
LJ          -3.85471        -2.91411         2.74255
LJ          -6.25821         1.87944         6.36916
LJ          -2.81487        -3.68828         6.18022
LJ          -3.63422         5.57327        -1.23746
LJ          -1.13886        -3.38671        -4.88842
LJ           2.67002        -2.20731         3.12934
LJ           5.04481        -1.03418         6.32918
LJ          0.733733       -0.973547        0.687602
LJ           2.40328         4.84055         2.75494
LJ          -2.26962        -5.68025        -5.78442
LJ            -2.876         5.66598        -3.35997
LJ          0.771142        -6.13687         4.65471
LJ           3.37877        -4.70667         -1.9215
LJ         -0.151307          4.0684        -6.27351
LJ         -0.721786         -5.0037        0.317731
LJ         -0.783144        -3.75232         3.65865
LJ          -2.61838         1.64709        0.806021
LJ          0.174663        -3.33284          -5.142
LJ           4.80433         5.37417        -4.76825
LJ           -3.8172         0.92416        -1.67046
LJ           4.68815        -0.42502        -2.92749
LJ          0.263801       -0.161554         3.55229
LJ          0.762918        -3.81788        -5.88123
LJ            3.0634          2.5137         -5.3649
LJ           4.53698         3.32671         6.38959
LJ          -1.23394        -5.50427        -3.26989
LJ           2.53434         1.66272         3.72009
LJ          -4.44052         4.15792         1.59866
LJ          -3.78125        -3.94524        -4.26331
LJ           3.79457         6.36905         4.43722
LJ          0.491267         4.92838         2.38821
LJ          -2.22852         4.21349           5.314
LJ           3.05828        -2.10907         4.14863
LJ          -2.35402        -4.99578        -4.06563
LJ           4.23327         5.13589         6.00087
LJ            3.1626        -1.71078          5.8767
LJ           3.47495         1.81973         3.77314
LJ           6.20295         2.67814        -4.47423
LJ          -3.06561         1.13847      0.00175175
LJ          -5.45201         3.08199         -5.2878
LJ           2.30197        -3.12386         6.18618
LJ          -3.00269         1.76403         5.59725
LJ         -0.585041        -4.14323        -3.85628
LJ           1.23289        -4.08877         6.06217
LJ          -1.29478        -6.02277       -0.649837
LJ           3.16547         6.31708         3.06118
LJ          -6.12024        -1.55153         3.06352
LJ          -5.45854        -4.93804        -1.04634
LJ           6.24459        -5.13179         3.01608
LJ          -3.06533        -5.71885       -0.360525
LJ           2.06939         2.67024         5.44276
LJ           2.56636         -3.5799         -4.2369
LJ          -4.73984        -5.48702        0.951214
LJ           1.39569         5.44895         1.73747
LJ           2.33119        -3.30866         3.10397
LJ          -5.80363        -4.76787        0.978555
LJ         -0.725641        -3.53913        -2.52498
LJ             5.231        -1.46398         1.15198
LJ             5.516        -3.30209         5.37908
LJ           1.04093       -0.917124         4.51308
LJ          -5.15012        -1.89908         2.57646
LJ           2.03408          3.7859        -2.79385
LJ          -5.34051         4.92548        -1.80064
LJ          0.620207         5.31846       -0.515538
LJ          -5.80115         5.85241         4.73107
LJ          -1.69383        -3.37908         3.02424
LJ          -2.44096       -0.690612         5.28756
LJ          -1.39934         3.14484        -1.97807
LJ           4.10574         3.61899         -4.2578
LJ           2.58602        -2.31466        -1.81016
LJ           5.04601         4.41029          5.7096
LJ         -0.368569         2.67713         -2.1139
LJ            5.8851        -5.17621        -2.45225
LJ           4.82263         2.92004        -5.62424
LJ           2.23931        -5.84179        -3.80328
LJ          -2.13064        -6.13074        -3.41834
LJ           5.12374        -1.71101        -5.70761
LJ          -2.89268        0.645326         2.36022
LJ           5.14908        -1.76717         5.36719
LJ           3.23519        0.904022         2.38741
LJ          -3.28446         5.02201        0.906605
LJ          0.248669        -3.05997           5.264
LJ          0.370614        -5.73715         3.04881
LJ          -5.98014        0.555732         1.98655
LJ           3.51923         1.79254         6.21042
LJ           1.65086         1.70904         4.36949
LJ           -3.7873         4.59243         -5.4604
LJ            5.7888         4.15555         4.25285
LJ          -3.84373         1.85279         3.16654
LJ          -3.54599        -3.73766        -1.44957
LJ          -2.88028         1.21851        -3.36004
LJ           3.38188          5.4774        -1.76746
LJ           6.03545        0.408855         1.40398
LJ          0.217239        -4.40009        -3.29747
LJ           2.88089        -1.11123        -3.19612
LJ          -4.39092        0.181838         2.92874
LJ          -5.06272          1.9249         3.48871
