108
#Comment!
LJ         -0.495003       0.0043184         1.72713
LJ         -0.508474         4.68386        -1.29167
LJ          -5.23345         5.67569         6.14494
LJ         -0.562015         2.29697        -5.74469
LJ          -4.08421         4.75222        -6.28003
LJ          -2.02979        -2.58957         5.39874
LJ           6.16843         5.30215        -5.24849
LJ           2.32751        -1.02976        -5.19045
LJ          -3.32506         4.02331        -6.11648
LJ            6.0806       -0.097641         6.35374
LJ           2.49334        -1.52134         4.06584
LJ          0.106311       -0.548273        -1.91436
LJ          -4.72499       -0.304409        -2.34334
LJ          -2.57573         5.44684        -5.83163
LJ           5.71585        0.855757        -3.16727
LJ           6.10219         4.35645        -4.92823
LJ           2.79494        -3.35997         3.24358
LJ          -4.98179        -4.44393        0.875882
LJ           -3.4314        -3.65565        0.511066
LJ           1.02827        -3.09118        -1.46746
LJ          -3.44836        -1.41885         3.57478
LJ          -3.64976         3.32577        0.286366
LJ          -2.09953         2.64399        -4.88707
LJ          -2.98007         3.33565         5.22483
LJ          -1.48413        -2.16798         2.48915
LJ           4.71204        -2.37083         4.45337
LJ          -2.51763         1.30309        -5.28757
LJ           2.81894        -1.80323         5.24167
LJ           4.52264        -2.57386        -2.97572
LJ           3.65507          3.8072         2.24041
LJ          -5.58172         3.85104         6.08938
LJ          -6.28253        0.289123        -4.84728
LJ           2.10043        0.873681         2.05814
LJ         -0.984579        0.629094         -3.4343
LJ          0.394655         1.17941         2.41351
LJ          -5.77247        -5.75158       0.0203291
LJ          -1.97174         3.07652        -2.76395
LJ           5.72885        -5.29579         4.88673
LJ          -5.95574        -2.12525         2.85802
LJ          -3.40604       -0.380073        -4.54423
LJ           5.00297         -0.9131       -0.109955
LJ          -2.93551         1.28685        0.309358
LJ          -2.88818        -2.01891          5.0752
LJ           5.45341         1.61734         5.57364
LJ           2.14495      -0.0501766        -5.76768
LJ           4.22886        -5.78817         3.62045
LJ          -6.43548        -2.10327        -4.85539
LJ           6.00984        -1.47872        -2.18745
LJ          -1.68694        -5.53001        -1.31533
LJ          -5.33857        -4.86362        -5.06265
LJ            -5.992        -1.63322        -1.17887
LJ         -0.736806          3.4064          2.4341
LJ          -2.40041        -1.05092        -4.72103
LJ           5.98101         3.16082        -4.12214
LJ           6.15654         3.60695         3.57065
LJ          -5.66309         5.97647         5.25767
LJ           6.44418        -4.05614         4.90746
LJ          -1.74072        -5.08142        -2.62218
LJ          -1.76231        -1.05836       -0.714175
LJ         -0.850678         2.36308        -3.26361
LJ           -2.0376         3.74202        -4.73447
LJ          -2.85285         5.85624        0.966381
LJ           3.10222        -3.60493          5.9532
LJ          -4.55569         4.42431          1.1722
LJ           2.13174         2.85846        -1.75047
LJ           0.21769        -6.21338        -5.84085
LJ          -3.12588         4.15155       -0.385978
LJ          -1.77701        -1.61879        -2.09944
LJ           5.28559        0.161777        -5.02326
LJ           -6.1199          3.0637          5.4974
LJ           1.43494       -0.278911         4.68555
LJ          -5.98906         4.67908         5.54149
LJ           4.74345          6.4285        -5.78138
LJ          -5.69891         6.20802       -0.576043
LJ          -4.70193        -5.80447        -1.15904
LJ           4.86151         4.58873         3.42733
LJ           5.95419        -3.15224        -1.83213
LJ         -0.496664         4.32284         3.05045
LJ             6.066         2.17438         -3.7624
LJ          -3.30042         0.65318          2.3384
LJ          -2.88495        -3.74705        -2.78303
LJ           5.15343        0.959684       -0.669182
LJ         -0.306947        -5.83792         1.71808
LJ          -4.23719         4.16439         5.68225
LJ          -2.39876          5.6822         5.99298
LJ           2.44172         4.79698          3.5848
LJ           4.77452         4.04914       -0.683469
LJ          -5.69191        -3.42938        0.394981
LJ          -1.22051        -1.02137        -4.74448
LJ          -1.95641         5.81001         4.52031
LJ           3.05453      -0.0680195       -0.682864
LJ           -2.9009         1.14462         -4.1856
LJ          -5.39408        -3.62368        -6.04859
LJ            3.7039       -0.482657        -3.97422
LJ           -5.0523        -4.46884         5.36328
LJ           5.06257        -4.97578         1.82278
LJ           2.58432         4.57933         5.56967
LJ          -4.41749        -5.35959          1.6217
LJ          -2.23431         5.23959       -0.652384
LJ           5.13696        -5.32564         3.64819
LJ          -3.62471         5.36509        0.558649
LJ          -6.35471        -4.13619         2.94614
LJ          -1.14898         1.10648        0.684661
LJ           -5.9437         3.51825        -5.45042
LJ          -1.84428         2.72722       -0.490523
LJ          -6.46056        -5.02113         -4.3817
LJ           2.75961       -0.200777         1.18468
LJ          -3.56494        -4.74334        -3.41839
