108
#Comment!
LJ            5.2147         4.27791        -3.97335
LJ           2.44029        -2.89572        -3.26607
LJ            6.1644         1.97579        -1.11781
LJ          -2.37302        -5.86018        -1.73871
LJ           2.74158         5.80851         -4.5856
LJ           3.34426        -3.17708        -4.18654
LJ          -5.58629        -2.77681         4.22524
LJ           4.51862         2.18469        -2.44313
LJ           6.38956       -0.731468        0.374427
LJ          -2.82712        -4.47404        -6.16325
LJ           4.98552         5.40097          2.3775
LJ           -3.4169         4.56949         3.44561
LJ          0.823184        -6.44671        0.438762
LJ            2.5826         6.44109        -1.50524
LJ           1.24658        -4.65607        -3.37099
LJ            3.9518         2.52661        -4.18245
LJ            4.8377        -1.09489        -1.91712
LJ          0.815471         1.64403         5.40238
LJ         -0.807302       -0.453473         5.88033
LJ           2.42135          2.4957         -5.6014
LJ          -4.73554        -1.92274         5.43225
LJ          -6.00558         5.27933         2.91068
LJ          -3.49091         2.50505         1.99529
LJ          -2.41283         3.14067         1.06007
LJ         -0.649149         3.65371         1.32719
LJ          0.262696         3.33332         5.55161
LJ          0.968992        -5.78303         3.52172
LJ           5.74498        0.876454        -5.43282
LJ          -1.83364          2.5069         4.50079
LJ         -0.932112        0.869781         3.43558
LJ          -1.77349         5.62855         6.06451
LJ          -1.63626         3.45516          3.4469
LJ           3.94297        -6.27593        -1.52842
LJ          -2.20625         1.71819        -2.95583
LJ           2.11172       -0.671144        -1.21348
LJ          -2.28844         4.79985        -3.71124
LJ          0.333025        -4.28912         -2.1027
LJ           5.33458         4.39514         0.83715
LJ           2.39011        0.241666        -2.83964
LJ          -5.23761        -6.42571        -5.55693
LJ           3.37674        -6.22417         4.35545
LJ          -1.41761        -2.86143         3.36073
LJ          -4.50243        -5.05883        -2.04012
LJ           6.37573         2.87314         2.02191
LJ           3.47338        -4.93713        -3.99826
LJ           4.81539         2.69299        0.984689
LJ           4.03848         2.98768         2.65336
LJ          -4.56917        -2.32425         4.39313
LJ           4.95882        -4.93882         5.74484
LJ           2.40326         4.75103       -0.753842
LJ         -0.443214         -2.2253        -3.98845
LJ          -5.94594        -3.38151         3.19443
LJ           1.93783       -0.363578        -5.03492
LJ         -0.524087     0.000539164        -3.42947
LJ          -6.04592         1.33681         -1.7573
LJ          -2.61067         6.39484         0.35409
LJ          -1.56454        -4.31927         3.62155
LJ          0.930045       0.0928291          2.1347
LJ          0.149154        -5.77162         2.38926
LJ           4.58374          2.7555         6.09213
LJ         -0.243518          5.7652        -6.10597
LJ          -3.93839        0.864949        -4.80344
LJ           5.46155        -3.94642        -1.46051
LJ           1.76546        -5.82553         1.24299
LJ           6.27932         -4.9161         2.78981
LJ           4.11463        -4.54361         2.67129
LJ          -5.71932        -2.28096        0.841755
LJ           3.08514         3.59664        -5.70292
LJ           1.73547         5.88024         5.69954
LJ          -2.39124         -2.5564        -5.78056
LJ          -5.75832        -2.20469         3.35126
LJ           0.97395        -3.97063       -0.223807
LJ           -5.7243         6.46014         4.39102
LJ           -1.6772        -4.17349        -6.00249
LJ          -3.67629         -3.0354         3.96103
LJ         -0.914596         4.66438        -6.29853
LJ          -4.04465        0.378052         2.47844
LJ           3.29183        -2.18425         2.92041
LJ          -5.17539         4.34573        -3.22451
LJ           5.89499         -2.4571         3.08006
LJ         -0.813047        -5.24796         5.16243
LJ            6.3959           4.221        -5.56231
LJ          -4.59779         3.08552        -2.91133
LJ         -0.121876         -1.2906         2.64419
LJ           2.29846        -4.39264         1.11368
LJ          -4.99259        -3.46068        0.145587
LJ          -4.87854        -5.44698         -4.7546
LJ          -1.05553        0.547121        -2.76302
LJ           6.27938        -5.19932         -1.2968
LJ         -0.630744        -3.88884         2.77054
LJ          -5.30648          5.1027        0.369892
LJ           1.91017        -3.08278       -0.195567
LJ          -1.36023        -2.68505        -5.58338
LJ            5.9627        -2.82147        0.987303
LJ          -4.90561          1.7529        -5.10124
LJ          0.778575         2.20762        -2.61254
LJ           2.73098         2.83623        -3.55175
LJ         -0.537367        -1.21946        -2.59229
LJ          -6.28828          1.9652         1.33152
LJ          -2.51513        -3.05729         5.95051
LJ         -0.105797         1.28414        -2.77372
LJ           2.07205         2.57028        0.464961
LJ          -2.78811        -3.72695         3.82263
LJ          0.215653         5.53081        -3.83827
LJ           2.08573        -4.39289       -0.404412
LJ          -4.96131         0.49218         4.94511
LJ           0.15963         4.02036        -1.65889
LJ           6.24677          1.7723         2.47044
