108
#Comment!
LJ          0.799201        -6.32917         3.83062
LJ          -4.46327         5.35956        -2.77846
LJ           -2.7907        0.863256        -2.96081
LJ           5.54996        -2.25677        -3.36557
LJ           3.18357         4.49737         5.27312
LJ          -3.72932       -0.804167         6.42696
LJ           -3.0384        -5.73871          3.5791
LJ          -5.25142          1.3961        -3.72803
LJ         -0.802668        -4.29555         5.01505
LJ           1.55619        -1.70179        -4.55083
LJ          0.606361        -3.79916        -4.24564
LJ          -2.88816        -2.74801         2.80351
LJ          -6.42183         1.34026        -5.95371
LJ          -2.35744        -4.90581         6.10921
LJ          -3.55552        -6.44888       -0.980885
LJ          -1.60276        -4.19859        -5.79971
LJ           2.35912        -2.14968         2.72678
LJ           5.84243       -0.921137        -6.39054
LJ         -0.598231       -0.716632        0.657877
LJ           1.44493         5.92746          1.8271
LJ           -2.7278        -6.12458        -5.85699
LJ          -3.10212         5.51534        -3.21725
LJ          0.945448         6.17415            5.29
LJ           4.35452        -4.95022        -1.65727
LJ         -0.411265         3.85474        -5.30543
LJ          -1.63446        -5.07215      -0.0697028
LJ         -0.230142        -4.18035         3.85122
LJ          -2.88796           1.253         1.49701
LJ        -0.0146615        -3.79723         -5.3753
LJ           4.18807         5.15885        -3.69035
LJ          -3.40632        0.752362        -1.89082
LJ           4.11574        0.610777        -3.41443
LJ          0.257714        0.514372         3.88999
LJ          0.573142        -3.31232        -6.37094
LJ           2.14599         3.05191        -5.34129
LJ           4.28327         3.93492         5.98838
LJ         -0.733803        -5.48353        -2.36386
LJ           1.74378         1.41616         3.18851
LJ          -4.06435         4.71259         1.19942
LJ          -3.20075        -4.14955        -4.31461
LJ           3.78414         5.51532         4.45423
LJ          0.603464          4.0308         2.78382
LJ          -3.00407         4.44189         6.24443
LJ           2.67302         -2.0651         3.88366
LJ          -2.66751        -5.08614        -4.01523
LJ           5.23087          5.2137         6.43363
LJ           3.48889       -0.979619         5.59809
LJ           4.03097         1.46335         4.08536
LJ            6.0278         1.58548        -5.11967
LJ          -3.35026        0.797403        0.345891
LJ          -5.78159         3.86888        -4.73854
LJ            2.2271        -2.21368         5.84624
LJ          -3.09413         1.55578        -6.37806
LJ         -0.365325        -4.05552        -3.82255
LJ            1.6756        -3.98012         6.19469
LJ          -2.15401        -6.29789       -0.572891
LJ           3.41518         5.78466         1.71427
LJ          -5.79711        -1.71308         4.04801
LJ          -4.23633        -3.70692       -0.511796
LJ          -6.45319        -5.05176         3.02385
LJ          -3.82541        -5.13922      -0.0633068
LJ           2.15036         3.05662         4.94696
LJ           3.23036        -3.08194        -3.79376
LJ          -4.03852        -6.43751        0.661612
LJ           2.17198         5.25575        0.711642
LJ            2.6976        -3.51415         3.90913
LJ          -5.79277        -5.46182         1.94836
LJ         -0.117772        -3.55255        -2.59122
LJ           4.33762        -2.05317         1.49083
LJ           5.11171        -3.39941         6.25475
LJ           1.25053      -0.0949922         4.06534
LJ          -4.98448        -2.05487         2.01651
LJ           1.58541         4.12086        -2.26511
LJ           -5.4509          5.2202        -2.21146
LJ          0.168496         4.09477        -1.06152
LJ          -6.11987         4.96993         5.13013
LJ          -1.83921        -4.19713         2.54727
LJ          -3.10233       -0.394005         5.52375
LJ          -2.00421         3.82514        -1.83348
LJ           4.21011         4.53443        -4.71849
LJ            3.4653        -2.50209        -2.07337
LJ           5.74684         4.20964         5.84214
LJ         0.0927241         2.99144        -2.64775
LJ           6.35874        -5.08523        -2.64533
LJ            5.1003          3.6878        -6.21212
LJ           2.84423        -5.66182        -3.58171
LJ          -1.91395         5.92057        -4.23149
LJ            4.7663        -2.34241        -5.77602
LJ          -3.74992        0.380138         1.95431
LJ           4.36156        -1.86729         5.19765
LJ           1.48314         1.10036         2.13653
LJ          -2.86041         5.54289         1.63454
LJ          0.282888        -3.14459         4.45206
LJ          0.147298        -5.79417         3.13875
LJ          -5.31561        0.464881         2.46624
LJ           3.13006         1.29152        -6.23814
LJ           1.16783         2.38939         3.81234
LJ          -2.56145         4.16684        -5.03754
LJ           6.09998         4.43591         4.73054
LJ          -4.11759         2.47204         2.54065
LJ          -3.31938        -4.29403       -0.876086
LJ          -2.51349         1.95538        -4.18378
LJ            3.2121         5.53021        -1.21923
LJ           6.02122        0.242506         1.21222
LJ           1.08415        -5.17293        -3.35708
LJ           2.89942       -0.164324        -2.56563
LJ          -3.83007         1.19733         3.01853
LJ          -4.47384         1.60653         4.20189
