108
#Comment!
LJ           3.16371         4.36481       0.0596029
LJ           5.79236      -0.0147364        -3.71322
LJ           -4.7477          5.5124         1.37152
LJ           3.14573         1.81156         6.43207
LJ          -3.64132         3.09076         4.36315
LJ          -6.06074        -1.68547         6.00694
LJ          -1.58927        -4.78077         5.86982
LJ         -0.411065         3.11515         5.90816
LJ          0.267263         3.78192        -5.89006
LJ           5.98398        -2.08626         6.44922
LJ         -0.587513         1.41028        0.561171
LJ          -1.84941         4.53574        -4.50965
LJ           5.27842         3.67166         1.02116
LJ           6.31345         4.45754        -3.62376
LJ          0.044848        -2.05078          5.2461
LJ          -6.22697         2.83378        -5.05041
LJ          -4.82247        -3.89377        -5.29575
LJ          -2.73886         4.60664         1.10747
LJ          -1.06142          3.1786         3.55482
LJ          -3.35131        -2.95958        -2.18708
LJ          -0.99094         5.98595         3.32753
LJ           6.18696         3.34264        0.191571
LJ          0.441813       -0.372172        -2.62529
LJ           5.28332        -5.66798        -5.05526
LJ          -2.70835         5.59255         5.51263
LJ            2.5278         -1.5168        -2.34487
LJ           5.73471       -0.922118        -1.13186
LJ          -1.93816         3.05556         2.30373
LJ           2.54893        -4.39976          6.1258
LJ          -5.56861         1.08133        -5.47366
LJ          -2.09608        -5.90919          6.1645
LJ           4.26107        -3.18056        -3.41338
LJ           1.30048         3.08313       -0.823688
LJ          -1.51667         3.52654        -6.40234
LJ           2.45823         5.06359         6.29752
LJ          -5.01242       -0.853596         4.01808
LJ           2.62778         3.54132         2.39364
LJ           -3.1913        0.892886          2.5923
LJ          -4.95332        -5.17518         5.53459
LJ          -2.16292         4.60674        -5.59086
LJ           3.34745        -1.68243         1.23401
LJ           -3.4529            2.06          1.9907
LJ          -4.42802        -5.97549        -4.33042
LJ           2.96744       -0.318516         4.30882
LJ         -0.727348         3.02288         4.65034
LJ          -1.48501         3.05674        0.377422
LJ           -1.6959        -3.83827         0.26848
LJ           5.99452        -1.04783         3.15594
LJ           2.47891         6.09855         3.26474
LJ           -5.2208        -3.41812         4.74675
LJ          0.493895        -4.07388        -4.82133
LJ          -3.40878         4.37204         3.64732
LJ         -0.202571       -0.874575        -3.77298
LJ          -2.58123         1.66948         3.50992
LJ             3.729         2.75208         2.52509
LJ           6.26783         4.22298        0.768312
LJ          -6.16307        -6.42525        -1.70504
LJ          -1.16248        -2.03431        -5.15422
LJ           1.76413        0.946725         1.40218
LJ          0.270835        -5.40888        -5.61091
LJ          -4.60581         2.76617           -0.65
LJ         -0.370033        -4.73251        -2.90848
LJ          -5.94312         5.71784        -3.43406
LJ          0.904719          4.2931        -1.48992
LJ           2.87082         5.00199        -2.44916
LJ          -4.31056        -0.86896          6.3859
LJ          -4.30399         5.35123        -4.50195
LJ           2.01733        -2.63517        0.121017
LJ           2.17859         4.12844         5.65935
LJ           1.56685        0.861516         5.68035
LJ          -4.20067        -2.01546        -4.84126
LJ           -6.0128         3.06743        -3.59806
LJ          -5.04833        -4.87041        -3.64927
LJ        -0.0129099        -5.55896        -1.89239
LJ          -4.54199        -5.36268         2.75133
LJ          -3.26811        -1.67629         0.96002
LJ          -6.27692        -4.07499        -2.95825
LJ           3.98736         5.65979        0.571408
LJ           3.53538         5.83769        -2.53622
LJ           5.68343       -0.236584         3.72765
LJ          -4.43915         -4.9833        -5.57001
LJ           3.82918        0.577996         1.74145
LJ         -0.889235        -3.81809         0.99576
LJ           4.44667       -0.441982         1.07849
LJ          -4.66402         4.64378        -5.43203
LJ           5.25609          5.7428       -0.420881
LJ           5.21385         1.41803         0.50208
LJ          -5.09649       -0.958071         2.72044
LJ         -0.729565        -2.00699        -2.72687
LJ         -0.567052        -5.41471        -6.24603
LJ            6.4218        0.898502        -1.46509
LJ           -0.2783         4.37135         5.86589
LJ          -3.26654        -1.41401        -2.09684
LJ           4.92554          4.0074        -5.92469
LJ           6.31486        -1.28448        -5.67042
LJ          -2.10087         4.81377         2.79708
LJ           1.71417         1.62067        0.418521
LJ          -5.85248         5.44825        -1.79613
LJ            3.6144         1.41437         1.09917
LJ          -4.33192         3.12692        0.784755
LJ          -5.92158         3.35432        -1.00766
LJ          -1.50214         6.14332         5.15506
LJ          -6.18319         2.52524         -2.0291
LJ           5.76322        -1.80386        -2.21244
LJ           3.46839         2.19058        -1.38249
LJ          -2.72251        0.395209        -1.65303
LJ          -1.63208        -4.69503         1.20719
LJ          0.123239        0.792895        -2.95395
