108
#Comment!
LJ           3.17644          4.2963        0.101666
LJ           5.69035       0.0423352        -3.67527
LJ          -4.74906         5.51539         1.19516
LJ           3.25839         1.79376         6.44264
LJ           -3.6841         3.02923         4.35724
LJ          -6.01495        -1.67387         5.96491
LJ          -1.63949        -4.75857         5.94895
LJ         -0.338009         3.16142          5.9507
LJ           0.24762         3.77988          -5.865
LJ           5.89621        -2.07962         6.45624
LJ         -0.564286         1.36585        0.604732
LJ          -1.84559         4.45794        -4.51991
LJ           5.26758         3.57808         1.07596
LJ           6.38161         4.45502        -3.61868
LJ          0.116603        -2.00833         5.30873
LJ          -6.08259         2.85949         -5.1125
LJ           -4.8779        -3.93705        -5.32957
LJ          -2.70418         4.44568         1.12186
LJ          -1.01021         3.08591         3.59593
LJ          -3.28854        -2.94417        -2.13134
LJ          -1.03003         6.07943         3.31725
LJ           6.27574         3.37394        0.184077
LJ          0.400985       -0.411827        -2.72573
LJ           5.36633        -5.70281        -4.96758
LJ          -2.75123         5.65677         5.44455
LJ           2.55716        -1.53143        -2.42396
LJ           5.74843       -0.873472        -1.01798
LJ          -1.91455         3.05458         2.21897
LJ           2.58253        -4.36999         6.15331
LJ          -5.62936         1.10212        -5.37646
LJ          -2.11538        -6.00961         6.15857
LJ           4.29631        -3.14013        -3.43322
LJ           1.27616         3.04557       -0.745729
LJ          -1.52877          3.4888        -6.36083
LJ           2.38453         5.00057         6.28197
LJ          -5.01228       -0.927805         3.97398
LJ           2.76742         3.50981         2.29273
LJ           -3.1584        0.960644         2.60889
LJ          -4.94775        -5.13241          5.4765
LJ          -2.14743          4.5131        -5.49849
LJ           3.37229        -1.67073         1.20018
LJ          -3.52779         2.10017         2.01033
LJ          -4.39986        -5.85766        -4.33222
LJ           3.00021       -0.292301         4.32154
LJ         -0.710959         3.02596         4.57949
LJ          -1.40358         3.11279        0.249476
LJ          -1.78195         -3.7836        0.347045
LJ           6.01946        -1.00254          3.1076
LJ           2.37061         6.04118         3.29373
LJ          -5.22871        -3.42598         4.79869
LJ          0.412014        -4.01865        -4.76349
LJ          -3.37929         4.35271         3.60912
LJ         -0.203134       -0.930307         -3.7862
LJ          -2.70315         1.64921         3.57591
LJ           3.80398         2.77052         2.49625
LJ           6.19833         4.30672        0.848932
LJ          -6.19094        -6.33095        -1.81142
LJ          -1.19204        -2.06672        -5.15968
LJ           1.78657        0.956968         1.38558
LJ           0.27233        -5.48135        -5.55495
LJ          -4.62613         2.83967       -0.704044
LJ         -0.442209        -4.71911        -2.93962
LJ          -5.99422         5.70547        -3.43937
LJ          0.993436         4.31857        -1.46639
LJ           2.91176         4.95631         -2.4671
LJ          -4.23607       -0.932337         6.38295
LJ          -4.26868         5.24455        -4.38459
LJ           1.88969        -2.58595        0.215938
LJ           2.24353         4.05942         5.68054
LJ           1.44408        0.786354         5.60984
LJ          -4.29028         -2.0128        -4.85902
LJ           -6.0486         3.17229        -3.61497
LJ          -5.05846        -4.82607        -3.71546
LJ         -0.087403        -5.59197        -1.84809
LJ           -4.5431        -5.36865         2.69524
LJ          -3.19214        -1.62224          1.0159
LJ          -6.30118        -4.08803        -2.94749
LJ           4.02234         5.62855        0.650999
LJ           3.54716         5.80264        -2.57312
LJ           5.74434       -0.231512         3.68928
LJ          -4.48035        -4.90455        -5.58457
LJ           3.81102        0.589816         1.65575
LJ         -0.796109        -3.83951         1.05155
LJ           4.52628       -0.351285         1.12997
LJ          -4.63454          4.6673        -5.45092
LJ           5.19807         5.68406       -0.383264
LJ           5.21852         1.44919         0.48416
LJ          -5.03837       -0.846694         2.78921
LJ         -0.744745        -1.98249        -2.72807
LJ         -0.579048        -5.45227        -6.28706
LJ           6.38714        0.905971        -1.43609
LJ         -0.266019         4.29833         5.79334
LJ          -3.27847        -1.46364        -2.16993
LJ           4.91836         4.11584        -5.89461
LJ           6.40285        -1.35491        -5.68144
LJ          -2.17855         4.89313         2.78084
LJ           1.71379         1.64054        0.444048
LJ           -5.7995         5.42693        -1.85446
LJ           3.47741         1.40461         1.18606
LJ           -4.3504         3.19823        0.828045
LJ          -5.92177         3.37034       -0.969991
LJ          -1.52184         5.98152         5.08253
LJ          -6.13392         2.54669        -2.08065
LJ           5.78769        -1.74351        -2.26527
LJ           3.40657         2.17617        -1.39515
LJ          -2.78392        0.455541        -1.69808
LJ          -1.61445        -4.68009         1.17075
LJ         0.0792414        0.769971          -2.884
