108
#Comment!
LJ           2.22907        -6.43416        -2.14582
LJ          -3.47025        -2.44361        -5.11533
LJ          -5.07385         3.13051         3.04412
LJ           2.14585         -5.2467        -4.20889
LJ           -2.3959         3.93127         4.11432
LJ           -4.2948       -0.101315         6.10349
LJ           1.94029        -2.54001         3.53598
LJ          -1.73469         2.28141        -4.36624
LJ             -1.41         5.60287          6.3746
LJ           5.82971        -2.57706        -4.10515
LJ          -1.48419         3.38573        -0.95642
LJ          -1.62299        -5.27149        -2.45421
LJ          -4.82588         5.96819       -0.355516
LJ            4.1532         4.64174        -3.68536
LJ          -2.63346         -3.9446         2.82576
LJ           1.43064         1.92714        -2.02621
LJ          -1.99324        -2.41793        -3.78252
LJ          -3.59338        -2.01158        0.857101
LJ          -2.92258         1.08718         2.65014
LJ          -5.26922        -2.62076        -4.88634
LJ         -0.229706         3.30431         4.01757
LJ           4.71951          4.0741       -0.352981
LJ           1.46042          1.9691       0.0298633
LJ           1.57387        -4.46754         4.53912
LJ          -0.46581         5.77067           2.846
LJ            1.7262        -1.58102          1.0131
LJ           5.32935        -1.13044        -4.78877
LJ          -1.13733         1.90537          5.0649
LJ           1.47877        -5.43007         5.23379
LJ          -2.59248        0.540345         4.21506
LJ          -2.36407         -2.0276        -5.72958
LJ           2.58804        -4.97634        -2.59515
LJ          0.114483         5.61678        -4.00383
LJ         -0.315403        -6.20731         5.56086
LJ           4.44334         -6.2466         6.15706
LJ          -5.93957         1.75738         5.06029
LJ          -2.48469         2.74761         5.20825
LJ           -1.9922       0.0860001         1.66239
LJ          -4.64247        -5.96586        -4.31606
LJ          -0.26004         6.03127        -6.18048
LJ            2.2818        -2.09675         2.71265
LJ          -1.73339        -1.74139         2.81855
LJ          -4.85254         5.39036        -3.75231
LJ           1.88097        -1.26073         3.87575
LJ          -1.69639         2.61335         -6.3868
LJ          -3.42986          1.2447         5.47363
LJ         -0.595712         6.23736        -4.31871
LJ           5.20305        -2.75224          4.7993
LJ          -6.22342        -4.54466         1.95921
LJ          -4.91858        -3.22584         2.72785
LJ           4.88001        -4.63363         -5.6138
LJ          -3.05176          4.9815         4.96264
LJ          0.476432         1.76767        -2.50561
LJ         -0.318017         3.98227       0.0897712
LJ          0.602387         1.84944         3.37621
LJ           -5.2989         1.81802       -0.376032
LJ          -4.99103        -6.23237          3.0796
LJ        -0.0114137       -0.755537         -4.7249
LJ           1.10923         1.09683        0.870299
LJ          -1.52985         -4.6223         4.53228
LJ          -5.36283       -0.670487       -0.977375
LJ           1.59055        -3.71371        -3.35912
LJ          -5.72766         5.22843        -2.87754
LJ         -0.291182         2.28101        -2.08204
LJ          0.737135        -5.52263        -1.69021
LJ            5.9633         1.77807        -6.39696
LJ          -6.06689        -3.89026        -5.13432
LJ           4.41511        -3.74699        -3.54268
LJ          0.376931        -5.47899         5.37234
LJ           2.54619        -1.63096         5.89468
LJ         -0.888121        -2.28477         -3.2891
LJ          -5.42972        -0.55743        -2.31699
LJ          -5.16376         6.35113        -1.33989
LJ           2.36291         -5.5599        -1.62637
LJ          -4.54391        -5.15834         4.98901
LJ          -6.24454        -3.81767        -1.21166
LJ           -5.0676        -4.82832        -3.26891
LJ           4.54898        -4.78267        -1.03155
LJ           3.89198         5.50464        -2.64849
LJ           3.78946       -0.226794         5.26341
LJ           -3.3352         5.71871        -6.32086
LJ           5.01072       -0.412014         4.48542
LJ          -3.16261        -3.55828         1.17137
LJ          0.792678        -2.67071       -0.983353
LJ          -5.56849         4.94364        -4.40318
LJ           5.97406        -6.44058        -2.25285
LJ          -3.58432       -0.547209        0.554049
LJ           5.46089        -5.24506        0.847363
LJ        -0.0216652        -2.67256        -2.98865
LJ          -1.26854        -2.94019         6.32015
LJ          -5.44572         1.90318        -2.74562
LJ          -1.91338         5.67944        -5.29033
LJ          -2.71997        0.572107        0.973184
LJ           4.51068       -0.617616         5.92345
LJ           3.46152       0.0246597         6.32282
LJ         -0.900686        -6.03643        0.889606
LJ           1.68568        0.222961         0.36488
LJ           4.62656         3.36009        -1.89359
LJ           2.66102        0.733238        -2.59189
LJ          -2.89573         1.62132         1.32285
LJ          -5.89964         1.54077        -1.58245
LJ         -0.738946        -5.91699         -6.1703
LJ           6.15224        0.589975       -0.448002
LJ          -4.79365        -5.54152       -0.909334
LJ           5.60904         3.31222       -0.321806
LJ         -0.517227        -2.20853       0.0413088
LJ          -2.22572        -4.13923         1.63196
LJ           1.64278       0.0484962        -4.79421
