108
#Comment!
LJ          -5.16057         3.07586        -4.53936
LJ           1.10055         1.65649       -0.850115
LJ          -3.39853         2.03006         2.43337
LJ           1.69593          3.9225        -2.23906
LJ          -2.47654        0.481606        -3.71514
LJ           3.89647         2.34787         6.03936
LJ           6.15786        -3.80044        -5.42747
LJ          -1.06976        0.159662        -2.07247
LJ          -2.65413         -3.2568        -4.38426
LJ          0.574979       -0.129988         2.40579
LJ           1.90546         2.09987        0.743975
LJ          -6.36412       -0.735967         2.03578
LJ          -4.29899         2.85657        0.638553
LJ          0.854884         0.38673       -0.120543
LJ           1.38961         4.13357       -0.304557
LJ           4.66332        -1.94126        -2.20021
LJ           2.41438         2.34028         2.98726
LJ           2.92852       -0.225866       -0.872541
LJ          -5.63818         4.15888         4.34843
LJ          -4.11888         3.76136         2.16774
LJ           -3.1977        -2.45518        0.341004
LJ           -3.9169         4.20556        0.897726
LJ           -2.0735        -1.99349         2.16708
LJ        -0.0648594         1.41325         5.13243
LJ          0.880117         3.20936         1.48768
LJ           -1.9875       -0.409478        -1.11521
LJ           3.01344        -4.75594         2.96293
LJ          -1.02988        -5.95426         1.34291
LJ           1.81903       -0.831794        0.426739
LJ           2.85729        -2.16982        0.933552
LJ           -1.1375         1.94028        -4.77488
LJ          -5.23693        -2.67427         1.65079
LJ           5.93992       -0.625525         4.48363
LJ         -0.602727        -5.03316         3.15129
LJ          -5.82517        -2.43261        -3.96016
LJ          -1.07421         2.71165         3.68636
LJ           2.14686         3.69176        -1.25569
LJ           2.34705        -3.27848        0.578677
LJ          -1.18049          1.1114        -1.81653
LJ           2.37492        -5.45533         2.23803
LJ           1.51718        -3.77039         -3.0862
LJ           3.55591        -6.09616       -0.323912
LJ            3.7467         5.33714        -1.64995
LJ             1.107        -2.88986         6.33046
LJ           3.40844         5.93123        -3.15747
LJ           1.54836          4.8709        -2.63763
LJ          0.313989        -6.15729        -5.23659
LJ           1.20297         1.98033        -5.79601
LJ          -2.78552         5.07361         2.84635
LJ           1.34681        -2.02026         4.25984
LJ          -5.49729         3.86146         1.53538
LJ          -3.85255        -2.49103        -2.79745
LJ           6.22945         2.47919         2.77758
LJ         -0.376023         5.21811        -1.37413
LJ          -3.02796         4.80876        -1.98421
LJ           3.86806        -1.82654         1.42389
LJ         -0.834759        0.594406         2.68142
LJ          -0.45327        -4.59141         -6.1385
LJ          -4.80674         3.78983         5.34323
LJ           2.75715       -0.570137        -1.87277
LJ           6.02883        0.859079        -1.91152
LJ          0.229668        -3.57153        -4.24074
LJ           1.48607        -3.61158          5.1842
LJ          -1.58772         -2.6387         3.18927
LJ           6.07581         4.69819         2.00012
LJ          0.340895        -1.08138       -0.733887
LJ           -1.5003         1.03985        -2.89758
LJ          0.466512       0.0726623        -1.81864
LJ          -5.16887         1.75116         6.44315
LJ          -4.25221         1.57658        0.532823
LJ           3.20037        -3.79402        -1.88921
LJ          0.155102         1.08304        -1.07305
LJ           3.43527         -3.2553         1.04797
LJ           5.02193         2.02748        -6.37445
LJ          -3.92909        -4.70326         1.70098
LJ          -5.00531        -3.27996        -5.43607
LJ           -2.8967         1.28656        -6.37305
LJ          -1.19813        -1.52885         5.69745
LJ           4.16815       -0.648545         5.04917
LJ           6.36383        -1.44197        -2.65289
LJ           1.00779         4.69782         1.40046
LJ           5.94785         4.13877         3.83835
LJ           1.87407         5.48886        -3.75869
LJ          -3.23733          4.6888         5.35119
LJ          -5.93755        -6.05383         2.75203
LJ            2.1192         -3.6784         2.61702
LJ            2.3164           3.085        -2.81312
LJ          -4.15128        -6.00619         5.68118
LJ           2.55197        -6.40294        -1.01553
LJ          -3.17409         4.02142         4.21095
LJ           2.38803        -5.65503        0.661882
LJ          -1.63232        -4.16143         1.93459
LJ          -2.90278        -2.09426        -3.57597
LJ          -4.44438        -2.08876         4.69793
LJ          -4.89671        -5.76588        -1.58862
LJ           5.81024        0.789067       -0.221154
LJ           2.75253         5.42117        -1.87455
LJ          -5.60585         5.66391        -3.96234
LJ          -1.71489        -5.22524        -1.50966
LJ          -6.45625         1.14377         3.30026
LJ          -3.18048        -1.14024        -0.28274
LJ           5.54351       -0.380648         6.43843
LJ           2.22965         6.44083         6.25422
LJ           3.51414        -5.71355        -4.97029
LJ         -0.901653         2.56594        0.747194
LJ          -2.86463        -1.04291        -1.62008
LJ          -4.43282         6.12162         -5.0044
LJ           4.15882         5.69932       -0.518893
