108
#Comment!
LJ          -2.62374         3.11195        -5.67173
LJ          -5.91092        -4.10176        -2.88874
LJ           4.26216       -0.544331        -3.33102
LJ          0.407646         1.17161        0.947951
LJ           1.14151         5.68974         3.29542
LJ           3.26882        -4.52458        -1.77856
LJ           2.78782          2.8616        0.191189
LJ           2.93299         3.86942        -5.68295
LJ           5.89154         5.69994        -1.86563
LJ          -1.02652        -3.51748        -3.72625
LJ         -0.972569        0.809273         4.55163
LJ         -0.966029          6.0552       -0.460331
LJ          0.933554         5.18084        -0.63991
LJ           4.80349        -4.02491         4.89643
LJ          -1.60734         4.89723        -5.88503
LJ           2.07891        -2.99042       -0.831072
LJ          -5.41484         4.26336        0.240018
LJ           1.50614        -3.19647        -2.06099
LJ          -4.09377       -0.670209         1.07704
LJ          -4.04667        -4.77823         5.91923
LJ         -0.591065         1.29772         1.32848
LJ          -1.93262        -4.18745        -4.73391
LJ           4.10968         2.98025        -4.28916
LJ          -3.55408         3.41889         -2.8942
LJ          0.805492        -1.39921         4.53128
LJ           2.19883         4.40389        -3.32339
LJ           6.31758         4.48659        -1.85408
LJ           1.68487       -0.201943        -1.25284
LJ          -2.88494        0.454755         -2.6434
LJ          -4.79986        -2.40647         4.70137
LJ          -3.75772          3.6077       0.0551457
LJ          -2.17596         1.79855       -0.818225
LJ          -3.17485        -2.78047        -1.26824
LJ           1.22267         3.87787        -3.40319
LJ           -5.9883        -2.48188       0.0889275
LJ           2.28091         4.39791        -4.56165
LJ           4.06914      -0.0333865        -6.41278
LJ          -1.32613         2.59449        -3.76862
LJ          0.354751         5.25171          4.0529
LJ          -2.58048        -5.94338        -1.12924
LJ           3.98865         1.75354         4.27109
LJ          -1.84823        -2.12828        -5.78378
LJ          -2.55048        -2.00859        -2.07477
LJ          -5.36513         2.20874       -0.507589
LJ           4.53008        0.355859         -5.4643
LJ          -4.03423         1.64595       -0.173051
LJ           4.28951         3.88987        -6.17797
LJ            1.7649         3.03623        0.886071
LJ           3.51621        -2.08802         1.17538
LJ          -5.46971        -1.15092          2.3297
LJ         0.0282046        0.442768         4.41217
LJ           3.32663         5.15196        -3.71441
LJ           3.61651        -4.41783        -3.90475
LJ           4.43794         -1.7991        -1.55297
LJ           5.13661        -1.23017        -3.77432
LJ           0.99436         6.39401        -2.49948
LJ           -2.6482         1.62925         2.14732
LJ         -0.987075       -0.725931         5.11171
LJ          -1.27473         3.42058         2.43506
LJ          -2.79315         3.26854        -2.04656
LJ           2.40094        -1.28043         1.36497
LJ          -1.14872        -4.40474       -0.934383
LJ          -5.26984        -4.97091        -6.10489
LJ           5.66276         3.33238        -1.06436
LJ           2.18958        -3.56088         2.21877
LJ          -4.11402        -4.97259         0.20718
LJ           1.04321        -4.22127         1.80068
LJ           3.32915        0.845128         4.77375
LJ           4.50322        0.909619         1.19588
LJ        -0.0454987         0.51762        -1.53062
LJ           3.92907         1.21809       -0.710519
LJ          0.225237         5.62767        0.373629
LJ          -4.33872         3.47823         2.85154
LJ           2.25943       -0.569354        0.521279
LJ          -5.59848        -3.58252         4.52236
LJ           -4.9783        -3.92536         5.85947
LJ          -3.98706         4.26444        -5.40183
LJ         -0.907321        -3.25221         4.37804
LJ           5.18677        -4.27225       -0.652133
LJ           4.31772        -3.36729         3.76804
LJ           5.15744        -3.19786        -6.14748
LJ          -3.50933          1.8243        -2.69069
LJ          -3.60187         1.66333        -4.10943
LJ          -6.00562        -1.96454         1.68385
LJ         -0.951338        -6.28464        -2.41458
LJ           -3.4472        -3.04171        -5.73558
LJ           4.21254        -5.49612        -3.48572
LJ         0.0472205        -5.89815        -2.75693
LJ           3.58145        -3.85315         5.23054
LJ          -2.61094       -0.172114       -0.778911
LJ         -0.491045         2.73422        -2.80118
LJ           1.50735         4.10975       -0.535429
LJ           1.87923        0.596638        -3.31638
LJ          -4.27312        -1.78186         3.93866
LJ          -2.41704          6.0521        -2.20934
LJ          -5.09502        -1.61774        -3.11298
LJ          -6.11572        -1.50845         4.12047
LJ         -0.883604        -2.05007          1.0617
LJ         -0.680482       -0.578083         -4.6559
LJ          -2.39404        -1.73572         6.17071
LJ           1.38838         5.34739        -3.41557
LJ         -0.771639        0.675235       -0.739028
LJ          -2.55668         5.10235        -6.16484
LJ          -5.60907         1.11758         1.00979
LJ         -0.618617         4.78721        -2.89118
LJ           5.88592         1.36648         4.98522
LJ          -5.32917        0.808856         2.00693
LJ          -5.56242          5.4515        -4.57631
