108
#Comment!
LJ          -4.28784         4.09491        -2.53704
LJ           5.10261        -2.90364        -2.92432
LJ            6.0211         0.13199        -2.18111
LJ          0.732602        -3.56299        0.852858
LJ           2.88632         4.20991         1.08068
LJ           1.12378        -5.13811        -2.78387
LJ           4.53021      0.00266571         1.97359
LJ           4.00996          3.3674         1.85351
LJ           4.95343         5.53516        -5.98725
LJ         -0.377874        -6.06188        -4.17075
LJ          -4.72423          2.4706         2.95048
LJ          -2.03731         5.42467         0.21965
LJ           1.54762         5.90712       -0.204083
LJ           3.12209         -5.8517         1.78886
LJ          -0.13033        0.996406        -4.63774
LJ           2.13971     -0.00333514        -2.78967
LJ          -6.35711         1.03733         5.50154
LJ            2.2421       -0.415703         1.07157
LJ           -1.7171        0.961866         5.28295
LJ         -0.145146         5.73395        -5.53953
LJ          -2.08497        -1.62817         3.54055
LJ          -5.80924         -5.0824         6.24686
LJ          0.820547         2.16166         5.80584
LJ          -2.94981         3.55775       -0.159189
LJ           -0.1715        -5.63454         2.45251
LJ          0.323704         4.24318        -6.14749
LJ          -3.15324         5.58831        -6.09417
LJ           6.09017         1.35603         3.20606
LJ          -2.81832         1.24117        -5.12877
LJ          -3.81537        -1.96761         4.42826
LJ          -2.87711         4.57097         2.96853
LJ          -3.59294        -3.80925        0.724257
LJ          0.787027         3.46137       -0.212836
LJ          -1.57527         2.29881        -4.34108
LJ          -1.44981        -1.55321       -0.283457
LJ        0.00356492         4.96131        -4.08718
LJ           2.30795         4.96679        -4.95836
LJ          -4.42278         2.96362        -1.94227
LJ           1.33137           2.353           1.182
LJ          -4.05202        -6.27877        -3.10135
LJ            4.5155          4.1785         3.84681
LJ        -0.0586742        -2.96998         5.36448
LJ          -3.27875        -3.51352        -2.80098
LJ          -5.91483         3.15286        0.395337
LJ           2.79697         4.86707        -3.86349
LJ          -6.07425         1.96129         0.42906
LJ           3.22351         2.73894         3.11044
LJ           5.05568        0.132948         3.45273
LJ           3.82233        -3.99101        -2.80958
LJ           4.62528         1.09886        0.812931
LJ          0.348285        -1.16563         6.43203
LJ           5.00196        -5.45283       -0.753486
LJ           2.72258        -2.48195        -4.24656
LJ           1.13181        -1.44888        -1.44137
LJ           5.25282        0.934612        -2.01873
LJ         -0.800446         6.32578        -2.44721
LJ          -2.07094        -1.16154         2.28774
LJ         -0.738988        -2.09945        -1.44941
LJ          -0.58698        -4.33028        0.197404
LJ           1.28155         2.27441        -4.63799
LJ           1.31207        -4.74013         3.52087
LJ          -2.34673        -2.06736        -3.56662
LJ           6.13504        -4.60466        -3.48692
LJ           2.15735        -5.38929         0.80466
LJ          -6.37675        -4.51432         -5.3162
LJ           6.31791        -5.56817        0.752879
LJ          -2.80393        -3.95802        -5.28618
LJ         -0.142946         3.01821         5.55188
LJ           2.04137        -1.95559         4.33618
LJ          -1.10199       -0.895643        -4.00381
LJ             4.232        -1.32254         1.85804
LJ           1.50203        -5.89571        -1.39101
LJ            1.1698          5.0849         4.45577
LJ          -5.74331        -2.21487       -0.119385
LJ          -3.21629        -1.62427         5.39573
LJ          -1.08188         5.53125         6.39456
LJ          -4.07733         2.15323         5.65235
LJ           2.33249        -2.71502         3.28814
LJ          -5.70659         5.51199        -1.34968
LJ           5.01618        -2.59673         4.78621
LJ            4.6546         3.20249        -5.63217
LJ          -6.06353         2.84785        -4.57657
LJ          -5.23729         2.72633        -3.15754
LJ           3.96221        -0.87721        -2.07171
LJ           1.49773        -6.04129       0.0795681
LJ          -5.08317        -2.39838         1.65922
LJ        -0.0266671        -6.16745        -5.26049
LJ          -1.13664         5.95074       -0.833561
LJ           4.12543        -5.62657         2.60089
LJ         -0.779957        -1.74567         1.52703
LJ          -3.27151         4.39365        -2.23814
LJ          0.520919         6.12255        0.137256
LJ          0.754417        0.269433        -4.98209
LJ           0.27479        -2.22736         1.97582
LJ          -4.10478        -1.69881         -2.2363
LJ          -2.27568        0.359374        -3.09626
LJ           4.94203         1.24837       -0.375868
LJ         -0.586496         4.59668       -0.495434
LJ          -3.84974         1.69852        -1.66066
LJ          -2.51937        -2.52372         5.83121
LJ           1.06019         4.10631        -4.23786
LJ         -0.504013         1.41492       -0.866385
LJ          -2.86997         1.14747         4.14164
LJ           -1.7117         1.90867       -0.526466
LJ           1.08024         6.40414        -2.19813
LJ           6.05923         2.16434          5.3122
LJ          -1.64983         2.50329        -1.62397
LJ          -5.12419         4.56378        -1.64182
