108
#Comment!
LJ          0.969935         6.12526        -4.26163
LJ          -3.51292        -4.62406        -4.80207
LJ          -4.86031       -0.740161        0.738765
LJ           3.01022        -3.61823        -4.04511
LJ          -1.69954         3.29202         3.60144
LJ          -4.72588         -1.0731         6.03831
LJ           1.93945        -2.63926         5.09676
LJ          -2.56106         1.90711         -1.7715
LJ          -3.05871        -5.35468         6.14812
LJ           4.36514        -2.34035        -1.43832
LJ         -0.919641         5.26388        -1.78316
LJ         -0.364199        -2.61526       -0.185829
LJ          -3.21598        -5.15344         1.64966
LJ           2.36073         4.17261        -4.43612
LJ          -4.95327        -5.12559         1.57465
LJ         -0.090723         2.93384        0.471104
LJ         -0.183411       -0.975118        -2.80365
LJ          -3.37556       -0.474187       -0.224328
LJ          -5.85499       -0.215526         3.07122
LJ          -6.00318        -2.35396          6.0779
LJ          -1.79386         3.99237          5.5633
LJ           5.48115         4.92498        -1.30984
LJ           1.60601         2.56221         1.91287
LJ          -1.71581        -3.66355         1.68859
LJ          0.684266        -4.74859     -0.00125403
LJ         -0.105085        -2.54025          1.6471
LJ           5.21989        -2.35202         6.08529
LJ           0.62685         1.03399         5.44739
LJ           1.12762        -4.96096         4.22542
LJ         -0.279792         1.33304         2.34748
LJ          -1.06971        0.214377         6.29992
LJ           1.08734        -5.22427        -3.01317
LJ          0.845924         6.09632        -5.31734
LJ          0.620868        -4.41579         5.98031
LJ           5.92495        -4.89338         6.19241
LJ           5.85773         3.41308         5.32011
LJ          -5.18205       -0.294722        -5.67367
LJ          -1.10646       -0.643997         0.99057
LJ          -3.94583        -6.05058        -2.07584
LJ          0.385654        -5.87714        -6.12288
LJ           3.63875       -0.150791         2.87424
LJ          -1.32135         -4.8681         3.32077
LJ          -4.85328         4.12334        -2.96765
LJ           1.63545        -2.06224         2.70658
LJ          -2.44593         3.26452        -5.37764
LJ          -1.99836         1.52991        -4.74677
LJ          -3.24896         3.45916          5.5778
LJ           5.65128        -3.85496         6.24519
LJ          -3.14831        -3.42485       -0.442492
LJ           -4.5662        -2.17131         2.39636
LJ          -5.59273        -5.01569        -5.72999
LJ          -2.44124         4.81999         4.10764
LJ         -0.775471         2.68367        -3.73647
LJ         -0.301524         5.49819        -2.71533
LJ        -0.0842761       -0.800768         3.30101
LJ          -4.69862       -0.776871       -0.934965
LJ           -3.9821        -6.38608        -6.38372
LJ         -0.341782        -0.68734        -4.52321
LJ           1.41616         1.39822         1.36923
LJ          -3.81679        -4.53262          2.6281
LJ          -6.43905        -3.14582        0.425044
LJ           1.99728        0.645807         -1.7022
LJ           6.03523         3.39175         -3.3295
LJ          -1.04307         1.62119         -2.3474
LJ        -0.0208384        -2.92057        -1.80905
LJ           5.24204         3.92297        -5.99748
LJ          -5.51147        0.793378        -3.18904
LJ           4.58188        -4.02906        -5.62375
LJ          0.785957        -3.94894         4.91685
LJ            1.6983        -4.51368        -6.41996
LJ           0.22465        -1.77406        -1.07734
LJ          -5.29585        -2.20979        -2.13714
LJ          -4.09477         -6.2114        0.766362
LJ           1.85688        -5.52669       -0.411007
LJ          -3.85925        -4.72853           6.271
LJ            4.0172        -5.37741        -2.50513
LJ          -4.62974        -5.93849        -3.10325
LJ           5.99126        -2.83901        -1.72928
LJ           5.90632         4.63835         -2.5257
LJ           5.05231       -0.470542          4.4234
LJ          -2.23586          6.2474        -4.67633
LJ           3.62428       -0.578001         6.24139
LJ          -4.05833        -4.22546         1.62108
LJ          -2.07209          -3.209        -2.33001
LJ          -6.15054         5.00536        -5.43315
LJ           5.26564         5.62865        -4.06825
LJ           1.43772        0.338263        0.782958
LJ           4.09795         4.28232       0.0438437
LJ           2.18481        -3.43797        -2.08715
LJ         -0.989405        -2.04713          5.5262
LJ          -5.12667         2.11233        -2.83407
LJ          -3.34356        -6.09012        -5.36264
LJ          -1.32581         -1.0439         2.56593
LJ           3.52296        -3.49748         4.94138
LJ           1.62227        0.712516         -6.4115
LJ         -0.012031        -3.70443       -0.770995
LJ           1.66264        -2.02877         1.28917
LJ           2.31549         2.44777        -2.00098
LJ           2.10061        0.926538        -5.52917
LJ          -2.23407         3.00848         2.80416
LJ          -5.69195       -0.586679        -1.66705
LJ          -1.01753        -3.47615        -5.96197
LJ          -5.61252        -1.01491      -0.0481442
LJ          -1.09509         4.73899       -0.347358
LJ            5.7988         5.42344       -0.181622
LJ           1.16666        -4.09384        0.939473
LJ          -4.01428        -2.91715        0.657592
LJ           2.18105       -0.665775        -5.85978
