108
#Comment!
LJ         -0.965633         3.38888        -4.43957
LJ          0.421725        -2.33265         4.61266
LJ          0.438541         2.93633       0.0949784
LJ           3.92588         5.45178        -4.09535
LJ          -5.96126        -1.83475         -2.4798
LJ           5.37704         1.32236        -5.00145
LJ          -4.96693        -3.27157         6.04481
LJ           1.39084         0.44551        0.990193
LJ          -2.95888       -0.512493         1.94401
LJ         -0.408243         1.11032        0.958276
LJ           4.04343        0.976993        -3.74625
LJ          -5.29504         2.28807         6.04721
LJ           4.53865        -1.00089         1.96001
LJ           3.96858        -4.17625        -6.19762
LJ           2.89481        -1.88262        -1.68504
LJ          -1.08097        -2.82197        -1.07817
LJ           1.16785        -3.86787          1.2079
LJ          -1.31737        -2.00876         3.86224
LJ          -3.74849        -5.31852         3.05485
LJ          -5.01706         2.30425         4.12771
LJ          -4.13106       -0.407386         3.12984
LJ          -5.92468        -1.87988         1.14162
LJ          -4.69204       -0.624815         4.39928
LJ           1.28046        -1.17637         -2.7105
LJ        -0.0185692         1.65627        -4.96079
LJ          -2.05112        0.639203        -3.96616
LJ          0.565385        -4.58558         3.39347
LJ          0.212518         6.31629        -3.32833
LJ         -0.473447        -1.40468         1.06839
LJ           3.30163         6.23635        0.581728
LJ          -1.18972        -5.00871        -5.55978
LJ           2.98944         6.21088           2.807
LJ           5.40187         -3.6806         6.27765
LJ          0.424593         1.44986         1.56368
LJ           -3.2013          4.7523         2.47428
LJ          -3.79348         3.93471         0.10634
LJ          0.468665         4.87153        -3.75117
LJ           3.88377        -4.98317     -0.00679942
LJ           2.65283        0.704268          2.5736
LJ           4.09712        -5.63253         3.17257
LJ          -1.56774        0.471658        0.640211
LJ           2.90712        -5.03832          3.8577
LJ            4.9377        -6.29711        -0.99116
LJ          0.715474       -0.118461        -6.38819
LJ           3.67765         2.38562        -4.19405
LJ           1.78556         3.99195         6.32199
LJ          0.143813        -5.50177        -4.25235
LJ         -0.460203         5.77118        -6.07781
LJ           5.68054         6.44598          3.9792
LJ          0.357054        -6.07591         -1.8213
LJ          -3.76114         6.37336         4.07546
LJ          -4.10508        -3.13483        -4.34843
LJ          -2.97596       -0.764776          5.6475
LJ           5.18404        -5.41874        -4.07387
LJ             4.605       -0.854517       0.0445207
LJ           6.40405         6.38603         2.11858
LJ           4.10798         3.06416         3.60435
LJ           1.38595         1.04071         6.21224
LJ           -2.1931         2.04688         3.63251
LJ          -1.65632          5.8586         3.89493
LJ           -1.8172        -1.69321        -5.28869
LJ           6.15643        0.335998        -5.36549
LJ           6.00828        -5.02024          3.2706
LJ        -0.0979252        -5.29588        -3.09886
LJ          0.965231         3.36481         3.82747
LJ           2.21402       -0.771272        -3.75566
LJ         -0.570006        -2.19579        -4.84981
LJ          -3.28507         2.89138         6.40576
LJ        -0.0148859        -2.80464       -0.745528
LJ         -0.655829         -4.5504         4.22232
LJ          0.782666          4.9003         1.81161
LJ           2.75404       -0.609522       -0.238086
LJ           4.41204         6.45377         2.57662
LJ          -5.47716         2.45132         -3.0645
LJ             1.714      0.00925253         2.66655
LJ          -2.46233        -6.18493        -4.43618
LJ         -0.963624       -0.494363         3.58702
LJ            1.1995         4.93799        -4.57534
LJ         -0.144213          5.7473        -1.82559
LJ          -3.90529        -2.03448        -1.82515
LJ           -1.3598        -4.81874         3.30757
LJ           5.77314         4.61398         4.92094
LJ          -1.43051         5.09299        -5.98257
LJ          -3.88253         2.16442        -5.18845
LJ           5.04379        0.482367        -2.49498
LJ          -3.55316         -2.4115         1.58781
LJ           1.59869         4.65255        -3.64707
LJ          -1.18813       -0.798806        -4.63717
LJ          -1.22524        -4.90225        -4.01434
LJ          -2.91253         2.43796         4.34579
LJ           4.92641        -4.55606         2.97476
LJ           1.16966        -1.24061         1.04123
LJ          -2.62741        0.958784         5.69589
LJ          -2.95116        -5.71547        -2.73656
LJ         -0.935217          3.1492         2.81997
LJ           2.28959         1.59622        -2.56714
LJ           1.12965         3.00282        -6.25257
LJ          -1.73039        -2.60112        -4.36405
LJ           5.71793         3.49883         -4.5243
LJ          -4.35386       -0.262527        -4.67281
LJ          -6.15395         0.35733         1.44733
LJ           4.75433         1.35868         4.01479
LJ            3.6098        -4.27677         3.24021
LJ          -4.66875         5.38997         2.30709
LJ          0.564662        0.990153        0.175651
LJ         -0.173595         -3.4637        -1.76974
LJ           6.11352        -6.31124        0.606883
LJ          0.536122       -0.577304         5.06055
