108
#Comment!
LJ           1.19391         6.22831        -3.91711
LJ          -3.50378        -4.30325        -4.83235
LJ          -5.00688       -0.190398        0.942283
LJ           2.88193        -3.76085        -4.01005
LJ          -1.79391         3.38226         3.65475
LJ          -4.62504       -0.791349         6.09874
LJ           2.17989        -2.59004         5.00601
LJ          -2.35977         1.93933         -2.1082
LJ          -3.04487        -5.71541         6.13142
LJ           4.57402        -2.34059        -1.87037
LJ           -1.1217         4.92273        -1.67573
LJ         -0.521684        -3.04088       -0.486886
LJ          -3.31418        -5.47725         1.32862
LJ           2.60269         4.24832        -4.32053
LJ          -4.66786        -5.33733         1.44889
LJ          0.112489         2.67965        0.251652
LJ          -0.47198          -1.165        -2.98188
LJ           -3.4343        -0.52231         0.12431
LJ          -5.38941       -0.221065         2.84257
LJ          -6.27205         -2.2875         6.30764
LJ          -1.71854         3.89469          5.4845
LJ           5.30189         4.78724        -1.23055
LJ           1.59706         2.37664         1.63164
LJ          -1.23326        -3.78707         2.04516
LJ          0.839386        -5.25502        0.222341
LJ          0.178654        -2.39074         1.65107
LJ           5.53043        -2.12349         6.27011
LJ         0.0982807        0.857983         5.59678
LJ             1.237        -5.08756         4.32283
LJ         -0.611347         1.25249         2.61598
LJ         -0.938453        0.165251         6.19242
LJ           1.26945        -5.01595        -2.94372
LJ           0.73188         5.95813        -5.14896
LJ          0.426228        -4.63739         5.90731
LJ            5.6756        -5.00985         6.17248
LJ           5.98125         3.18979         5.33446
LJ          -4.83058       0.0638354        -6.05429
LJ          -1.15843       -0.597341          1.0859
LJ          -4.05011        -6.16407        -2.36128
LJ          0.316822        -6.02628        -6.19022
LJ           3.43092       -0.412712         2.75527
LJ           -1.4105        -4.42737         3.32317
LJ          -4.79657         4.41222        -3.05018
LJ           1.64225        -1.96285         2.91437
LJ          -2.37283         3.00586        -5.48352
LJ          -2.19292         1.56386        -5.08648
LJ          -2.67134         3.87785         5.86153
LJ           5.14626        -3.77489         6.30896
LJ          -3.59573        -3.54271       -0.179817
LJ          -4.61455        -2.39635         2.35206
LJ          -5.48976        -4.95038        -5.97382
LJ          -2.56442         4.91781         4.29993
LJ         -0.526471         2.58184        -3.62645
LJ         -0.155023         5.35776        -2.38026
LJ         0.0452624       -0.448745         3.32717
LJ          -4.82369       -0.417117       -0.939465
LJ          -3.92005         -6.1828         6.09542
LJ        -0.0282822       -0.527194        -4.51542
LJ           1.43167         1.45624           1.241
LJ          -3.49906        -4.56902         2.96944
LJ           -6.2937        -2.82455        0.215257
LJ           1.97168      -0.0514637         -1.9831
LJ           6.09852         3.77843        -3.25689
LJ          -1.09258         1.70649        -2.26552
LJ          0.046878        -3.30527        -1.81094
LJ           5.36926           3.619        -6.10713
LJ          -5.66584        0.129935        -3.04524
LJ           4.76058        -3.92931        -5.72613
LJ           0.71339        -4.10508         4.99138
LJ           1.83913        -4.11767         -6.4494
LJ           0.11938        -1.72897        -1.36313
LJ          -5.28812        -2.03017        -2.13136
LJ          -4.41365        -5.97009        0.780618
LJ            1.6514        -5.44223       -0.366763
LJ          -4.39781        -4.82612         6.30465
LJ           4.40491         -5.2072        -2.36064
LJ          -4.70029        -5.75831        -3.14138
LJ           5.80985        -3.11233        -1.57309
LJ           5.68647         4.67581        -2.66546
LJ           4.85989       -0.386814         4.45849
LJ          -2.27594         5.99096        -5.04858
LJ            3.9734       -0.674744         6.17904
LJ          -4.00734        -4.02435         1.65049
LJ          -1.77143        -3.10706        -2.17631
LJ          -6.08013          4.9968        -5.27904
LJ           5.39603         5.66969         -3.8401
LJ           0.74634        0.169384        0.613728
LJ           4.23186         4.76727        0.194457
LJ           1.94366        -3.52454        -2.27327
LJ           -1.0574        -2.13053          5.6579
LJ          -5.15877         2.10668        -2.83981
LJ          -3.23539        -6.10185        -5.21864
LJ          -1.63235       -0.780323         2.47199
LJ           3.68144        -3.27339         5.06885
LJ           1.89738         0.68711         6.41694
LJ         -0.181979        -4.08163       -0.496698
LJ           1.65222        -1.53876          1.1014
LJ           2.63166         2.56658        -1.98803
LJ           1.89707        0.714402        -5.15828
LJ          -2.34859         2.79919         2.53656
LJ          -5.71167       -0.250226        -1.98206
LJ          -1.01589        -3.89873        -5.96301
LJ          -5.69715       -0.725371        0.014678
LJ          -1.59618         5.11219       -0.361391
LJ           5.88701         5.13948       -0.101929
LJ          0.969241        -3.82075        0.845028
LJ          -3.66223        -2.99369        0.828519
LJ           2.10674       -0.600814        -5.64399
