108
#Comment!
LJ           0.85872         6.07387         -4.3881
LJ          -3.51761        -4.79732        -4.79594
LJ          -4.67581       -0.963139        0.746708
LJ           3.07408         -3.5475        -4.06138
LJ          -1.57447         3.29296         3.69692
LJ           -4.7854        -1.20535         6.02434
LJ           1.82009        -2.67192         5.14156
LJ          -2.64925         1.88865        -1.60735
LJ          -2.93171         -5.3034         6.15006
LJ           4.26907        -2.34386        -1.22305
LJ         -0.808745          5.4357        -1.83554
LJ         -0.263492        -2.41518      -0.0676886
LJ          -3.21138        -4.96538         1.82052
LJ           2.23915         4.13557        -4.49382
LJ          -5.05554        -4.99648         1.64276
LJ          -0.19119         3.06033        0.582051
LJ        -0.0383324       -0.881191        -2.71722
LJ           -3.3636       -0.453829       -0.402142
LJ          -6.08767       -0.213646         3.18495
LJ          -5.88071        -2.38552         5.96333
LJ          -1.85026         4.03757         5.59818
LJ             5.588         4.99992        -1.34518
LJ           1.60735         2.64543         2.04808
LJ          -1.95652        -3.60311          1.5128
LJ          0.580284        -4.45653      -0.0786322
LJ         -0.244156         -2.6145         1.64103
LJ           5.07918        -2.47934         5.99433
LJ          0.897942         1.11637          5.3856
LJ            1.0617        -4.86894         4.20007
LJ         -0.111198         1.37253         2.21144
LJ          -1.13143        0.240245         6.35265
LJ          0.996858        -5.32919        -3.04855
LJ          0.891358         6.18794        -5.46326
LJ          0.726749        -4.33104          6.0641
LJ           6.11981        -5.04384         6.19067
LJ           5.79393         3.52654         5.31863
LJ           -5.3523       -0.486337        -5.49953
LJ          -1.08106       -0.671064        0.954139
LJ          -3.91048        -5.99046        -1.95805
LJ          0.433306        -5.81388        -6.07492
LJ           3.74322      -0.0203201         2.93489
LJ          -1.27747        -5.08592         3.31585
LJ          -4.88435         3.97699        -2.92644
LJ            1.6297         -2.1113         2.58296
LJ          -2.48126          3.3897        -5.32578
LJ          -1.90002         1.51909        -4.57725
LJ          -3.51985         3.25579         5.43515
LJ             5.845          -3.667         6.20491
LJ          -2.93484        -3.35732       -0.555017
LJ          -4.54089        -2.06073         2.41399
LJ           -5.6425        -5.04749          -5.615
LJ          -2.37551         4.76134         4.01522
LJ         -0.903388         2.72947        -3.78794
LJ         -0.386414         5.56394        -2.86932
LJ         -0.162498       -0.979822         3.27788
LJ          -4.67472       -0.957744       -0.917742
LJ          -4.00164         6.46164         -6.1495
LJ         -0.498289       -0.768278        -4.52126
LJ           1.40466         1.35354          1.4253
LJ          -3.95679        -4.54637         2.51046
LJ           6.41617        -3.30524        0.528359
LJ            2.0102        0.998097        -1.56205
LJ           6.00216         3.21801        -3.35351
LJ          -1.02954          1.5844        -2.38993
LJ         -0.054113        -2.72363        -1.76436
LJ           5.18278         4.07508        -5.94666
LJ          -5.42976         1.13766        -3.25034
LJ           4.48535        -4.08318        -5.55082
LJ          0.847513        -3.87384         4.82817
LJ           1.60437        -4.71353        -6.41851
LJ          0.262084        -1.83278       -0.932982
LJ          -5.30463         -2.2925        -2.13454
LJ          -3.93052        -6.31878        0.768156
LJ           1.98729        -5.57364       -0.452943
LJ          -3.73432        -4.57649         6.28603
LJ           3.82294        -5.46214        -2.57768
LJ          -4.57713        -6.03195        -3.06047
LJ           6.07845        -2.69699        -1.80614
LJ           6.01004         4.60933        -2.44387
LJ            5.1472       -0.512797         4.40582
LJ          -2.23591         6.38814        -4.50107
LJ           3.44308       -0.530225         6.27558
LJ          -4.09927        -4.33968         1.51883
LJ          -2.22021        -3.25975        -2.40462
LJ          -6.18891         5.00862        -5.50954
LJ           5.20324         5.60426         -4.1795
LJ           1.78466        0.446754        0.881534
LJ           4.03554         4.04191      -0.0341171
LJ           2.30384        -3.39605        -1.99539
LJ         -0.954772        -2.00657         5.46181
LJ          -5.11594         2.10111        -2.83598
LJ           -3.3866        -6.08128         -5.4465
LJ          -1.15505        -1.17134         2.60957
LJ           3.43911        -3.60672         4.87957
LJ           1.43107        0.695267         6.45616
LJ         0.0752179        -3.48264       -0.909124
LJ           1.66198        -2.27612         1.40266
LJ           2.15663         2.38455        -2.00675
LJ           2.25088         1.04188        -5.61596
LJ          -2.25697         3.07321          2.8208
LJ          -5.65347        -0.76463        -1.48814
LJ          -1.01663        -3.26468        -5.96423
LJ          -5.65241         -1.2064        -0.23009
LJ          -0.84096         4.55552       -0.356772
LJ            5.7425         5.55109       -0.252172
LJ           1.25182        -4.24637        0.961089
LJ          -4.18266        -2.89717        0.565219
LJ           2.21977       -0.675008        -5.97383
