108
#Comment!
LJ          -2.40641         3.05325        -6.25397
LJ          -5.46037        -4.39377        -2.87904
LJ           4.21033        -0.82354        -4.08813
LJ          0.851343         2.23473        0.657014
LJ          0.655166         6.14052         3.48913
LJ           3.71617        -4.19593        -0.79568
LJ           2.36524         3.70195       -0.393995
LJ           3.04671         4.19141         -5.5687
LJ           6.26702         5.60593       -0.872866
LJ           -1.6549        -2.79055        -3.75195
LJ         -0.958669        0.568132         5.12338
LJ         -0.273172         6.17511       -0.513671
LJ          0.448434         4.64994       -0.400519
LJ            4.9471        -3.20032         5.69237
LJ          -1.47857          5.4574        -5.81517
LJ           2.42912        -3.80072        -1.15057
LJ          -5.12875         4.92205        -1.07124
LJ          0.906906        -3.95049        -1.70284
LJ           -4.4367        -1.28541       0.0663614
LJ          -4.58647         -4.1978         5.27792
LJ          -1.04741         2.09938        0.925858
LJ         -0.869971        -3.78396        -4.17173
LJ           5.03987         3.16974        -3.93515
LJ          -3.43659         3.00828        -3.47973
LJ          0.764474       -0.321315         5.34728
LJ           2.73148         4.75578        -3.03581
LJ           5.30298         4.49879       -0.726949
LJ          0.715833       -0.884769         -1.7852
LJ          -2.91291        0.660071        -1.98913
LJ          -5.04448        -3.08495         5.05457
LJ           -4.0938         3.30486       -0.685256
LJ         -0.636728         3.22443       -0.940117
LJ          -3.80425         -4.2824        -1.50652
LJ          0.459633         4.03216        -2.91592
LJ           5.80718        -2.29326        0.623693
LJ             3.151         4.22328        -4.13732
LJ           4.64634       -0.910643        -6.34287
LJ         -0.504091         2.73916        -3.97777
LJ         0.0891752         5.96589         4.90864
LJ          -1.96806        -5.82196        -1.27404
LJ           3.99572         1.85509         4.18051
LJ           -2.5184        -1.63722        -5.35098
LJ          -2.54639        -1.84279        -1.72075
LJ          -4.94782         2.01991       -0.827406
LJ           5.04127        -1.51512        -5.30831
LJ          -3.76383         1.63315        0.107429
LJ           4.15181          3.9459        -5.31442
LJ           1.04935         3.69503      0.00454339
LJ           3.37352        -1.39242          1.8563
LJ          -4.96015        -1.17815          2.9727
LJ          0.726099       0.0422741          3.8092
LJ           4.07474         5.83604        -4.38493
LJ            4.2491        -5.00846         -4.2388
LJ           5.72095        -1.57456        -2.57153
LJ           4.84702         -1.7631        -3.89262
LJ           1.21817         6.40104        -2.29433
LJ          -2.75838         2.15871         2.21351
LJ         -0.555424      -0.0757611         3.53907
LJ          -1.50862         2.20726         3.01151
LJ           -3.9835          3.9518        -2.08723
LJ           2.38727       -0.662982         1.92369
LJ          -1.08471        -4.89572       -0.353028
LJ          -5.39217        -5.14018        -6.33938
LJ          -6.39378         2.46092        -1.59107
LJ           1.45329        -2.93304         1.53134
LJ          -3.43478        -4.75089        0.170251
LJ           1.58019        -4.42927       -0.174889
LJ           4.24576      -0.0308606         4.98232
LJ             5.067         1.59235        0.286723
LJ          0.474964        0.677341        -1.12765
LJ           3.67583         1.92151        -1.35351
LJ        -0.0343314         5.39641        0.205958
LJ          -5.64676         3.07208         2.44686
LJ           1.01855       -0.211998        0.477987
LJ          -6.09195        -3.84524         4.88803
LJ          -5.59432        -3.21271         6.13242
LJ          -3.62065         4.98213        -5.44491
LJ          -1.50786        -3.38425         4.24022
LJ           4.58004        -3.62294       -0.679257
LJ           3.93499        -4.42844         2.56646
LJ            5.3101        -4.02701        -5.87831
LJ          -2.58022         1.59883        -2.56581
LJ           -3.1268         1.26251        -3.45096
LJ          -6.31491        -2.89111         3.01415
LJ          -1.36509         6.29145        -3.45615
LJ          -2.65575        -3.72837        -4.82096
LJ            5.1493         -5.2681        -3.57815
LJ        -0.0872361        -6.13165        -2.68218
LJ           3.81207        -3.11191         5.45947
LJ          -3.83188       -0.101627        -1.28069
LJ         -0.142735         1.98681        -2.82715
LJ           1.59657         4.33832       -0.726449
LJ           2.36502      0.00983434        -2.92397
LJ          -5.29654        -1.17605         3.98322
LJ          -1.94229         4.69768        -1.84416
LJ          -5.71039        -2.13784        -2.97039
LJ          -6.09592        -1.84838         4.68164
LJ         -0.930228       -0.691765         1.59375
LJ         -0.199703        -1.07293        -5.48451
LJ          -2.53697        -1.92328          6.1251
LJ           1.11354         4.89763        -2.85516
LJ         -0.575071         1.08873       -0.475756
LJ          -3.35976          6.0158        -5.58734
LJ          -6.04821        0.616695         1.27886
LJ         -0.745327          4.5468        -3.40524
LJ           5.78205         1.18482         4.82609
LJ           6.25046         0.87283         2.55074
LJ          -5.59501         5.27107        -5.29243
