108
#Comment!
LJ          -1.09677         3.39552        -4.40499
LJ          0.434432        -2.30496         4.41955
LJ          0.196682         2.93832        0.131228
LJ           3.77211         5.50163        -4.08554
LJ          -5.75509        -1.79217        -2.62169
LJ           5.45881         1.39403        -5.02923
LJ           -5.0157        -3.29024          6.0858
LJ           1.34217        0.484716        0.753613
LJ          -2.88448       -0.628406         1.75112
LJ         -0.427183         1.15258         1.06014
LJ           4.06883         1.12971         -3.6161
LJ          -5.28325         2.28996         5.94509
LJ           4.71211       -0.862521         1.93224
LJ           3.84246        -4.04807        -6.38847
LJ           2.83859        -2.07861        -1.65982
LJ         -0.896598        -2.63411        -1.03159
LJ          0.993458        -3.84399         1.09714
LJ          -1.26964        -2.15045         3.70999
LJ          -3.78216        -5.37345          3.0404
LJ          -4.99865         2.36541         3.94273
LJ          -4.13126        -0.36026         3.07885
LJ          -5.79427          -1.971         1.20074
LJ          -4.66455       -0.820005         4.13082
LJ           1.20705         -1.2015        -2.94667
LJ         0.0176617         1.64908        -4.75854
LJ          -2.07858        0.520813        -3.86671
LJ          0.430683        -4.57247         3.42849
LJ         0.0381844        -6.37967        -3.15359
LJ         -0.430322        -1.39425        0.932554
LJ           3.42459         6.39583         0.55875
LJ          -1.14145        -4.79417        -5.54745
LJ           3.10857         6.19059         2.78262
LJ           5.42565        -3.59105          6.2238
LJ          0.549568         1.49048         1.81309
LJ           -3.4181         4.59554         2.35862
LJ          -3.73942         3.93937        0.136975
LJ          0.567262          4.8126        -3.51164
LJ           3.81457        -4.87924       0.0189192
LJ           2.56542         0.76641         2.43414
LJ           3.96294        -5.50997          3.1117
LJ           -1.5513        0.679185        0.939693
LJ           2.78427        -5.11312         3.72135
LJ           4.92991        -6.34201         -1.0183
LJ          0.646386       -0.228567        -6.27763
LJ           3.64107          2.4134        -4.14605
LJ           1.79985          4.1074         6.42704
LJ          0.289442        -5.57491         -4.2948
LJ         -0.485957         5.78482        -6.05637
LJ           5.79518          -6.371         3.99569
LJ          0.476303        -5.88179        -1.90033
LJ          -3.79759         6.23756         4.01754
LJ          -4.03284        -3.06748        -4.23388
LJ          -3.11523        -0.72344         5.50418
LJ            5.0511        -5.44499        -4.00395
LJ           4.40659        -0.67074      -0.0125381
LJ           6.31699         6.32774         2.12395
LJ           4.32404         2.95662         3.62803
LJ           1.17472        0.959142         6.15949
LJ          -2.23413         2.02503         3.68964
LJ          -1.53912         6.01007         3.77513
LJ          -2.07225        -1.50596        -5.28574
LJ           6.00197        0.185227         -5.3418
LJ           5.87958        -5.01689         3.38754
LJ         -0.170617        -5.23418        -2.96033
LJ           1.03565         3.20027         3.71242
LJ           2.22357       -0.715253        -3.66499
LJ         -0.762859        -2.26524        -4.69617
LJ          -3.10298         2.86503        -6.40897
LJ        -0.0641509        -2.90917       -0.481066
LJ         -0.585235         -4.4725         3.99149
LJ          0.903331         4.67302         1.73441
LJ           2.69436       -0.573907        -0.27335
LJ           4.44582         -6.3853         2.44778
LJ          -5.54294         2.43319        -3.14365
LJ           1.90688       -0.190571         2.61211
LJ           -2.4835        -6.14859        -4.43214
LJ         -0.808092        -0.50964          3.8783
LJ           1.19806         4.77185         -4.6979
LJ        -0.0151899         5.55494         -1.7637
LJ          -3.91432        -2.04968        -1.91054
LJ          -1.25826        -4.70493         3.22891
LJ           5.77154         4.59839         4.89865
LJ          -1.30693         5.05416        -5.91758
LJ          -3.96382         2.14373        -5.18765
LJ           5.04454        0.713887        -2.29102
LJ          -3.46844        -2.42302          1.6414
LJ           1.53933         4.46771        -3.53951
LJ          -1.20085       -0.918052        -4.73808
LJ          -1.07811        -5.04676        -4.02617
LJ            -2.871         2.28316         4.54284
LJ           4.96432        -4.60379         3.07729
LJ           1.08473        -1.19527         1.20693
LJ          -2.64349         1.05935         5.64229
LJ          -3.04851        -5.57235         -2.8245
LJ         -0.895028         3.10601          2.6608
LJ           2.35525         1.58443        -2.56196
LJ           1.00566         2.94324        -6.13715
LJ          -1.66948        -2.67591        -4.46597
LJ           5.86926         3.62795        -4.44329
LJ          -4.40527       -0.226622         -4.8385
LJ          -5.97849        0.285676         1.45884
LJ           4.76201         1.27958         4.10025
LJ           3.56621        -4.35104         3.37588
LJ           -4.4458         5.30819         2.05611
LJ          0.523876         1.03706        0.146627
LJ         -0.205615        -3.52131        -1.50631
LJ           6.22723         -6.2201        0.720385
LJ           0.43056       -0.671478         5.05853
