108
#Comment!
LJ          -2.66715         3.13243        -5.56261
LJ          -5.99289        -4.04738        -2.89027
LJ           4.30135       -0.515592        -3.21221
LJ           0.36378        0.971018        0.975057
LJ           1.28413         5.63596         3.19478
LJ           3.18876        -4.57106        -1.95283
LJ           2.87631         2.71417        0.287869
LJ           2.98644         3.75149        -5.83804
LJ            5.8319         5.72104         -2.0463
LJ         -0.926943        -3.68679         -3.7597
LJ           -1.1611        0.881136         4.48631
LJ          -1.06134          6.0139       -0.428927
LJ            1.0151         5.26659       -0.631943
LJ           4.73808        -4.15839          4.7546
LJ          -1.47166         4.75635        -5.85021
LJ           1.99739        -2.85891       -0.811836
LJ          -5.46077         4.13501        0.473999
LJ           1.64455        -3.05363        -2.08603
LJ          -4.03572       -0.555649         1.26263
LJ          -3.87074        -4.83063         5.93937
LJ         -0.547722         1.16182         1.41838
LJ          -2.11728        -4.21991        -4.80107
LJ           3.93468         2.95332        -4.36092
LJ          -3.57164         3.47279        -2.77509
LJ          0.795505        -1.57881          4.3723
LJ            2.3902         4.44291        -3.38375
LJ          -6.43399         4.45453        -2.04818
LJ            1.8507      -0.0641618         -1.1511
LJ          -2.89925        0.448116        -2.75203
LJ          -4.71618        -2.47002         4.78826
LJ          -3.70915          3.6568        0.182015
LJ          -2.45346         1.52893       -0.797789
LJ           -3.0439        -2.48742        -1.24141
LJ           1.14034         3.78018         -3.5088
LJ          -5.78246        -2.51382      0.00267881
LJ           2.02318         4.38734        -4.51069
LJ           3.97665        0.126107        -6.39974
LJ          -1.49064         2.58151        -3.75405
LJ          0.348498         5.09349         3.96222
LJ          -2.67721        -5.98077        -1.11821
LJ           4.04975         1.86932         4.22071
LJ          -1.71225         -2.2358        -5.81202
LJ          -2.56808        -2.05721        -2.12012
LJ          -5.41095         2.23651       -0.434239
LJ           4.42158        0.694371        -5.50855
LJ          -4.11112         1.66491       -0.236207
LJ           4.26818          3.8818        -6.31464
LJ           1.86388         2.92054         1.04152
LJ           3.53502        -2.21188         1.05299
LJ          -5.57178        -1.16996         2.21236
LJ          0.117574        0.428768         4.49271
LJ           3.23235         5.09919        -3.56152
LJ           3.52333        -4.34984        -3.82716
LJ           4.20342        -1.83857        -1.37689
LJ           5.16226        -1.10936         -3.7389
LJ          0.908046         6.38546        -2.57172
LJ          -2.61931          1.5375         2.13565
LJ          -1.08096       -0.804263         5.39939
LJ          -1.23839         3.63409          2.3246
LJ          -2.57706         3.12769         -2.0451
LJ           2.39466        -1.39447         1.25097
LJ          -1.16539        -4.32406        -1.04396
LJ          -5.35602        -4.96882        -5.96946
LJ           5.51483         3.51308       -0.974522
LJ           2.40761        -3.57825         2.42432
LJ          -4.23528        -5.01219        0.209911
LJ          0.864656        -4.27582         2.07554
LJ           3.10818        0.867058         4.80905
LJ           4.39973        0.786004         1.35662
LJ        -0.0958541        0.472126        -1.64093
LJ           3.97544         1.09104       -0.588202
LJ          0.277354         5.66013         0.31982
LJ          -4.10042         3.55065         2.92385
LJ           2.49591       -0.636012         0.53304
LJ          -5.52311         -3.5321         4.40329
LJ          -4.79449        -4.10445         5.86563
LJ          -4.03264          4.1501        -5.40273
LJ         -0.798172        -3.22655         4.40386
LJ           5.28465        -4.39308       -0.652896
LJ           4.39216        -3.18529         4.01392
LJ           5.12656        -3.04791        -6.20836
LJ          -3.67235         1.85206        -2.76273
LJ          -3.67474         1.74831        -4.16835
LJ          -5.93117        -1.77282         1.44386
LJ         -0.847578        -6.22123        -2.21163
LJ          -3.57836         -2.9095        -5.90506
LJ           4.01945        -5.49843         -3.4827
LJ         0.0780184        -5.90342        -2.75676
LJ           3.58058        -3.99123         5.16989
LJ          -2.38394       -0.174064       -0.702351
LJ         -0.540697         2.86524        -2.76886
LJ           1.47222         4.09782       -0.491431
LJ           1.79016        0.701572        -3.38381
LJ          -4.05469        -1.79659         3.82794
LJ          -2.48483         6.32394        -2.26448
LJ          -4.98393        -1.52428        -3.13827
LJ          -6.22535        -1.32489         3.95607
LJ         -0.874538        -2.29636        0.964636
LJ          -0.77073       -0.490278         -4.5065
LJ          -2.38726        -1.69368         6.13295
LJ           1.37946         5.45063        -3.50097
LJ         -0.846096        0.617024       -0.744251
LJ          -2.59073         4.95005        -6.30562
LJ          -5.53781         1.21956        0.954113
LJ         -0.586397         4.83405          -2.794
LJ           5.89797         1.39898         5.01256
LJ          -5.06998        0.783335         1.90852
LJ          -5.55199         5.48226        -4.44747
