108
#Comment!
LJ           1.50855         3.62397        -5.08428
LJ          0.556388        -2.59604        -4.96103
LJ           4.57195         2.63194       -0.385735
LJ          -6.32582         4.56517        -4.28413
LJ           3.40591        -2.69836        0.317116
LJ           4.94915       -0.153537        -4.64258
LJ          -4.11889         -3.0091         5.48785
LJ           1.47083        0.432749         4.78289
LJ          -4.20171         1.42347          5.4622
LJ          -1.44328        -1.55354        -3.29505
LJ           4.08219        -1.75511         -5.6877
LJ          -3.87951         2.88322        -6.28339
LJ           1.55232        -3.66052         2.32261
LJ           5.41824        -5.52831        -4.40341
LJ           2.77362         1.88656        -1.99199
LJ          -3.82648        -6.43331         -2.4325
LJ           3.14967        -3.45871          2.4077
LJ          -1.78572        0.976818        -6.36723
LJ          -2.96704        -4.58251         3.35429
LJ          -5.92105         2.30532         6.02195
LJ           -4.1448        -1.23254         4.39427
LJ          -6.30286        0.830403         1.39052
LJ          -4.45111         2.11494        -2.95465
LJ           4.66181        0.437089       -0.561761
LJ         -0.393309         1.90902         4.38388
LJ          -1.27837         2.31385        -5.91134
LJ           2.31099        -5.36046         3.19256
LJ           1.72056         3.62977        -3.82083
LJ          -1.41896        -1.11623         3.47973
LJ           1.24158          3.5505         1.05669
LJ          -1.76547         5.52893        -5.39039
LJ           2.28819         6.36497         3.30516
LJ           4.40879        -5.86596        -4.62444
LJ          0.348445         2.36993        0.610053
LJ          0.227758        -5.16823         5.54454
LJ          -4.73778         3.83908       -0.445043
LJ          -1.25115         3.02267        -4.53927
LJ           4.20188          6.2745        0.458415
LJ           2.60597       -0.490576         4.99543
LJ           6.08346        -6.40513         4.81615
LJ         -0.793905        -2.12284        -3.91179
LJ           6.37023        -3.86311         4.07365
LJ           6.27459        -5.82592        -1.43686
LJ           3.81897         1.01566         4.75863
LJ            3.6616      -0.0191072        -4.13903
LJ            2.6431         3.72406         3.21217
LJ          -3.56841         -5.9309         6.12245
LJ          -1.72983         6.31208         5.50177
LJ           4.81241         6.09472         4.36416
LJ          0.745605        -5.60911        -1.39228
LJ          -2.34467        -4.52576         5.19854
LJ          -5.32558        -4.32766        -6.44763
LJ         -0.642072       -0.704904        -5.24318
LJ          -4.06703        -5.20749        -4.94189
LJ           5.90728        -4.97915       -0.346829
LJ            -4.824        -6.16036         2.04315
LJ          0.927612         5.00383         3.77712
LJ           2.88096         1.73657         6.07445
LJ          -2.22605         4.57242         2.84314
LJ          -3.78885         3.26628         5.26265
LJ         0.0592809        -5.32898         -4.7369
LJ          -5.83978         3.14074        -4.86123
LJ            6.3752         -4.5403         1.28229
LJ          0.997125         6.20011        -1.43893
LJ         -0.617148          6.3582         5.98436
LJ           2.16789        -2.02563        -5.48872
LJ           3.62948        -0.80939         5.73602
LJ           5.92558         2.59105         5.64116
LJ            1.2211       -0.504685         -4.6029
LJ          -2.35618        -4.93892        -6.40345
LJ          -1.38478        -4.13018         3.36915
LJ           3.12074        -1.58829        0.125133
LJ           1.39453         5.66451         2.90865
LJ          -4.33063         2.77599        -1.69788
LJ         -0.770219         3.84687         3.35037
LJ          -1.52075        -6.30401        -5.15946
LJ          -3.47993       -0.986461       -0.910628
LJ           2.29614        -4.67154         5.25486
LJ          -2.37548         3.00403        -4.81653
LJ           -3.7175        -1.69389       -0.223475
LJ          -2.75517        -6.28081         5.33763
LJ           5.96632         5.53971         5.19054
LJ          -2.72453         5.76371        -6.38833
LJ          -2.69018         2.59954        -5.62886
LJ           4.26173        -2.62311         6.15707
LJ          -4.99101        -2.08153        0.594157
LJ           3.23475        -5.55127        -3.74883
LJ          -1.47704        0.269931        -3.19512
LJ          -2.55076        -3.29259        -4.46523
LJ          -1.83891         3.99441         1.72621
LJ           5.36144        -5.84824         2.11904
LJ           2.00114        -2.39491       0.0718178
LJ          -2.44165        -1.66147        -5.86173
LJ          -3.44489        -5.59409       -0.884381
LJ          -2.58453         3.05248         4.80899
LJ           1.27156          1.7253        -2.66997
LJ           1.25203         3.07144        -5.92028
LJ           -1.1441       -0.875857        -4.16374
LJ           4.01713         1.82636         6.07132
LJ          -3.44134       -0.852929        -2.35789
LJ            3.7218         1.49129          1.2619
LJ            4.5118         2.80268         2.43291
LJ            5.2156        -4.31047          2.9633
LJ           3.91392         -6.0902         6.03435
LJ           1.22691        -1.73425      -0.0572242
LJ         -0.980147        -1.62888         -5.0539
LJ           3.82142         5.10514       -0.832777
LJ           2.75167         0.90683         4.52084
