108
#Comment!
LJ          -4.17422         4.10153        -2.60438
LJ           5.14893        -2.92404        -2.92369
LJ           5.99521        0.096704        -2.15523
LJ          0.734181        -3.46413        0.854234
LJ           2.88229         4.20435         1.17666
LJ           1.07783        -5.16171        -2.72883
LJ           4.49237       0.0622023         1.93096
LJ           3.93416         3.37366         1.96586
LJ           4.97257         5.54031        -5.89894
LJ         -0.344949        -6.06985        -4.13119
LJ           -4.6478         2.42662          2.9811
LJ          -2.04496         5.43134        0.211517
LJ           1.54765         5.91085       -0.183989
LJ            3.1433        -5.82272         1.83001
LJ         -0.148862         1.10893        -4.70426
LJ           2.11693      -0.0620968        -2.74508
LJ          -6.32663         1.10476         5.37664
LJ           2.27366       -0.457061        0.979494
LJ          -1.78221        0.940519         5.20303
LJ         -0.223046         5.82281        -5.59968
LJ          -2.04034         -1.5514         3.48694
LJ          -5.78197        -5.03345         6.32667
LJ          0.886243         2.18315         5.89621
LJ          -2.97163         3.56437       -0.206432
LJ         -0.152328        -5.54992         2.47708
LJ          0.354693         4.18507        -6.10225
LJ          -3.22767         5.55108        -6.01033
LJ           6.00458         1.38744         3.07765
LJ          -2.83749         1.20781        -5.08017
LJ          -3.87264        -2.05542         4.43515
LJ          -2.89578         4.55175           2.906
LJ          -3.63572         -3.6944        0.685183
LJ          0.677387         3.34661         -0.2068
LJ          -1.51353         2.33408        -4.31632
LJ          -1.55277        -1.60816       -0.312629
LJ         0.0593905         4.93025        -4.07349
LJ           2.35594         4.84833        -5.03599
LJ          -4.37055         2.94118        -1.97922
LJ           1.30337         2.40857         1.25024
LJ          -4.02267        -6.27543        -3.05029
LJ           4.53917          4.1332         3.85243
LJ        -0.0867967        -2.96304         5.40707
LJ          -3.25733        -3.46266        -2.82814
LJ          -5.90498         3.14979        0.385097
LJ           2.73428         4.82604        -3.88866
LJ          -6.03406         1.93895        0.391929
LJ           3.25453         2.79128          3.1726
LJ           4.96884        0.183821         3.42113
LJ           3.80962        -3.95932          -2.712
LJ           4.70561         1.00049        0.845872
LJ          0.361145         -1.1106         6.38616
LJ           4.95908        -5.50888       -0.818469
LJ            2.7369        -2.52687        -4.22741
LJ           1.15897        -1.48582        -1.39905
LJ           5.23813        0.941315         -2.0683
LJ         -0.756852         6.32439        -2.50087
LJ          -2.09123        -1.09515         2.29323
LJ          -0.78235         -2.0772        -1.56097
LJ         -0.600334        -4.45472         0.21391
LJ           1.23092         2.25165         -4.5528
LJ           1.35576        -4.66981         3.42958
LJ          -2.27826        -2.15108        -3.51797
LJ            6.1673        -4.61635        -3.54214
LJ           2.25573        -5.46802        0.767065
LJ          -6.40606        -4.51586        -5.47236
LJ           6.36038        -5.56238        0.726245
LJ          -2.72551        -4.00453         -5.3901
LJ         -0.111785         2.95862         5.51397
LJ            2.0992        -1.87001         4.28911
LJ          -1.07767       -0.858099        -3.95847
LJ           4.21452        -1.29439         1.81888
LJ            1.4815        -5.92965        -1.39282
LJ           1.05006         5.05147          4.4205
LJ          -5.84419        -2.17808       -0.108606
LJ          -3.19447        -1.65432         5.37476
LJ          -1.17751         5.59935         6.37042
LJ          -4.08013          2.1864         5.71878
LJ           2.25409        -2.73671         3.32516
LJ          -5.74835         5.60534        -1.30722
LJ           5.00953        -2.58708         4.80778
LJ           4.69141         2.97741        -5.53017
LJ          -6.04598         2.81718        -4.55531
LJ          -5.18082          2.7173        -3.19647
LJ           4.05302       -0.843814        -2.17746
LJ           1.45892        -6.04716       0.0485111
LJ          -5.08097        -2.37256         1.78924
LJ         0.0734891        -6.13546        -5.23205
LJ          -1.06167         6.05557       -0.898733
LJ           4.13272        -5.59838         2.70542
LJ         -0.764108         -1.7291         1.49659
LJ          -3.25141         4.36264        -2.27616
LJ          0.554599         6.03879        0.145594
LJ          0.777476        0.314746        -4.92788
LJ          0.143471        -2.20757         1.99633
LJ          -4.07335        -1.77488        -2.19406
LJ          -2.34083        0.318992        -3.11117
LJ           4.97701         1.21964       -0.275843
LJ         -0.591167         4.72731       -0.493036
LJ          -3.76205         1.63811        -1.70756
LJ          -2.53095        -2.47069         5.82956
LJ           1.09637         4.20699        -4.21971
LJ         -0.542811         1.40875       -0.901248
LJ          -2.85632         1.23312         4.19914
LJ          -1.81845         1.89508       -0.458761
LJ           1.04211         6.36416        -2.19718
LJ           6.04635         2.14935         5.32086
LJ          -1.64727         2.42113        -1.55572
LJ          -5.14239         4.59387        -1.69944
