108
#Comment!
LJ          -2.04222         3.00022         5.69745
LJ          -4.62609        -4.95011        -2.75884
LJ           4.61211         -1.7718        -5.67688
LJ           1.76291         3.11306        0.978794
LJ         -0.214359         -5.9811          4.1055
LJ            2.9945        -4.06794        0.361468
LJ           1.95036         4.62591        -1.30944
LJ           3.81838         4.45588        -5.17306
LJ          -6.14881         5.17797        0.842357
LJ          -2.53439        -2.40512        -4.33642
LJ         -0.723755       -0.109386         5.91324
LJ           1.13442         -6.0749       -0.962142
LJ         -0.135744         5.50298       -0.254178
LJ           4.99818        -3.04179        -6.36246
LJ          -1.41863        -6.34952        -5.82354
LJ            4.2097        -5.01407        -1.62521
LJ          -4.73654         6.46203        -3.25007
LJ           0.17833        -4.83961         -0.8738
LJ          -4.99173        -2.25049        -1.77007
LJ          -3.72846         5.93963         5.14064
LJ          -1.57857         3.39878       0.0469213
LJ          0.446631        -2.40027        -2.85216
LJ           -6.4389         3.62058        -3.45419
LJ          -3.17003         2.13306        -4.11743
LJ          0.326208         1.68144         6.39532
LJ           3.49859         5.42342        -1.98947
LJ           3.86451         4.60802         1.18288
LJ          -1.01146        -1.84935        -2.64589
LJ          -3.31656        0.933067        -1.28109
LJ            -5.374        -1.38764         5.57251
LJ          -5.01875         2.65035        -2.40269
LJ           1.72798         3.11047        -2.08905
LJ          -4.92971         6.04924         -1.9859
LJ           -1.1194          4.3988        -2.09384
LJ           3.81738        -1.99619         1.51608
LJ            2.8828         3.48032        -3.23451
LJ           5.82929        -2.08576        -4.17503
LJ          0.800466         3.02226        -3.97168
LJ         -0.367514        -5.76474         6.13058
LJ         -0.950966        -5.78136        -0.97267
LJ           4.29989         2.16069         3.91119
LJ          -3.55194        -1.09077        -4.92831
LJ          -2.60156        -1.54181        -1.09795
LJ          -3.92214         1.83035        -1.16204
LJ           5.24135        -3.71936        -5.56058
LJ          -3.80024         1.84622      -0.0916584
LJ            4.7716         4.09055        -4.92581
LJ          0.273122         3.58926       -0.919774
LJ           2.99499       -0.122285         3.03171
LJ          -4.18334          -1.302         3.65766
LJ           2.31495       -0.833654         3.50639
LJ           6.08222         6.40015        -5.65618
LJ           5.44095        -4.47522        -4.52869
LJ           -5.1237        -1.18522        -4.63315
LJ           4.72815        -2.52723        -4.85025
LJ           1.06675         6.11509        -2.27336
LJ          -2.52445         3.02289          2.5111
LJ          0.641974         1.41493         2.72814
LJ          -2.19999       0.0529094         3.65843
LJ          -5.88262         4.20305        -2.01812
LJ           2.59471        0.690938         2.22522
LJ          -1.22748        -6.06474      -0.0567934
LJ           -6.2972        -5.45252         -6.3062
LJ          -4.31644         1.24038        -2.12016
LJ          0.521304        -1.51587         0.57094
LJ          -2.19635        -4.38665      -0.0643086
LJ           1.89483        -5.61363        -3.55695
LJ           5.29458        -1.16587         6.32878
LJ           6.05875         2.78242        -1.32664
LJ          0.893275        0.747171       0.0963788
LJ            3.3145          3.0821        -2.18784
LJ         -0.944209         6.04048        0.513428
LJ           4.99982         2.30259         1.74387
LJ          -1.04838        0.830399        0.185543
LJ           5.80664        -4.99896         6.29167
LJ          -6.08987        -2.44003         6.37829
LJ          -2.95608         6.25491        -5.48389
LJ          -2.55539        -3.59685         4.01965
LJ           4.25435        -1.93213       -0.624193
LJ           3.27411         -6.2279         0.49354
LJ           5.52923        -5.38352        -5.38952
LJ          -1.13398          1.2543        -2.09642
LJ          -2.38215        0.611547        -1.75872
LJ           6.29594        -3.61609         4.53715
LJ          -1.66049         5.51087        -4.83793
LJ          -1.03513        -4.53907        -3.09469
LJ          -6.30948        -4.98347        -3.96176
LJ         -0.396274         5.95623        -2.26728
LJ           4.21662        -2.00664         6.11387
LJ          -5.47542        0.362867        -2.38655
LJ          0.441585          1.0405        -2.96709
LJ          0.498483         5.83983        -1.06564
LJ           3.19131        -1.02754        -2.21727
LJ           5.52943       -0.228686         4.48117
LJ         -0.811849         2.46904        -1.35268
LJ           6.09573         -3.1063        -2.69737
LJ            5.9164        -1.44536         4.04862
LJ          -1.82673         1.31452        0.824526
LJ          0.590067        -1.91571         5.97953
LJ          -2.85487        -2.10185        -6.45668
LJ          0.399961         5.35248        -3.09946
LJ          0.141849         1.64953      -0.0389147
LJ          -4.63528        -5.40601        -4.63457
LJ           5.73205      -0.0638678         2.47884
LJ         -0.481153         3.96502        -3.89925
LJ           5.41901        0.888547         4.43877
LJ           4.31904        0.848482         2.83387
LJ          -5.54159         4.97917         6.39463
