108
#Comment!
LJ           3.15199         4.43463       0.0180745
LJ           5.89448      -0.0719275        -3.75109
LJ          -4.74622         5.50917         1.54786
LJ           3.03267         1.82921         6.42129
LJ           -3.5976         3.15458         4.36721
LJ          -6.08964        -1.68728         6.04318
LJ          -1.53881        -4.80994         5.79397
LJ         -0.487712         3.07722         5.86494
LJ          0.283278         3.78413         -5.9211
LJ            6.0555        -2.09802         6.45474
LJ         -0.610857         1.45537        0.517587
LJ          -1.85267         4.61337        -4.49798
LJ           5.29632         3.76552        0.961666
LJ           6.24829         4.46058        -3.62827
LJ        -0.0269166        -2.09325         5.18352
LJ          -6.37078         2.80835        -4.98538
LJ          -4.76573        -3.85432        -5.26232
LJ          -2.77333         4.76712         1.09405
LJ          -1.11435         3.27097         3.51245
LJ          -3.41394         -2.9726        -2.24273
LJ         -0.952969          5.8915         3.33806
LJ           6.09398           3.297        0.189761
LJ          0.479109       -0.328846        -2.52972
LJ           5.20041        -5.63317        -5.14286
LJ           -2.6608         5.53104         5.58023
LJ           2.49835        -1.50214        -2.26578
LJ            5.7212       -0.972964        -1.24907
LJ          -1.96134         3.05695         2.39052
LJ           2.51526        -4.42956         6.09835
LJ          -5.50812         1.06094        -5.57069
LJ          -2.07237        -5.80655          6.1667
LJ           4.22597         -3.2209        -3.39343
LJ           1.32409         3.12338       -0.902965
LJ          -1.49953         3.56589        -6.44534
LJ           2.53086         5.12338          6.3109
LJ          -5.01334       -0.779846         4.05689
LJ           2.49204         3.57006         2.49488
LJ            -3.223        0.832451         2.57679
LJ          -4.95873        -5.21737         5.59316
LJ          -2.17773         4.69857        -5.68698
LJ           3.32334        -1.69302         1.26746
LJ          -3.37623         2.01625         1.97377
LJ          -4.45788        -6.09124        -4.32873
LJ           2.93464       -0.344605         4.29613
LJ         -0.742762         3.02111          4.7263
LJ          -1.56646          3.0003        0.506077
LJ          -1.61758        -3.89747        0.185951
LJ           5.97856        -1.11453         3.18883
LJ           2.58721         6.15584         3.23575
LJ          -5.21288        -3.41055         4.69517
LJ          0.575206        -4.13117        -4.88029
LJ          -3.43702         4.38917         3.68598
LJ          -0.20078       -0.818246        -3.75527
LJ          -2.46182          1.6882         3.43967
LJ           3.65024         2.73591         2.55284
LJ           6.33637         4.15309        0.698082
LJ          -6.13755         6.41505        -1.59811
LJ          -1.13268        -2.00174        -5.14841
LJ           1.74232        0.939616         1.41436
LJ          0.285561        -5.33423          -5.654
LJ          -4.58809         2.69458        -0.59407
LJ         -0.296507        -4.74872          -2.874
LJ          -5.89307         5.72711        -3.42761
LJ          0.817225         4.26459        -1.51179
LJ           2.82267         5.03859        -2.43007
LJ          -4.38568       -0.806001         6.38902
LJ          -4.34151         5.45652        -4.62329
LJ           2.14528        -2.68413       0.0263234
LJ           2.11442         4.20055         5.64044
LJ           1.69009        0.936875         5.75093
LJ          -4.11128        -2.01831         -4.8239
LJ          -5.97867         2.96427        -3.58269
LJ          -5.03785        -4.91651        -3.58489
LJ         0.0603138        -5.52302        -1.94028
LJ          -4.54086        -5.35678         2.80742
LJ          -3.34408        -1.73034        0.904152
LJ           -6.2513        -4.06285        -2.96984
LJ           3.95301         5.68946        0.490091
LJ           3.53075         5.88168        -2.50019
LJ           5.61458       -0.220253         3.78137
LJ          -4.39949        -5.05968        -5.55312
LJ           3.85328        0.550987         1.83283
LJ         -0.977104        -3.79928         0.94895
LJ           4.36391       -0.529666         1.02935
LJ          -4.69182         4.62365        -5.40853
LJ           5.31306         5.80114        -0.45748
LJ           5.20769         1.38683        0.520636
LJ          -5.15493        -1.06903          2.6572
LJ         -0.713648        -2.02995        -2.72686
LJ         -0.574816        -5.37631        -6.21922
LJ           6.45642        0.891729         -1.4943
LJ         -0.291299         4.43596         5.94203
LJ          -3.25452        -1.36627        -2.02378
LJ           4.93281         3.89889        -5.95465
LJ            6.2271        -1.21847        -5.66616
LJ          -2.02385          4.7336         2.81392
LJ           1.71502         1.59818        0.397178
LJ          -5.90356         5.46112        -1.74036
LJ           3.74805         1.43606          1.0039
LJ          -4.31359         3.05474        0.739241
LJ          -5.92175         3.33422         -1.0453
LJ          -1.48749         6.30545         5.23082
LJ          -6.23135         2.50654        -1.97452
LJ           5.73861         -1.8615        -2.15651
LJ           3.53012         2.20506        -1.36957
LJ          -2.66124        0.334354         -1.6081
LJ          -1.64727        -4.70281         1.23857
LJ          0.168622        0.809646        -3.02261
