108
#Comment!
LJ          -4.08108         3.22412        -4.34515
LJ          0.436086         0.18645       -0.138106
LJ          -3.15948         2.19153          2.3853
LJ           1.57073          4.0518        -2.42472
LJ          -1.17003        -1.25918        -2.99711
LJ           5.16266         2.14508        -6.45093
LJ          -6.37432         -3.6919        -5.81405
LJ          0.109932       0.0194363        -2.45809
LJ          -1.63877        -2.13803        -2.79762
LJ          0.895571         1.04084          1.4434
LJ           2.54236         3.53274       -0.886979
LJ           -5.3992        0.681967         2.95578
LJ          -4.00721         2.49163        0.959406
LJ          0.582705       -0.762012          1.5301
LJ           1.47453         5.81873        -1.10905
LJ           3.21985        -1.68861        -2.11113
LJ           1.75615         4.22753         2.50201
LJ           1.73303        -1.50418        0.564542
LJ          -5.19171         4.97705         3.84126
LJ          -4.36035         3.29596         2.19415
LJ          -3.43348        -1.74767        0.601328
LJ          -4.44926         6.16144         1.33991
LJ          -2.05518        -1.47648         1.03798
LJ         0.0392177       0.0174377         4.83818
LJ          0.884321         1.83341         0.70279
LJ          -2.54503        -1.35652       -0.881547
LJ           3.95083         -5.4254         2.65998
LJ          -1.10603        -4.91082        0.073438
LJ           1.54417       -0.424579        0.763773
LJ           3.80389        -2.71628        0.552927
LJ          -0.72676        0.521574        -4.75423
LJ           6.27102        -3.75055         2.22298
LJ           5.81524        -1.51395         4.87677
LJ          0.241613        -3.61533         3.68172
LJ           6.02811      -0.0412409         -2.5104
LJ          -2.61523         2.92972         1.72025
LJ           2.09464           3.321        -1.80101
LJ           3.06538        -3.80912        0.651924
LJ         -0.926078          1.6369       -0.573927
LJ           3.44491        -6.06364         1.86823
LJ          0.804689        -6.37274        -5.40262
LJ           3.09962        -6.05548        0.896133
LJ           4.51133         5.58237         -1.4011
LJ         0.0589283        -2.92021        -5.96594
LJ           3.26623         4.49525        -2.52251
LJ          0.903687         5.21954        -2.77014
LJ          0.952406        -4.76462        -5.71375
LJ          0.242177           3.941        -5.04171
LJ          -3.59072         5.98808         3.53115
LJ          0.702138        -2.34492         6.08718
LJ          -4.77407         4.21352         1.99632
LJ          -2.51102        -2.46106        -4.05841
LJ           6.32065         1.48282         2.98692
LJ           1.16122         6.19433        -2.08427
LJ          -1.02382          3.6643        -1.44912
LJ           4.00065        -3.82589         1.68795
LJ          -2.54894        0.865848         3.93848
LJ          -1.17899        -3.74877         -5.7824
LJ          -3.72191         2.81853         5.05193
LJ           1.47072        -2.27984       -0.110976
LJ          -5.81473         1.02002        -3.26389
LJ           1.82264        -2.50135        -4.51606
LJ           1.81633        -3.61812         5.45813
LJ         -0.992748        -1.30481         1.02192
LJ           4.58998         3.99641         2.34819
LJ         -0.125963        -1.01104        -2.12405
LJ         -0.982863        0.202941        -2.30593
LJ        -0.0487772         1.44644        -3.21644
LJ          -4.30641        0.352943         4.66185
LJ           -3.2572      -0.0968171         1.92534
LJ           3.02786        -1.76097       -0.296598
LJ         -0.345512        0.359351        -1.59334
LJ           4.46349          -3.522        0.482946
LJ           5.67737         2.14647        -5.24088
LJ          -5.59334        -3.56375         1.27789
LJ          -3.92302        -4.13555        -4.74606
LJ          -2.60363         1.08438         5.52425
LJ         -0.311945        0.161175         6.36734
LJ           3.07935         1.09579         3.04103
LJ          -5.67998        -1.84403        -2.37928
LJ         0.0665886         6.23033         1.31772
LJ           5.77872         4.23979          4.2078
LJ           1.27988         4.94944        -4.89975
LJ          -4.13852          3.4128        -6.45588
LJ           4.60684        -6.19925         2.20257
LJ          0.146694          -2.804         2.72857
LJ           3.40341         2.24733        -2.11163
LJ          -3.21943        -4.79073         6.14284
LJ           2.83216          5.0222         -1.8182
LJ          -2.93125         3.72085         4.41341
LJ           2.00182        -5.81697         1.85149
LJ         -0.950539        -2.15797         3.46046
LJ          -2.81257        -1.22254        -4.61105
LJ          -4.29101         -2.7439         6.36508
LJ          -3.43809         5.45097       -0.577079
LJ           4.21812         1.73691         -1.7015
LJ           1.62044         4.91377        -3.59428
LJ            -4.838        -6.30513          -4.578
LJ          -3.14627        -6.28965         -2.3305
LJ          -5.38253        0.701503         4.68172
LJ          -2.80145       -0.635022        0.797219
LJ           5.23354       0.0567748          5.8946
LJ           2.51379        -6.02539         5.73546
LJ           1.17514         5.74409        -4.09631
LJ         -0.774389       -0.256112        0.740335
LJ          -2.49595        -2.69792       -0.764134
LJ          -5.18438         -6.3654         5.90353
LJ           3.00028        -5.19048        -2.65474
