108
#Comment!
LJ          -1.16685       -0.368819         2.19803
LJ          -1.42904         5.37579       -0.999695
LJ          -5.28417         5.91727         5.29856
LJ          0.924119         2.67293         -5.1365
LJ          -5.14412         4.95767        -5.33633
LJ          -1.81074          -2.499           5.301
LJ           5.77577         5.76297        -5.08901
LJ           2.78087        -1.75575        -5.03959
LJ          -3.34675         3.35798        -6.43812
LJ           6.35276        0.458721         6.27066
LJ           2.88566        -1.83296         4.67316
LJ          0.271682       -0.998916        -1.91487
LJ          -4.81046       -0.598045        -2.74035
LJ          -1.39567          5.8303        -5.93182
LJ          -6.43145        0.357336        -2.53724
LJ          -6.39354         4.81529        -3.11448
LJ           2.44619         -3.4606         2.43751
LJ          -5.28192        -4.72942        0.799944
LJ          -4.39185        -4.75075        0.336077
LJ           1.64856         -4.0578        -1.37124
LJ          -3.20057       -0.932266         3.78392
LJ          -2.90315         2.53579       -0.201674
LJ             -2.24         2.03557        -5.38703
LJ          -2.66886         2.73965         5.02329
LJ           -1.3364        -1.30668          2.0295
LJ           4.81182        -2.43098         3.63491
LJ          -1.74298         1.49371        -3.67462
LJ           3.38228        -2.21481         5.99151
LJ           4.77419        -2.16908        -2.23987
LJ           3.28278         4.25751         2.72488
LJ          -5.10449         4.00387         -6.4299
LJ           6.44743        0.735192        -5.09689
LJ           2.14569       0.0868501          2.1785
LJ          -1.34103        -0.31293        -3.22633
LJ          0.707517        0.670389         1.76817
LJ            6.1939        -5.41641       -0.174525
LJ          -2.54071         3.78918        -3.23206
LJ            5.4678        -4.43734          4.9583
LJ           6.33502        -2.18286         2.32301
LJ          -3.58344       -0.661397        -4.16201
LJ           4.95796       -0.197696        0.116655
LJ          -3.08096        0.850839       -0.153032
LJ          -2.28753        -1.87112         4.02832
LJ           5.88299         1.83306         5.87766
LJ           2.54194       -0.556439        -5.39382
LJ           3.83783        -5.89442         1.97919
LJ           5.74053         -1.9114        -3.60425
LJ           6.15406        -2.32438        -2.75357
LJ          -1.63561        -3.41036        -1.35225
LJ          -5.19556        -4.04247        -5.54081
LJ           5.73133        -1.43484        -2.00385
LJ         -0.612491         2.89213          2.3104
LJ          -2.63949       -0.868104         -4.8356
LJ           5.79783         2.59234        -4.18371
LJ           5.77002         3.98074         3.42516
LJ          -6.03279         6.25935         4.71222
LJ          -6.05808         -3.2594         5.46027
LJ          -1.92117        -5.52787        -3.20741
LJ          -2.38796        -1.52056        -1.53058
LJ         -0.288697         1.61714        -3.71233
LJ          -1.37277         3.95902        -5.35324
LJ          -1.97202          5.6304         2.26657
LJ           2.12501        -2.74628        -5.50861
LJ          -3.91987         4.98093          1.6589
LJ           0.92051         2.81114        -1.10923
LJ          0.789083         5.91644        -5.66818
LJ          -3.23732         4.31225       -0.327276
LJ          -1.19954        -1.68764        -2.97632
LJ           6.22372       -0.413402        -4.57385
LJ           5.92576         4.25221          5.2321
LJ          0.324252       -0.486096         4.18158
LJ          -5.91333         5.10028         4.34887
LJ           4.35714         5.46927        -5.72602
LJ          -6.11214         5.90002        -1.21677
LJ           -4.5193        -6.20967        -2.39418
LJ           6.18466           5.924         4.13356
LJ           6.17927        -3.31641        -2.10017
LJ          -1.20576         4.47615         3.55924
LJ          -5.76476         2.30239        -3.76986
LJ          -2.86545        0.835228         2.19987
LJ          -2.80759        -4.66526        -2.10341
LJ           5.42808        0.944562       -0.424658
LJ         -0.375563         -6.1251         1.71358
LJ          -3.57803         4.49589         6.37667
LJ          -2.50556         5.41924         5.86094
LJ           2.48571          4.9898         4.17816
LJ           4.50209         4.39073       -0.797022
LJ          -6.10722        -4.69957        0.140894
LJ          -1.16283       -0.967477        -4.98436
LJ          -1.45316         5.80712          3.7876
LJ           2.60651       -0.191494        -1.08066
LJ          -3.36581         0.94079        -3.80895
LJ          -5.78186        -3.62702        -6.39988
LJ           3.15124        0.538377        -3.80032
LJ          -5.59327        -4.21383         5.20467
LJ           4.62711        -5.04588        0.957352
LJ             2.668         4.97424         6.31028
LJ          -3.74593        -5.42079         1.16395
LJ          -2.47792         5.19313       -0.920407
LJ           4.48504        -4.06982         3.93291
LJ          -3.46324         4.71791        0.580434
LJ           6.10444        -5.57013         3.78316
LJ          -0.54972        0.119747         1.36888
LJ          -4.76278         2.84584        -5.02362
LJ          -2.25374         3.46349       -0.103221
LJ           5.81417        -3.82253        -4.54499
LJ           3.28734        0.668036         1.44725
LJ          -3.94594        -4.80074         -3.8842
