108
#Comment!
LJ          0.816622         6.21633         3.89535
LJ            -1.769         4.93687        -4.34751
LJ          -2.72493        0.628752        -1.94654
LJ          -6.27803        -3.23035        -2.38423
LJ           4.00449         3.43211         -5.7684
LJ           -2.7651       -0.250803         4.84544
LJ           -4.8602         4.97343           2.606
LJ           -5.6429         1.08305        0.449991
LJ         -0.522535        -2.60415         5.01623
LJ           1.41517       -0.867034      -0.0123176
LJ          0.288273        -3.41926        -3.67402
LJ          -6.17462        -2.42401         2.83437
LJ          -5.74584         3.07326         5.39308
LJ          -3.67644        -1.14586         6.37373
LJ          -3.86379         3.70679        -1.63208
LJ          0.576678        -1.65971        -3.46157
LJ           3.34409        -2.16054         4.11076
LJ           3.58129        -2.08019         5.95744
LJ           3.52719         -1.5149        0.741687
LJ           4.39828         2.77947         4.35102
LJ          -1.26446        -4.58607        -5.22831
LJ          -2.74273         5.77601        -3.80686
LJ          0.555519         -4.9168          3.8106
LJ            1.2862        -4.17513        -2.54712
LJ           0.35038         4.50738         4.55931
LJ          0.394241          -5.023         1.08131
LJ         -0.786736        -3.22047         4.11448
LJ          -1.90101         2.67842       -0.834396
LJ          0.500257        -2.83121        -4.56396
LJ           6.00455          5.4652         5.73606
LJ          -3.78204         1.46811         -1.5449
LJ           4.79867        -1.26514        -1.67727
LJ          0.431876        -1.78653          3.2595
LJ          0.542505        -4.81838        -5.49629
LJ           4.00816        0.822438        -6.01928
LJ           5.03055         2.69581        -6.32226
LJ         -0.111562        -4.25061        -4.25165
LJ           2.43078         1.85238         3.97607
LJ          -5.74286          2.5847         2.45394
LJ          -4.71029        -3.73807         -4.0819
LJ           4.32921        -4.67673          4.7803
LJ          -1.84042         5.89824         2.64808
LJ          -0.55703         3.73562         3.43915
LJ            3.8514        -1.50217         4.78749
LJ          -1.20704        -5.17294        -3.84616
LJ           2.51483         3.99125         5.24899
LJ           2.57777        -3.54118         6.20993
LJ           4.98698         2.80524         3.11164
LJ          -6.32428         5.07797        -3.32749
LJ          -2.84547         2.33382       0.0891735
LJ          -5.19279          1.3493         6.30734
LJ           2.13514        -5.25812        -6.45802
LJ          -2.84186         1.77452         3.31473
LJ          -2.50976         -2.8414        -3.90629
LJ          0.988373        -3.83309         6.26066
LJ           0.64381        -5.03669       -0.467794
LJ           1.74847        -5.89182         5.46861
LJ           6.06083        -1.07384        0.882129
LJ           4.85346         5.65424        -2.31966
LJ           5.84792        -5.27519         2.94624
LJ          -1.63711         5.35982       -0.611472
LJ           2.13687         1.74315         6.19409
LJ          0.893527         -4.4511        -4.53601
LJ          -5.95484        -3.58724         1.65849
LJ           2.40774        -5.82465         2.80221
LJ           1.50912        -3.66869         1.48328
LJ          -6.05038        -3.16924        -1.19514
LJ          -1.60297        -3.84169        -4.03218
LJ          -5.80139        0.125407        0.666267
LJ          -6.40085        -3.58727         2.73251
LJ           0.68201        -2.49609         5.07799
LJ          -5.04775        -2.31032         3.58491
LJ           3.14141         2.99407         -3.9212
LJ          -4.70198         4.44967       -0.879533
LJ           2.02261         -5.2882         0.37409
LJ          -5.23375        -5.31156          3.8239
LJ          -2.23877        -1.15007         3.64648
LJ          -2.03572        -1.04515         5.12161
LJ          -2.13967         2.58586        -2.17112
LJ           3.60546         2.07264        -3.43351
LJ          0.586905        -1.36037        -1.40559
LJ            3.4312         4.53491         5.28714
LJ           0.60988         1.09728        -1.04105
LJ           5.16621         -5.6681        -1.83019
LJ           5.30531         1.27029        -3.78111
LJ          0.938355         -6.0641        -4.27262
LJ          -4.82072        -5.90675        -2.94426
LJ           5.49877        0.601925        -5.49568
LJ          -1.62313         1.06003         3.38828
LJ           6.37836        -1.42091        -6.46049
LJ          -6.09093          0.7776         3.15462
LJ          -3.64888         4.42188       -0.915438
LJ         -0.366247        -3.16369        -6.00836
LJ           1.29119        -6.19011         2.22018
LJ          -5.47823         1.15604         2.43596
LJ           4.52379         3.24563         5.70503
LJ           1.98036        0.253665        -6.40616
LJ          -6.39754         5.47934        -6.30161
LJ            4.8309         3.76852         3.83902
LJ           -2.5661          0.8199         3.70594
LJ          -4.03003        -2.16183        -3.03807
LJ          -3.61715       -0.153912        -1.21651
LJ           3.72861         5.35947        -2.94179
LJ            4.4269        0.149169        0.681361
LJ         -0.192317        -3.20151        -2.06302
LJ           2.61816        -3.19824        -4.41581
LJ          -5.96221        -1.45186         2.74045
LJ           6.09485         1.87393         2.17609
