108
#Comment!
LJ          -2.36812         3.04678        -6.35758
LJ          -5.37781         -4.4448        -2.87642
LJ           4.20797       -0.877418        -4.23932
LJ          0.912904         2.43923        0.597943
LJ           0.56923         6.22602         3.53484
LJ            3.7086        -4.16346       -0.618584
LJ           2.38921         3.77621       -0.472136
LJ           3.13263         4.22503        -5.56314
LJ           6.32542         5.57204       -0.689637
LJ          -1.75732        -2.71415        -3.79756
LJ          -0.95577        0.496227         5.20493
LJ          -0.12805         6.19017       -0.519883
LJ          0.398107         4.53623       -0.361379
LJ           5.01574        -3.05783         5.85526
LJ          -1.46736         5.56098        -5.79873
LJ           2.49041        -3.97781        -1.20811
LJ          -5.07866         5.03491         -1.3134
LJ          0.827144        -4.08676        -1.61308
LJ          -4.49797        -1.39281       -0.121048
LJ          -4.48337        -4.49736         5.25663
LJ          -1.11203         2.24273         0.84279
LJ         -0.701474        -3.65494        -4.03639
LJ            5.2017         3.21182        -3.87922
LJ          -3.41231         2.92602        -3.55583
LJ          0.739473       -0.106501          5.4673
LJ           2.82028          4.8402        -2.91237
LJ           5.14113         4.50303       -0.523408
LJ          0.531661       -0.986589        -1.87546
LJ          -2.94773        0.672495        -1.84958
LJ          -5.19569        -2.80252         5.05977
LJ          -4.16847         3.23905       -0.840487
LJ         -0.349321         3.48045       -0.960007
LJ          -3.91524        -4.55523        -1.54544
LJ          0.251103         4.04474        -2.83907
LJ           5.60105        -2.25978        0.723199
LJ           3.26714         4.11274        -4.15061
LJ           4.77463        -1.08939         -6.2759
LJ          -0.36133         2.76187        -4.00955
LJ         0.0380263         6.09207         5.05371
LJ          -1.84014        -5.79505        -1.29375
LJ           4.01795         1.89607         4.15251
LJ          -2.63502        -1.56472        -5.28836
LJ          -2.54983        -1.81365        -1.65427
LJ          -4.84608         1.99513       -0.872631
LJ           5.09914        -1.83796        -5.29777
LJ          -3.73877         1.64496        0.139092
LJ           4.07143         3.96513        -5.13459
LJ          0.860779         3.74603      -0.0764687
LJ           3.39016        -1.29909         1.97349
LJ           -4.8559        -1.19337         3.01841
LJ          0.931718      -0.0195364          3.7218
LJ           4.26933          6.0325        -4.47322
LJ           4.35161        -5.11293        -4.31044
LJ            5.9539        -1.53701        -2.77833
LJ           4.80583        -1.85404        -3.92459
LJ           1.20771         6.39348        -2.28369
LJ          -2.75364         2.26017         2.23485
LJ          -0.53978       0.0397546         3.27912
LJ          -1.57221         1.97837         3.09939
LJ            -4.199         4.05644        -2.09908
LJ           2.33112       -0.512235         2.01844
LJ          -1.08293        -5.00113       -0.257955
LJ          -5.48016         -5.1828        -6.32938
LJ          -6.22555         2.30866        -1.68144
LJ           1.35433         -2.7858         1.43063
LJ          -3.30968         -4.7082        0.153938
LJ           1.65509        -4.48672       -0.580286
LJ           4.40237       -0.215972         5.03978
LJ           5.16997         1.71668        0.118685
LJ           0.53673        0.704026        -1.02825
LJ            3.6309         2.05028        -1.46676
LJ        -0.0915993         5.35588        0.152657
LJ          -5.88463          2.9963          2.3724
LJ          0.797545       -0.151358        0.477119
LJ          -6.21151        -3.92071         4.90783
LJ          -5.63035        -3.11154         6.17627
LJ          -3.54359         5.10335        -5.45839
LJ          -1.61748        -3.40727         4.21593
LJ           4.52135        -3.45899       -0.686366
LJ           3.86583        -4.62071         2.35159
LJ           5.33308         -4.1717        -5.84806
LJ          -2.40462         1.58414        -2.56768
LJ           -3.0421         1.19195        -3.29758
LJ          -6.36144         -3.0461         3.26387
LJ          -1.40083         6.23106        -3.62674
LJ          -2.49781        -3.84346        -4.65042
LJ           5.33265        -5.23129        -3.58542
LJ         -0.103354        -6.21518        -2.66249
LJ           3.82248        -2.97391         5.49845
LJ          -4.03356      -0.0679931        -1.39528
LJ        -0.0717711         1.86723        -2.82896
LJ           1.50707         4.53611       -0.859358
LJ           2.45212      -0.0987897        -2.84959
LJ          -5.54588        -1.08742         4.07972
LJ          -1.84724         4.45729         -1.7821
LJ          -5.83139        -2.23108        -2.94208
LJ          -6.13322        -1.82064         4.72034
LJ         -0.936799       -0.442854          1.6916
LJ          -0.11525        -1.16435        -5.63631
LJ          -2.56766        -1.94968         6.13734
LJ           1.07985         4.86334        -2.74248
LJ         -0.496569         1.15995       -0.447885
LJ           -3.5086         6.18628        -5.47769
LJ          -6.14322        0.530963         1.37631
LJ         -0.740805         4.49715        -3.48545
LJ           5.75455         1.14981         4.79468
LJ           6.02224        0.878984         2.59972
LJ           -5.5943          5.2372        -5.42378
