108
#Comment!
LJ           6.05857         4.13492        -3.87213
LJ           3.25151         -2.7401        -3.10703
LJ           6.10996         1.67764        -1.78387
LJ          -1.53731        -5.29843       -0.954388
LJ           2.87562           4.989        -2.84094
LJ           2.69416         -4.0599        -3.94173
LJ           6.39069        -1.96671         4.26966
LJ           5.13087         2.71124        -1.67878
LJ            5.9854        -2.86645         2.15521
LJ          -1.91665        -5.22332        -5.59419
LJ            5.6699          4.2719         1.94086
LJ          -3.26916         4.78654         2.67078
LJ            1.3297         6.29264        -0.37378
LJ            2.3661         6.37488       -0.289836
LJ          0.895556        -3.18803        -3.51876
LJ           2.90825         2.00359        -4.30186
LJ           5.29835       -0.546665        -3.40364
LJ            1.2009         1.06494         4.24297
LJ         -0.472202        0.648357        -6.33913
LJ           1.77974         2.76271        -5.09401
LJ           -4.4073        -2.37646         5.19443
LJ          -6.07922         5.97868         3.70645
LJ          -2.30538         2.35664         2.99925
LJ           -2.0178         3.75017         1.30582
LJ         -0.839649         4.39422         1.51612
LJ          0.763226         3.31481         5.71121
LJ         -0.300284        -6.12203         4.07567
LJ          -5.37652        0.750188        -5.56353
LJ          -2.10689          2.2205          5.4517
LJ          -1.55744        0.233857         3.85105
LJ          -2.15828         5.31357         5.18379
LJ          -2.11239          4.8025         2.11344
LJ            3.1027        -6.30489        -1.29901
LJ          -3.08809         1.24418        -4.19114
LJ            2.0404        0.255541       0.0195823
LJ            -1.269         5.19838        -4.83948
LJ           1.30477        -5.66127        -1.71061
LJ           5.86989         3.88209        0.438267
LJ           2.10342        0.666693        -1.69126
LJ          -5.06042        -6.40685        -4.84147
LJ           3.62803         5.91739         4.00658
LJ         -0.580392         -2.8985         3.91935
LJ          -4.14036        -4.79436        -2.19626
LJ          -6.01367         3.25155         1.37828
LJ           3.43125        -5.90345        -3.96285
LJ           5.70235         2.95623        0.816163
LJ           2.97413          1.8816         1.69159
LJ          -5.39052        -1.49729         3.64022
LJ              4.64        -4.70027        -6.03387
LJ           2.81347         4.05054       -0.534261
LJ         -0.133212        -2.17418        -4.59604
LJ          -6.27866        -3.89464         2.12725
LJ           2.18498       -0.927218        -4.84756
LJ         0.0362542       -0.204779        -2.98331
LJ          -6.30482        0.606105        -1.46657
LJ          -2.19713         6.25463       -0.374045
LJ          -1.92985        -3.66848         3.18735
LJ          0.373828        -0.44619         1.26738
LJ          0.564138        -5.00707         1.70072
LJ           3.45922         2.84239         6.35178
LJ         -0.038723         5.98618         6.36012
LJ          -3.90266        0.721012        -5.01789
LJ           5.52523        -4.08465        -2.05935
LJ           1.59604        -5.32284         1.64587
LJ          -6.06788        -4.50625        0.555893
LJ           4.50351        -5.16071         1.69978
LJ          -5.12737        -2.50889        -1.05263
LJ           1.64841         3.83014        -5.76906
LJ           1.73904        -5.53029         5.32017
LJ          -2.34093        -2.07695        -5.44751
LJ           6.38241        -1.84728         2.94122
LJ           1.32917        -4.74761       -0.469494
LJ           5.53841         6.17736         4.84483
LJ          -2.40468        -3.33099        -4.03186
LJ          -3.15433         -2.2476         4.69989
LJ         -0.731371         5.19141        -5.82873
LJ          -4.04145        0.867601         3.31712
LJ           3.34622        -2.16918         2.95879
LJ          -5.11515         4.57298        -2.68989
LJ           5.32113        -2.75284         3.76566
LJ          0.602794        -6.40082         5.77817
LJ            6.4436         3.92754        -4.98999
LJ          -5.60336         2.93554        -2.00236
LJ          0.621053         -1.9513         1.66746
LJ           1.64112        -4.77605        0.539107
LJ          -5.28303        -3.68583        0.332203
LJ          -3.63791        -5.81611        -5.11575
LJ          -1.43135         1.94478        -1.78677
LJ           5.15879        -5.67359       -0.377131
LJ         -0.243273        -2.58957         2.21232
LJ          -4.79036         4.97091       -0.421078
LJ           1.33355         -3.7401        -0.14853
LJ         -0.738599        -1.93389        -5.74289
LJ           4.33463        -2.74207         1.12859
LJ          -4.97847        0.909781         -3.9597
LJ         0.0864259         1.83449        -2.64197
LJ           3.39031         2.39883        -2.72892
LJ         -0.653919        0.210414        -1.57882
LJ          -6.34277         2.49309        0.563219
LJ          -2.56602        -2.95211         5.92279
LJ         0.0397662         1.61384        -4.21012
LJ           1.38483         2.03245         0.22345
LJ           -2.8616        -2.36432         3.34295
LJ          0.129061         4.45921        -3.28034
LJ           2.20636         -4.5773        -1.10265
LJ          -5.61244         1.11906         5.02741
LJ         -0.598484         3.88795        -1.81423
LJ          -5.66715         1.97796         1.32312
