108
#Comment!
LJ          -1.47693        0.273856         2.71349
LJ          -1.70478          5.9826       -0.770958
LJ          -4.62435         6.20628         5.07231
LJ           1.98447         2.94153        -4.67842
LJ          -5.78407         5.07334        -4.68164
LJ          -1.74661        -2.32229         5.04118
LJ           5.40168         6.04206        -5.00947
LJ            2.9766         -2.2026         -5.0556
LJ          -3.47129         3.15272          6.1597
LJ          -6.39825         0.93692         6.36438
LJ            3.1998        -2.08328           5.127
LJ          0.347414        -1.33372        -1.94426
LJ          -4.88634       -0.785732        -3.06714
LJ         -0.618888         6.03135        -6.08189
LJ          -5.83068      -0.0426621        -2.12158
LJ          -6.18182         5.14621        -2.28839
LJ           2.20211        -3.53152         1.85902
LJ          -5.65017        -4.85359         1.19144
LJ          -4.53748        -5.73538        0.193844
LJ            2.0987        -4.75926         -1.3011
LJ          -2.77503       -0.813057          3.9996
LJ          -2.21336         2.15323       -0.573112
LJ          -2.33178         1.55666        -5.64236
LJ          -2.48422         2.35716          4.9646
LJ          -1.40119        -1.61353         1.53956
LJ           4.86582         -2.5504         3.05621
LJ          -1.18846         1.67289         -2.5533
LJ           3.74549        -2.51302        -6.34969
LJ           4.40513         -2.1936        -1.70939
LJ           2.99121         4.61355         3.13317
LJ          -5.02381         3.56164        -6.01061
LJ           6.19046        0.832864         -5.3033
LJ           2.23081       -0.398255          2.0923
LJ           -1.6873       -0.984476        -3.08234
LJ            1.7774        0.466989         1.74383
LJ           5.05781        -5.79762       -0.548286
LJ           -2.9448         4.29671        -3.58553
LJ            5.4602        -3.80567         5.13205
LJ           5.84464        -2.23551         1.95943
LJ          -3.67117       -0.713375        -3.90866
LJ           4.82677        0.294053        0.331121
LJ          -3.16884        0.620315       -0.481625
LJ           -1.9786        -1.61938         3.36262
LJ           6.22758         1.94139         6.13503
LJ           2.87571        -1.14659        -5.05274
LJ           3.59459        -5.90447        0.688584
LJ           4.84384        -1.79725        -3.61197
LJ          -6.10223        -2.53894        -2.83859
LJ          -1.68604        -1.82671        -1.22731
LJ          -4.70287        -3.57527        -5.41589
LJ           5.19881         -0.9906        -2.23871
LJ         -0.530689         2.56512         2.25634
LJ           -2.9899        -0.73095        -4.78547
LJ              5.83         1.85558        -4.08669
LJ           5.49861         4.35794         3.41155
LJ          -5.73851        -5.88663         4.82825
LJ          -5.98395        -2.67905         5.15313
LJ          -2.14981        -5.79264        -3.81013
LJ          -2.75595        -1.90172        -2.17476
LJ        -0.0452715         1.05581        -4.04079
LJ         -0.934523          4.0787        -5.82741
LJ          -1.68014         5.23584          2.5999
LJ           1.55674        -1.95156        -4.43092
LJ          -3.35975         5.33302          1.8249
LJ         0.0366761         2.77507       -0.643082
LJ           1.20212         5.32886        -5.55221
LJ          -3.48055         4.21206        -0.68329
LJ         -0.730832        -1.69422         -3.6044
LJ          -5.91141       -0.612234        -4.31841
LJ           5.38067         5.23795         4.93715
LJ         -0.488871       -0.640482         3.79726
LJ          -5.19093         4.92023           3.912
LJ           4.16424         4.77919        -5.65378
LJ          -6.42953         6.14983        -1.11965
LJ          -4.40264         6.42372         -3.2798
LJ           5.13443         5.63221         3.47422
LJ           6.36699         -3.7314        -2.10874
LJ           -1.7507         4.83382         3.84484
LJ          -5.14003         2.50734         -3.9347
LJ          -2.50634        0.936378         2.09673
LJ          -2.66471        -5.40969         -1.6592
LJ           5.71634        0.955939       -0.309479
LJ          -0.44809        -6.35273         1.72233
LJ          -2.73364         4.58941         -6.0465
LJ          -2.61293         5.12758         5.92517
LJ           2.55021         5.10444         4.57881
LJ           4.30795         4.64129       -0.880319
LJ          -6.26803        -5.03801      -0.0963927
LJ          -0.99262       -0.916715        -5.09726
LJ         -0.750511         5.71877         3.88341
LJ           2.28589       -0.281297        -1.36256
LJ          -3.55363        0.711396        -3.62435
LJ          -6.21851        -3.72073         6.31539
LJ           2.74021         1.26069         -3.7006
LJ          -6.15028        -3.89139         5.27811
LJ           4.27761        -5.19629         0.40479
LJ           2.75119         5.27042        -6.07598
LJ          -3.38808        -5.38708        0.662902
LJ          -3.03627          5.0696        -1.06233
LJ           3.61644         -3.0362         4.11342
LJ          -3.36053         4.40352         1.00842
LJ           6.19051        -5.25867         4.11341
LJ         -0.881567       -0.777484         1.47182
LJ          -3.74737         2.21019        -4.86084
LJ          -2.59541         3.85826        0.334818
LJ           5.38543        -2.92648        -4.67373
LJ           3.48819         1.26343         1.76174
LJ          -4.19674        -4.83344        -4.17672
