108
#Comment!
LJ          -1.74682         2.18667          3.3535
LJ          -1.36584         6.20718         5.77534
LJ         -0.967188        -3.59045         4.89244
LJ          -5.28359         5.02263       -0.906097
LJ           2.09744         6.08656        0.470612
LJ        -0.0777331        -3.99713         3.56748
LJ           3.25341         6.22968        -4.98113
LJ           3.99243         -5.4905        -4.08741
LJ            -3.462         2.32376         4.27406
LJ          -6.09528         2.23139        -3.73835
LJ           1.34179        -2.80952        -3.99404
LJ           1.17532        -3.12806        -3.02334
LJ          -3.46785        -3.32227        -1.43376
LJ           4.33058        -4.90825         6.25211
LJ          -2.39805        -3.18254        -3.39605
LJ          -4.85657         2.59562        -3.83585
LJ          0.604815        -3.78446        -2.56134
LJ            4.3006        -6.12719         1.00223
LJ          -4.58533         1.13967        -1.87343
LJ           1.32078        -3.40095        -6.04598
LJ         -0.961281         2.92446         1.38811
LJ          0.897931         1.39591         2.26166
LJ          -3.67062       -0.471093         -4.1913
LJ           -1.8362       -0.158581         6.30389
LJ          -4.18636         5.63942        -1.19593
LJ           4.80993        -5.12227         1.73707
LJ          -5.86738         2.96847         2.81908
LJ           6.24757        -4.84266         6.12654
LJ            2.5183         -1.5725         1.50062
LJ           2.92718          5.5754        -6.02448
LJ          -6.43805         1.01017        -4.04295
LJ          -5.25565         1.80158        -4.54358
LJ           4.34768        -3.86743        0.238012
LJ          -3.85971        -2.99751         -3.3584
LJ          -4.81742        -1.39406         3.15401
LJ           2.05086         6.07107        -4.32018
LJ          -4.66274        -5.97638         6.30496
LJ           3.74077        0.125709        -5.15021
LJ           1.30194         -2.1668        -1.87996
LJ          -2.95802        -2.80937        -2.56627
LJ           3.99139         4.46481        0.621823
LJ          -2.70426       -0.476014        -3.85056
LJ          -2.07488       -0.143463        0.804729
LJ          -4.49591         3.94367        -4.38729
LJ           3.09206        -3.36829         6.10183
LJ           0.11371         2.29986        -1.80349
LJ           5.45845         6.44609        -3.82871
LJ          -2.64755        -5.37972        -2.85696
LJ          -3.14243         3.07243        -4.12017
LJ          -2.65091         -1.5684       -0.937079
LJ           2.87952         4.47708         1.65476
LJ          -1.03464         1.30826         4.26949
LJ          -2.83395       -0.355933        -4.99969
LJ          -6.38551        -1.75326         -5.4997
LJ           4.05525        -6.08464         4.17684
LJ         -0.553026        -5.05087         5.44944
LJ          -4.60913         2.58245         5.19968
LJ          -5.81383         4.63788         5.90258
LJ          -4.60709        -3.81887        -6.38288
LJ           2.98563        -2.92125        -5.17047
LJ           1.81545         5.80082        -6.20402
LJ           -3.1434         4.47819         1.26584
LJ          -3.17822         3.84218         2.46274
LJ           1.48212         3.73593        0.620631
LJ           6.16777        0.294305       -0.461021
LJ            3.1156         5.96472        -2.79456
LJ           4.94893         3.47954      -0.0117209
LJ           -3.3053       -0.721123         3.97513
LJ          -3.92149        -1.53078        -6.20282
LJ           1.27213        -1.12591          2.2175
LJ          0.272193         2.25373         1.73551
LJ          -1.91584         5.44597          3.7624
LJ           1.31506         1.66827        -3.49954
LJ          0.187216         5.13447         5.47278
LJ          -2.30086         5.98919         2.17872
LJ           6.10893         1.76333         2.41828
LJ          -3.31026        -4.03487        -3.30574
LJ          -4.59259        -3.71519         3.57685
LJ         -0.124867         3.04791          -3.346
LJ          -1.00343         1.26406         3.03153
LJ          -3.42222         6.33149        -3.18553
LJ          -4.69343          1.4482       -0.139469
LJ          -1.74575         3.75989        0.651438
LJ           3.71966         5.99742         5.59172
LJ          -3.10096         2.63897          5.4313
LJ           4.94232         6.02245         4.86144
LJ           3.05652        -5.60788        -3.08961
LJ            -3.907        0.689157         2.38482
LJ           1.00407        -5.18001        -5.27374
LJ           2.93177         3.80894         -4.4676
LJ           1.58295        -1.29777        -2.53563
LJ          -3.49324        -2.03888        -1.56557
LJ          -6.02408        -3.18566         3.68165
LJ           1.97977         -5.5029        -4.13792
LJ            4.7123         -1.7256          3.7738
LJ           4.40847        -6.32785        -3.24468
LJ           3.47829         2.95883        -2.46384
LJ          -3.76573         5.22751        -3.63929
LJ           5.40697        -6.19555       0.0902882
LJ          -1.93549          5.2538        -5.47712
LJ          -2.15694        -6.12017         5.04776
LJ           3.65488       -0.926134         2.98215
LJ          -3.91191        -2.39252         3.72397
LJ           1.90619      -0.0300607         5.87164
LJ          -2.51567         4.02668         4.28401
LJ            2.9824        0.168932         5.38848
LJ            4.2731         4.58163         4.01772
LJ          -5.96207        -5.82833         6.39278
