108
#Comment!
LJ           2.90239         3.09848        0.440362
LJ            3.2953         1.38064         -2.7267
LJ          -4.71964         5.43236        -2.86873
LJ           5.94104          1.3806        -6.24308
LJ          -4.44098         2.93714         4.13573
LJ          -5.34682        -1.91504         6.16139
LJ          -2.47734        -4.91831        -4.94054
LJ          0.329878         2.50875        -6.18829
LJ         -0.622688         3.84509        -5.25498
LJ           4.88588        -1.53497         -6.0535
LJ          0.162094        0.450103         1.67723
LJ          -1.19389         2.46762        -3.05247
LJ          -6.30268         1.81373        0.690706
LJ          -4.99615         4.13518        -4.01086
LJ           1.82762       -0.948568        -6.12251
LJ          -2.50498          3.5286        -6.24365
LJ           5.84029        -3.14452        -5.86878
LJ          -3.65251         1.43859        0.514293
LJ         -0.568195         1.11222         1.95092
LJ          -2.09035        -1.78468        -1.43867
LJ          -2.13836        -4.76661         3.16623
LJ          -5.03996         4.32905        0.588856
LJ          -0.64746        0.164202        -3.73869
LJ          -5.53521        -6.02756        -4.73313
LJ          -2.52892        -5.77728         4.47327
LJ           3.31656        -1.90534        -4.33497
LJ           6.12736        0.491219         1.71431
LJ          0.203265         1.78407         1.90995
LJ            3.3849        -3.65205         -6.1064
LJ           5.82896         1.74364        -3.01647
LJ          -2.78702         4.68483         4.97881
LJ           5.14532        -2.11855        -3.89075
LJ          0.935632         2.32708          1.1155
LJ          -0.50851         2.72159        -5.71236
LJ           1.05246         3.24583         5.57363
LJ          -5.10109        -2.65061         3.16089
LJ           6.32581         2.91041        0.273422
LJ          -3.76179         3.60251         3.18796
LJ          -4.92645        -3.61329         4.25262
LJ          -2.67055         2.62399        -5.05751
LJ            4.0495        -1.32966        0.414733
LJ          -4.17794         2.47023         2.96416
LJ          -4.06495        -3.33569        -5.47433
LJ           3.78275          0.3526         4.63013
LJ           0.43148         2.31685          5.4811
LJ          0.557393          4.4251        -2.73789
LJ          -3.00086        -3.17517         2.56348
LJ          -5.98479       -0.494592         1.41893
LJ          0.165542         5.16386         3.33068
LJ          -5.40883        -4.17109         6.05804
LJ          -2.00362        -3.34979        -3.16283
LJ           -2.3066         4.22211         2.60814
LJ         -0.949507         -2.1217        -4.24387
LJ          -5.17727         1.94167         5.56377
LJ           5.21089         2.94995         2.85261
LJ           5.87533         4.87931         3.03996
LJ           6.27839        -4.99907        -4.43251
LJ           -1.5855        -2.82253        -4.85489
LJ           0.95469        0.137292        0.828996
LJ        -0.0872973         5.86143        -4.62124
LJ          -4.88658         4.44245        -2.30299
LJ          -2.05819        -4.65638         -3.6794
LJ           5.86288        -6.17237        -1.34029
LJ           3.25446         4.66482       -0.783016
LJ           3.78633         3.88839        -2.84564
LJ          -2.61039        -2.54604         6.38858
LJ          -4.03942         2.62548        -2.01171
LJ          -1.19829        -1.37507         2.51344
LJ           3.37197         2.75993         6.30953
LJ          -1.47579        -1.04818         3.91731
LJ           6.35062        -1.96585        -5.92972
LJ          -6.20852         3.82104        -3.84315
LJ          -5.27608        -3.62665        -5.32554
LJ          -1.94366        -6.18772         -1.0274
LJ          -4.54788         -5.5385         1.36871
LJ           -1.3154       -0.362048         2.35833
LJ           6.17417        -3.94641        -2.43252
LJ           3.47311         5.32043         1.82597
LJ           3.88752         4.91076        -3.40709
LJ          -5.98254        0.647416         3.14094
LJ           -4.4972          -4.498        -5.22737
LJ           3.76401      -0.0917356        0.278117
LJ         -0.120077         -4.6616         1.68237
LJ           6.39397         1.36731         2.62473
LJ          -3.80331         5.21923        -5.38087
LJ           3.51652         4.04313        0.760039
LJ           5.18027         1.98583      0.00160066
LJ          -4.17213       -0.167823         2.75816
LJ         -0.643267        -1.30306        -3.62313
LJ          -1.19629        -6.16995         5.95922
LJ           5.44876         1.12464       -0.479733
LJ         -0.338567         4.09745         4.86561
LJ          -3.16388        -3.43291        -3.32479
LJ           4.76252        -6.20905        -5.14034
LJ          -4.61867        -2.96312         6.24215
LJ          -4.24697         6.09461         2.81442
LJ           2.04961         2.36263         1.65048
LJ          -5.12402         5.57983        -4.08523
LJ          0.782268         3.38326         1.85549
LJ          -4.74208         4.83668         1.91748
LJ          -6.14149         3.52603       -0.481173
LJ          -2.56603         2.36446         3.48732
LJ          -4.67119         3.38227         -2.6129
LJ            6.3227       -0.187068        -3.44812
LJ           1.89965         1.86637        -1.62551
LJ           -4.2717         1.95314        -2.78687
LJ         -0.479629        -3.26359        0.677594
LJ         -0.687232       -0.972567        -2.08644
