108
#Comment!
LJ          -1.78571         3.03182          4.1653
LJ          -3.42333        -6.42492        -3.48732
LJ           4.50038        -3.02777         5.79711
LJ           3.55806         4.12117         1.40205
LJ          -1.48786        -4.72436         4.44842
LJ           1.62944        -3.99449         1.61622
LJ           1.47638         5.38849        -2.59638
LJ           5.38543         4.78316        -4.14997
LJ           -5.3582         4.43258          3.6547
LJ           -4.1201       -0.549718        -4.49293
LJ        -0.0514602        -1.14509        -5.66986
LJ           1.75771        -4.42497        -2.17243
LJ          -1.83031        -6.28179       -0.771404
LJ           4.70608        -4.40263         5.33417
LJ           -1.4268        -4.15023        -6.30881
LJ          -5.54473         5.92335        -2.12342
LJ          -3.09391        -5.61134        -4.10595
LJ           2.34454        -4.96801       -0.230153
LJ          -5.78228        -3.10757        -4.14774
LJ          -2.07074         1.32424         4.93886
LJ          -1.84578         4.46091        -0.49003
LJ           1.85349        0.297365       -0.393037
LJ          -4.14616         1.01526        -4.77757
LJ          -2.75911        0.584587        -4.95626
LJ          -0.72095         4.77898        -4.51166
LJ           4.36498         6.31266       -0.190082
LJ           1.46524         4.43899         4.02614
LJ          -3.59073        -3.61449        -4.30536
LJ          -0.90334       -0.320914        0.331268
LJ           6.24425         1.11082         6.09713
LJ           6.24683         2.01694        -4.12989
LJ           5.96447         1.41984        -2.88445
LJ           6.26646         5.64275        -1.38202
LJ          -2.09115        -6.33424        -1.87527
LJ          0.561082        -1.50968         2.98756
LJ           2.77493         5.15597        -4.04418
LJ          -6.36215        -3.51555        0.907777
LJ           1.65709         2.34017        -3.82965
LJ         -0.919669        -3.78606        -5.41427
LJ           -1.6699        -4.59188        -1.90136
LJ           3.68859         2.88859          2.1474
LJ          -2.25886        -1.45277        -4.06597
LJ          -2.55511       -0.446203       -0.194325
LJ          -3.70532         2.74547        -2.22778
LJ           5.17414        -4.82737         6.32524
LJ          -3.10329         2.27079         -1.2885
LJ           6.17269         4.43941        -4.81223
LJ          -1.04481         4.04976        -2.88257
LJ          0.786191         2.05927         4.62368
LJ          -3.81171        -1.42394         3.84937
LJ           3.15275          -3.483         3.81341
LJ          -4.76393         4.03273         5.97837
LJ          -5.18371        -3.05331        -6.05187
LJ          -4.52046        -1.73746         6.13403
LJ           4.86814        -3.74686        -6.35969
LJ         -0.410615         6.26579        -4.85639
LJ          -2.10361         4.17147         3.11235
LJ           3.63522         3.48345         3.46274
LJ          -2.11006        -3.60303         4.40189
LJ           5.19389         6.17459        -3.54062
LJ           2.25633         2.68364         3.76326
LJ          -2.43413         6.06662        0.782874
LJ          -5.93717        -4.48811        -5.82868
LJ         -0.738773         2.02738        -1.52285
LJ          0.668435       0.0415095       -0.423619
LJ         0.0844237        -4.67507       -0.759052
LJ           2.31155         4.89775         4.41119
LJ          -5.95623       -0.855526        -2.36737
LJ          -6.00692        0.794322        -3.43492
LJ          0.565081         1.14313         1.82448
LJ           2.89475         2.63333       -0.341548
LJ          -1.49925         5.12857         2.58216
LJ           2.56341         1.68759        -0.98842
LJ          -2.69389         2.92839         -2.3876
LJ           2.50221        -6.13134        -2.88547
LJ           -4.1019       -0.627089        -6.09858
LJ          -2.01913        -4.63132        -4.45132
LJ          -4.23999        -3.84361         3.70778
LJ           3.37446        0.197452        -1.23487
LJ           1.82412         4.02877        -3.36304
LJ          -5.34345         6.13346        -4.77527
LJ           -1.8075        0.345411        -1.16238
LJ          -1.56527         1.11521        0.315993
LJ           6.07373        -4.18855         5.87696
LJ          -2.48056         4.09632        -6.10106
LJ           1.57334        -5.98391        0.418174
LJ           5.36802        -4.64095        -3.76487
LJ          -1.11089         3.76899        0.259533
LJ           2.63503        -3.84314        -6.14044
LJ           5.21896         1.13742        -4.03553
LJ            1.0056       -0.234346        -2.93387
LJ           -1.5656        -4.73551        -0.83758
LJ           4.78795        -2.20564       -0.168053
LJ           3.25786        -2.02261         5.85214
LJ           1.71573       -0.310761         1.00382
LJ           4.57736        -4.64719        -2.73309
LJ           5.24049        0.195947         1.32353
LJ          -4.87263         4.07862        -2.17219
LJ           1.98773        -3.16204         3.53845
LJ          -3.60682        -2.26101        -5.96131
LJ          0.666386        -6.22977        -4.74542
LJ           0.57817        0.689259        0.352028
LJ          -4.20863        -1.45617        -5.29012
LJ           3.85697       -0.532751         4.37049
LJ           -1.0744         3.50216        -4.41254
LJ           4.62339        0.987674         3.96387
LJ           4.21431         2.07021         3.28378
LJ          -5.57192         4.88887         4.66039
