108
#Comment!
LJ          -3.46251         3.30956        -4.27035
LJ         -0.432442       -0.822543        0.573775
LJ          -2.74659         2.22874         2.02382
LJ           1.85454         4.38812        -2.96706
LJ         -0.943791        -1.72955        -3.76526
LJ           5.99445         2.01041        -5.91741
LJ          -6.10497        -3.62249        -6.03709
LJ          0.945571        0.498635        -2.57284
LJ          -1.77965        -2.49211        -1.72889
LJ          0.614052         1.31401         1.70411
LJ           3.17231         3.72458        -1.56504
LJ          -5.15967         1.63912         3.64369
LJ          -4.64756         2.01324         1.33055
LJ           1.51044        -1.53885         2.54497
LJ           1.69646        -5.95442         -1.0822
LJ           2.35183        -1.55468         -1.9597
LJ           1.37329         5.32714         2.20054
LJ           1.05295        -2.04362         1.43138
LJ          -4.87841         5.44445         3.50194
LJ          -4.51402         2.98082         2.19498
LJ          -4.04063         -1.3196         1.44419
LJ          -4.57566         -5.5214         1.42099
LJ          -1.61704        -1.27977        0.826272
LJ          0.100803       -0.758629         4.98054
LJ          0.859616         1.46935       -0.523738
LJ          -2.39046        -1.53065        -1.79412
LJ           3.16311        -4.86484         2.75549
LJ          -1.15134        -4.29645       -0.653965
LJ            1.1386       -0.610968        0.632459
LJ           4.08371        -2.87699        0.642981
LJ         -0.466182       -0.315601        -4.69902
LJ            5.7089        -4.36278         2.28116
LJ           5.72347        -1.95474         5.15736
LJ          0.707597        -2.31865         3.62036
LJ           5.79872         1.23091        -1.43516
LJ          -2.98202         3.20599          1.0043
LJ           1.78121         3.57116        -2.33996
LJ           3.49398        -3.97863        0.701297
LJ         -0.386951         1.48672       0.0882657
LJ           3.49534        -5.93731          2.1083
LJ          0.222777         5.30656         6.08162
LJ           2.76499        -6.00452         1.10259
LJ           4.63521         5.80423        -1.33458
LJ         -0.967166        -1.78999        -5.39126
LJ           3.25163         3.32258        -2.63341
LJ           1.16557         5.09538        -3.32012
LJ           1.19904        -5.27272        -5.26705
LJ         -0.211553         5.01163        -4.94188
LJ          -4.17422         6.39567         3.92592
LJ        -0.0630527         -2.5366        -5.40005
LJ          -4.53415         4.61798         2.33944
LJ          -1.97754        -1.99774        -4.59563
LJ          -6.14004        0.752448         3.19457
LJ           2.15769        -6.22129         -2.6208
LJ           0.15643         2.97563        -1.13098
LJ           4.54269        -5.11074         1.59721
LJ          -3.88339        0.919995         4.42125
LJ          -1.28472         -2.9972        -5.55559
LJ          -3.00576         2.18767         4.81598
LJ          0.860534        -3.49807        0.802248
LJ          -5.26516         1.01932        -4.00888
LJ           2.73606        -1.92613        -4.69794
LJ           2.90424        -3.84949         5.09004
LJ         -0.688736        -2.27779       -0.083462
LJ           3.75631         3.59505         2.59439
LJ          0.293993        -0.48359        -2.07531
LJ          -1.11712       -0.664686        -3.08826
LJ         -0.435757         1.87795        -3.90573
LJ           -3.3101       -0.339879         3.70633
LJ          -2.57592        -1.31342         2.73327
LJ           2.80632        -0.29612        0.169412
LJ          0.331541        0.176685        -1.32291
LJ           4.52692        -4.15394        0.667465
LJ           5.97201          2.1894        -4.87858
LJ           6.05781         -2.9215          1.2813
LJ           -3.3083        -4.63096        -4.38236
LJ          -2.31366         1.01495         5.10792
LJ           0.23794          1.1595         -6.3031
LJ           2.44772         2.10423         1.87266
LJ          -5.25257        -1.93974        -2.42949
LJ         -0.448907        -5.79617         1.25624
LJ           5.76338         4.31371         4.37051
LJ          0.983356         4.95006        -4.99149
LJ          -4.57848         2.64908        -5.93119
LJ           4.69241         5.39878         1.24501
LJ          -1.15296        -2.45822         2.28602
LJ            2.4514         2.37048        -2.38482
LJ          -2.71304        -4.07858         6.45984
LJ           2.05238         5.20658        -2.09251
LJ          -2.98302         3.55562         4.64962
LJ           2.28014        -5.93228         2.75463
LJ         -0.389785        -1.11459         4.05394
LJ           -2.5549        -1.16422        -4.92409
LJ          -4.19766         -3.1593        -5.57524
LJ          -2.57969         4.47742      0.00273059
LJ           4.64577         1.38247         -1.9147
LJ          0.963582          3.7582        -4.06296
LJ          -4.35927        -5.71663        -4.98345
LJ          -3.99402         5.99836        -2.77953
LJ          -5.12447        0.558507         5.18493
LJ          -3.06245        -0.86277         1.33045
LJ           5.08692        0.291808         5.52581
LJ            2.6576        -5.73576         5.45694
LJ         -0.366716         5.26535        -3.36777
LJ          -0.96996        0.431599        0.766817
LJ          -2.21937        -3.11779       -0.212683
LJ          -5.60046        -6.10582         4.75747
LJ           2.39531        -4.21423        -3.90859
