108
#Comment!
LJ          -3.27581         3.43103        -4.62334
LJ           6.27532        -3.61242        -2.89784
LJ           4.72306       -0.328929        -2.36604
LJ          0.603452       -0.709593        0.929983
LJ           2.11682         5.02189         2.59582
LJ           2.14943        -5.04216        -2.38565
LJ           3.41979         1.49613         1.11857
LJ           3.16005         3.00971          5.5668
LJ           5.48362         5.67492        -3.50014
LJ         -0.186633        -5.10214        -4.03247
LJ          -2.46411         1.35284          3.9622
LJ          -1.64596         5.72136       -0.233908
LJ           1.77194         5.46391       -0.498726
LJ            4.1437        -4.83343         3.42121
LJ         -0.665095         3.62661        -5.67292
LJ           1.58434        -1.85868         -1.2397
LJ          -5.75626         3.03048         2.28328
LJ           2.72885        -1.83503        -1.52898
LJ          -3.49125        0.135597         2.89132
LJ          -2.34132         -5.3734         6.17189
LJ         -0.880098        0.165041         2.35637
LJ          -3.54313        -4.44635        -5.34059
LJ           2.53471         2.76355        -5.12803
LJ          -3.42967         3.60841        -1.71035
LJ          0.574771        -3.09172         3.21245
LJ           1.51045         3.58063         -4.2484
LJ          -5.17631          4.4973        -3.63269
LJ           3.28893        0.996653       -0.211992
LJ          -3.07524        0.546784         -3.6122
LJ          -4.28328         -3.1433         5.08928
LJ          -3.39667         4.01231         1.19943
LJ          -4.59597       -0.657654       -0.548328
LJ          -2.09986       -0.213197       -0.664424
LJ          0.630084         2.80208        -4.01683
LJ          -4.20414        -2.58765       -0.513719
LJ          0.642087         5.02882        -3.70095
LJ           3.38143         1.79248        -6.02103
LJ          -2.63846         2.60132        -3.23441
LJ          0.590789         4.00669         3.00941
LJ          -3.24905        -6.24641        -1.65529
LJ           4.47672         2.68332         3.90752
LJ         -0.930134        -2.72514        -6.37682
LJ           -2.5319        -2.25158        -2.78072
LJ          -5.65168         2.53714       0.0846992
LJ           3.53299         2.82352         -5.6113
LJ          -4.92915         1.79135       -0.538782
LJ            4.1047         3.86504         5.52233
LJ            2.8228         1.98363         2.16227
LJ           3.58574        -2.98279        -0.14669
LJ          -6.20918       -0.919519         1.69038
LJ          0.671245        0.381176         5.13934
LJ           3.81423         5.91098        -2.52371
LJ           3.14199        -3.75609        -3.66108
LJ           2.27544        -2.06073       -0.373322
LJ           5.24841       -0.104628        -3.33682
LJ          0.493098         5.83138        -3.17015
LJ          -2.42682        0.733454         2.01283
LJ           -1.5542        -1.41917        -5.06862
LJ         -0.942329         5.34039         1.44172
LJ          -1.00438         2.22519        -2.54437
LJ           2.39342        -2.60627         1.04375
LJ          -1.30816        -3.73059        -1.93846
LJ          -5.91026        -4.85692         -5.0533
LJ           4.37403         4.99038       -0.294116
LJ           4.15264        -3.77027         4.15125
LJ          -5.19655        -5.32953         0.21266
LJ         -0.513373         -4.6428         4.30796
LJ           1.40236         1.10595         5.06883
LJ           3.54524       -0.207057         2.55479
LJ         -0.662802       0.0541956        -2.53205
LJ            4.1753     -0.00349268        0.462909
LJ          0.597752         5.83063       -0.281393
LJ          -2.18639          4.1223         3.48458
LJ           4.32054        -1.04041        0.282071
LJ          -4.47113        -2.76078         3.94676
LJ          -3.58486        -5.35945         5.99202
LJ          -4.08693         3.06254        -5.39047
LJ          0.198211        -2.95606         4.48949
LJ           6.07143        -5.35352        -0.66897
LJ           4.83468          -2.461         5.38593
LJ           5.01374        -1.61535        -5.91798
LJ          -4.86696         2.07989        -3.43888
LJ          -4.07289         2.60455         -4.5155
LJ          -5.57025       -0.728947       -0.930714
LJ          0.135701        -5.75675       -0.977754
LJ          -4.58942        -1.97206         5.40841
LJ           2.47777         -5.4775        -3.94087
LJ         -0.181802        -5.88688        -2.47588
LJ           3.62408        -4.93438         4.58787
LJ          -1.39662       -0.676274        0.154544
LJ          -1.32018         3.76071        -2.62585
LJ           0.97548         4.62143        -0.15812
LJ           1.06556         1.57114        -3.91237
LJ          -2.47589        -2.04174         3.13253
LJ          -3.04513        -4.45255        -2.03808
LJ            -4.067       -0.767417        -3.32985
LJ           5.94352       0.0782202         2.46498
LJ          -0.80218        -4.27039        0.167939
LJ          -1.50435        0.222631        -3.26054
LJ          -2.37855        -1.77525         6.00296
LJ           1.41006          5.8789        -4.10313
LJ         -0.681113         0.78492        -1.12428
LJ          -2.67117          3.6195         5.70288
LJ          -4.31134         1.64258        0.713111
LJ          -0.20888          5.2504        -2.06225
LJ            5.9429         1.66808          5.2149
LJ           -3.3948         1.11094        0.641903
LJ          -5.48824         5.59229         -3.3385
