108
#Comment!
LJ          -3.07832         3.35823        -4.24073
LJ         -0.319559        -1.18578         1.08065
LJ          -2.60498         2.45196         1.57632
LJ            2.3149         4.87121        -3.30953
LJ          -1.43404        -1.79966        -4.43063
LJ          -6.38009         1.89116        -5.71873
LJ          -5.91075        -3.57245        -6.17678
LJ           1.25935        0.685302        -2.38711
LJ          -1.66358        -2.99561        -1.02101
LJ          0.420536         1.42377         1.82098
LJ           3.54331         3.44312        -1.75484
LJ          -5.14629         2.07853         4.08723
LJ          -5.29796          1.4653         1.41368
LJ           2.00483        -1.99942         3.26276
LJ           1.88454        -5.26507         -1.1783
LJ           1.78157        -1.45177        -1.85428
LJ            1.1494         6.05447         2.00891
LJ          0.617613        -2.40985          1.7781
LJ          -4.53702         5.77724         3.20489
LJ          -4.60125           2.954         2.32188
LJ          -4.34634       -0.981415         2.02673
LJ          -4.65688        -4.73584         1.47911
LJ          -2.03217        -1.37478        0.730724
LJ           0.56397       -0.827602          5.8305
LJ          0.656425         1.48472        -1.31387
LJ          -2.45791        -1.38897        -2.29116
LJ           2.62177        -4.82739         2.61744
LJ          -1.20674        -3.83468        -1.07687
LJ          0.729021       -0.877925          0.6064
LJ           4.50246        -3.06149        0.688692
LJ         -0.382846       -0.991649        -4.64139
LJ           5.26476        -4.77017         2.16533
LJ           5.66404        -2.22585         5.34071
LJ          0.959891        -1.37161         3.49064
LJ           6.42785         1.76709        -0.60208
LJ          -2.89359         3.39583        0.819467
LJ           1.46119         3.79625        -2.31916
LJ           3.38713        -4.22806        0.633786
LJ          0.139918         1.27557        0.510732
LJ           3.31237        -5.57041         2.26034
LJ         -0.130758          4.4856         5.23382
LJ           2.61313        -5.96018         1.44982
LJ            4.6982         5.93785        -1.29063
LJ         -0.497075         -1.2876        -5.77693
LJ           3.26947         3.01023        -2.97745
LJ           1.09365         5.14538        -3.91401
LJ           1.36252        -5.59822        -4.97669
LJ         -0.522479         5.35663        -5.26928
LJ          -4.74667        -6.37934         4.16057
LJ         -0.344892        -2.82907        -4.50119
LJ          -4.40395         4.85487         2.68447
LJ          -2.37216        -2.02058        -3.97838
LJ          -5.60031        0.390462         3.41436
LJ           2.72357        -6.02174        -2.87082
LJ          0.940117         2.44393       -0.919199
LJ           4.97335        -5.78534         1.61165
LJ          -4.86066        0.943473         4.38688
LJ           -1.4299        -2.09362        -5.40395
LJ           -2.7116         1.80008         4.62944
LJ          0.486911        -4.12903         1.45628
LJ          -4.92774         1.03054        -4.49233
LJ             3.311        -1.56533        -4.81139
LJ           3.58808        -4.02718         4.85739
LJ         -0.618667        -2.92437        -0.72299
LJ           3.21938         3.33793         2.74393
LJ          0.828171       -0.351792        -2.28647
LJ          -1.16964        -1.14158        -3.64525
LJ         -0.666218          2.1272        -4.33748
LJ          -2.61776       -0.669188          3.1026
LJ          -2.19171        -2.00937         3.23959
LJ           2.59807        0.620467        0.483466
LJ          0.853817        0.248322       -0.897081
LJ           4.58729        -4.53423         1.07786
LJ           6.16104         2.23658        -4.50812
LJ           5.15343         -2.5898         1.31724
LJ          -2.98166        -4.98642        -4.21413
LJ          -2.01491        0.892679         5.03445
LJ          0.578355         1.77825        -6.13157
LJ           2.03303           2.745         1.12842
LJ          -4.97768        -1.99934        -2.46185
LJ         -0.768338        -5.21489         1.21332
LJ           5.75808         4.36219         4.46877
LJ          0.781543         4.91486         -4.8411
LJ          -4.85898         2.15491        -5.58684
LJ           4.77431         4.57621        0.659579
LJ          -1.99996        -2.15711         2.06708
LJ           1.84058         1.77189        -2.45386
LJ          -2.39885        -3.59872         -6.2265
LJ           1.35125         5.53969         -2.8027
LJ          -2.97676         3.43465         4.76527
LJ           2.78981         -5.8715         3.14554
LJ          -0.39131       -0.957149         3.62954
LJ          -2.39495        -1.00506        -5.22087
LJ          -4.12441        -3.45786        -4.94854
LJ          -2.02308         3.82214        0.398665
LJ           4.20843         1.39657        -2.17128
LJ          0.529424         3.32195        -4.35947
LJ          -3.98922         -5.2762        -5.20162
LJ          -4.53321         5.59373         -3.0697
LJ          -4.93189        0.445228         5.53062
LJ          -3.11949        -1.09581         1.57562
LJ           5.00475        0.439656          5.2915
LJ           2.74977        -5.52108         5.27202
LJ           -1.0873         5.22114        -2.42923
LJ         -0.900742        0.858807        0.628002
LJ          -1.90873        -3.33288       0.0155947
LJ          -5.77182        -5.98518         3.98147
LJ           1.99851        -3.60515        -4.71202
