108
#Comment!
LJ          -1.77079         2.69007         3.64582
LJ          -2.82179         6.15897        -4.21606
LJ           2.99128         -3.1025         5.24447
LJ           4.39674          4.3541         1.30944
LJ          -0.95015        -5.53685         3.44807
LJ           1.07943              -4         2.08018
LJ           1.94808         5.35369          -3.073
LJ           6.10921         5.18194        -3.59997
LJ          -4.71762         3.54494         3.98168
LJ          -4.51572        0.750292        -4.05946
LJ           0.21184        -1.59476        -5.09703
LJ           1.74249        -3.81129        -2.36764
LJ          -2.27144        -5.31714       -0.751756
LJ           5.26886        -4.15415         5.64816
LJ          -1.68687        -3.23439        -5.99426
LJ          -4.62898         4.44339         -2.2749
LJ          -2.01519        -5.31058        -3.96113
LJ           2.80785         -5.5642      -0.0191279
LJ          -5.48825        -2.00405        -3.44945
LJ          -1.14545       -0.474764         4.73208
LJ           -1.4388          4.4998       -0.101132
LJ           1.57207         1.32176        0.997489
LJ          -4.09921       -0.229541        -5.18786
LJ          -2.42721       -0.171177        -5.24499
LJ          -1.35069          5.6295         -3.2909
LJ           4.68887         -6.2636        0.521433
LJ          -0.35037         3.64377         4.34303
LJ          -4.67989        -4.29868        -5.13317
LJ          0.258575       -0.461743         1.31269
LJ           5.47166         2.38857         6.09683
LJ           6.02259          1.7569         -4.2958
LJ           6.43807         1.11136        -3.13642
LJ           5.81429        -6.29298        -1.06434
LJ          -2.40396        -4.92832        -2.53964
LJ         -0.770313        -1.32971         3.65542
LJ           2.92946         5.92889        -3.94575
LJ           -6.0573        -4.13708         2.97516
LJ           2.14606          1.8739        -3.75743
LJ          -1.20924        -3.00518        -4.36954
LJ          -1.98395        -4.09749        -1.96574
LJ           3.21444         3.56207         1.37699
LJ          -1.87968        -1.92358        -3.98585
LJ          -2.11384        0.164786        0.253612
LJ          -3.74314         3.22601        -2.36039
LJ           4.88881        -5.06964         6.26159
LJ          -2.81955         2.62234        -1.89638
LJ          -6.28596         4.70436        -4.63568
LJ          -1.68711         4.55625        -3.75606
LJ          -0.12493         2.90445         5.23966
LJ          -3.47596        -1.50684         2.57138
LJ           2.83043        -4.89532         3.49855
LJ          -4.05611         3.05428          5.2985
LJ          -4.13403        -2.78084         -6.3826
LJ          -5.18937        -1.74592         -6.0386
LJ           3.91004        -4.42363         5.87515
LJ         -0.444209        -6.22981         -6.3269
LJ          -2.59975         4.04338         3.85302
LJ           4.59731         3.64273         4.46272
LJ          -2.64228         -3.8764         4.92471
LJ           4.65228        -5.90089        -4.34759
LJ           2.07789         3.77851         4.78378
LJ          -2.72009         5.67031        0.933709
LJ           -5.2422        -5.57482          5.6526
LJ          0.428169         2.57002       -0.816578
LJ           2.15948       -0.151876       -0.610109
LJ          0.829638        -5.19299        -1.23669
LJ           3.39073         4.32384         2.98655
LJ          -5.28064       -0.729085       -0.675735
LJ          -4.73493         -1.0099        -5.04695
LJ          0.423622         1.10493         1.90533
LJ           2.48929         1.83365        0.217612
LJ          -1.26692           5.692         2.84176
LJ           2.03904         1.72573        -2.31231
LJ          -2.72103         3.71413        -3.87538
LJ           1.14652         6.18913        -1.40399
LJ          -1.88394        0.113857          5.7271
LJ           -2.0251        -4.05478        -3.90404
LJ          -4.89901        -3.88495         3.60296
LJ           2.68692         1.10593        -1.62495
LJ          0.959985         3.33704         -5.1597
LJ           -4.4271         5.68469        -4.57702
LJ          -2.75437        0.587437        -1.01548
LJ          -1.88568          1.3799        0.454568
LJ           6.20091        -4.62985         5.37293
LJ           -2.7933         3.51237         6.31232
LJ           2.93802          -6.176         1.85873
LJ           4.66118         -4.4544        -3.66897
LJ          -1.87857         2.94489          1.0632
LJ           2.21258         -4.6658        -5.97202
LJ           4.40883         1.76197        -4.16857
LJ           1.22756       -0.760082        -2.82262
LJ          -2.17582        -4.21796        -0.92167
LJ           5.48519        -2.48012        0.888416
LJ           2.91771        -2.76339        -6.05686
LJ           2.59652       -0.722611          1.9294
LJ           4.03523        -5.48851        -2.80428
LJ           4.80509        0.970001        0.291777
LJ          -5.84465         4.84569        -3.57518
LJ           2.85051        -3.69364         2.46384
LJ          -3.90059        -2.51438        -5.29714
LJ        -0.0296661        -6.05679        -5.03074
LJ           1.29678         0.20742        0.901229
LJ          -4.31792        -1.06557        -5.98035
LJ           3.26597       -0.461932         4.88411
LJ          -1.80877         3.86018        -4.87561
LJ           4.29572        0.597138         3.86288
LJ           4.07279         3.06237         3.20626
LJ           -5.7865         5.34695         5.06741
