108
#Comment!
LJ           2.25148         6.42052        -2.07716
LJ          -3.46331        -2.36534        -5.13131
LJ          -5.07301         3.25692         3.13019
LJ           2.15905        -5.41753        -4.27913
LJ          -2.41559         3.95517          4.1487
LJ          -4.33998        -0.14787         6.10556
LJ           1.84239        -2.62145         3.58815
LJ          -1.70938         2.29629        -4.45404
LJ          -1.34107         5.50398         6.32398
LJ           5.83621        -2.58247        -4.16971
LJ          -1.47507         3.33228       -0.922908
LJ             -1.66         -5.3514        -2.52779
LJ          -4.90838         5.92302       -0.446925
LJ            4.2093         4.63244        -3.69283
LJ          -2.57025        -3.88824         2.90288
LJ           1.56927          1.9647        -2.10786
LJ          -2.07323        -2.47257        -3.82329
LJ          -3.60666        -2.16474        0.851937
LJ          -2.83751         1.18968         2.68943
LJ          -5.24311        -2.65371        -4.80068
LJ         -0.181614          3.2778         3.95426
LJ           4.73065         4.01883       -0.317767
LJ           1.44196         1.92075      -0.0469964
LJ           1.69211         -4.4986         4.62672
LJ         -0.519533           5.699         2.94632
LJ            1.7361        -1.55105        0.926898
LJ            5.3341        -1.11513        -4.69589
LJ          -1.18459         1.96322         5.03606
LJ           1.48026        -5.41307         5.25262
LJ          -2.67325        0.513518         4.27423
LJ           -2.4539        -2.09508         -5.6593
LJ           2.63586        -4.94699        -2.56395
LJ          0.167728         5.54159        -3.92667
LJ         -0.354085        -6.30685         5.56239
LJ           4.39819        -6.28954         6.16121
LJ          -5.89525         1.69662         5.04002
LJ          -2.37781         2.83629         5.16235
LJ          -2.07648        0.143311          1.6591
LJ          -4.65744        -5.94231        -4.39967
LJ         -0.339834         6.01982        -6.18112
LJ           2.32002        -2.08699         2.66376
LJ          -1.74471        -1.63928         2.79384
LJ           -4.8392         5.40533        -3.81036
LJ           1.90003         -1.2242         3.88905
LJ          -1.67438         2.60614        -6.43707
LJ          -3.41827         1.31493         5.35935
LJ         -0.599793          6.3192        -4.20061
LJ           5.22535        -2.71547         4.75584
LJ          -6.32723        -4.60853         2.01806
LJ           -4.9267        -3.22723         2.78081
LJ           4.76311        -4.62361        -5.59467
LJ          -3.05749         4.94718         4.90446
LJ          0.422349         1.70136        -2.53198
LJ          -0.34643         3.91588        0.182404
LJ           0.61927         1.94402         3.37893
LJ          -5.32923          1.8965       -0.378569
LJ          -5.02653        -6.24166         2.95863
LJ          -0.04107       -0.787139        -4.74052
LJ           1.12196         1.07594        0.913625
LJ          -1.45032        -4.62204         4.59045
LJ          -5.33209        -0.58532       -0.958868
LJ           1.54073        -3.74097        -3.34896
LJ          -5.71469         5.26011        -2.78712
LJ         -0.261942         2.32683        -2.07778
LJ          0.777395        -5.60817        -1.69496
LJ           5.98367         1.70716         -6.3993
LJ          -6.02138        -4.04019        -5.26241
LJ           4.40641        -3.73616        -3.45722
LJ          0.372066         -5.5407         5.43167
LJ           2.58049        -1.52656          5.8631
LJ         -0.950403         -2.3044        -3.36723
LJ          -5.43501       -0.483093        -2.38985
LJ          -5.14882         6.33821        -1.38858
LJ           2.38644        -5.52729        -1.69714
LJ          -4.54259        -5.16403         4.93119
LJ          -6.16837        -3.75579        -1.15592
LJ          -5.08659        -4.77915        -3.26442
LJ           4.51333        -4.85561        -1.02212
LJ           3.83827         5.56282         -2.6066
LJ           3.75564       -0.237525         5.31424
LJ          -3.36903         5.74936        -6.26375
LJ            4.9893       -0.387733          4.4139
LJ          -3.08687        -3.55875           1.162
LJ           0.89818         -2.6531       -0.936019
LJ          -5.53226         4.94137        -4.41399
LJ           5.98044         -6.3844        -2.19074
LJ           -3.7205         -0.5059        0.569486
LJ           5.51379        -5.12941        0.870238
LJ         -0.064435        -2.64241         -2.9849
LJ          -1.26306        -3.00697         6.33062
LJ          -5.46835         1.87982        -2.71582
LJ          -1.87496         5.61678        -5.27335
LJ          -2.71328        0.504453        0.880516
LJ           4.57897       -0.476372         5.95872
LJ           3.53933      -0.0210718         6.30543
LJ         -0.927219         -6.1099        0.942871
LJ           1.68286        0.269386        0.354769
LJ           4.70934         3.39878        -1.88361
LJ           2.72964         0.76195        -2.48933
LJ          -2.92973         1.63976         1.31414
LJ          -5.89077         1.62238         -1.5573
LJ         -0.673761        -5.88493        -6.23373
LJ            6.1213        0.644248       -0.472821
LJ          -4.94897        -5.47094       -0.944104
LJ           5.55876         3.26471       -0.341462
LJ         -0.571042        -2.14452     -0.00229566
LJ          -2.19067        -4.17486         1.62014
LJ           1.61564       0.0728469        -4.75808
