108
#Comment!
LJ          -5.42302          4.0315        -2.70058
LJ           4.43084         -2.7559        -2.95577
LJ           6.21621        0.678821        -2.39233
LJ          0.043388        -4.57331        0.514888
LJ           2.92259          4.2346       -0.163198
LJ            1.7108        -5.14673        -3.25571
LJ           5.16736       -0.657128          2.6791
LJ           4.87733         3.25033        0.380629
LJ           5.25743         6.44607         5.44698
LJ         -0.814077        -6.10727          -4.635
LJ          -5.73001         3.03133         2.54957
LJ          -2.40305         5.21946         1.01068
LJ           1.39091         5.70842       -0.511862
LJ           2.70145        -6.14897         1.19693
LJ          0.238621       -0.568646        -3.97091
LJ           2.43423        0.743106        -3.36083
LJ           6.09484        0.404536        -5.89904
LJ           1.84107        0.118879         2.27018
LJ         -0.894079         1.26072         6.29462
LJ          0.516875         4.34327        -5.08017
LJ           -2.8195        -2.42522         4.13918
LJ          -6.18269        -5.70299          5.2551
LJ         -0.276796          2.1641          4.6838
LJ          -2.63841         3.49987        0.413762
LJ         -0.396183         6.20529          2.1229
LJ          0.917725         4.04445         6.33891
LJ          -2.15188         6.06974         5.75051
LJ          -5.82867        0.902568          4.9341
LJ          -2.51958         1.70112        -5.85025
LJ          -2.85241        -0.93607          4.3663
LJ          -2.63432         4.81921         3.77988
LJ          -3.04222        -5.29242         1.23267
LJ           2.24207         5.04921       -0.249282
LJ          -2.39522         1.78085        -4.56265
LJ          0.017073       -0.842977      -0.0144203
LJ         -0.549036         5.41587        -4.60144
LJ           1.93229         6.34563        -3.61513
LJ          -5.30386         3.52498        -1.52214
LJ           1.69207         1.65306        0.270131
LJ          -4.43481        -6.32964        -3.75664
LJ           4.19574         4.75478         3.76477
LJ          0.350007        -3.02459         4.80084
LJ           -3.5529        -4.14355         -2.4839
LJ          -6.01234         3.21235        0.494235
LJ           3.26869         5.53105        -3.85654
LJ           6.29641         2.23986        0.916831
LJ           2.86126         2.09157         2.24437
LJ           6.18006       -0.450125          3.7004
LJ           4.08243        -4.30648        -4.06036
LJ           3.70079         2.39839        0.134452
LJ          0.183412        -1.84177        -5.87389
LJ           5.62978        -4.78285        0.221678
LJ           2.54225        -1.90162        -4.48482
LJ          0.745738       -0.976587        -1.98042
LJ           5.62439        0.725776         -1.4413
LJ          -1.33673         6.31544         -1.7075
LJ          -1.89696        -2.16011         2.48172
LJ         -0.272091        -1.85829      -0.0490774
LJ         -0.186554        -3.25562        0.307745
LJ           1.85249         2.66009        -5.68934
LJ          0.735493        -5.65343         4.69171
LJ          -3.13517       -0.938049        -4.21166
LJ           5.78142        -4.42085        -2.93402
LJ           1.46071        -4.80926         1.49849
LJ          -6.08247        -4.51456        -3.15649
LJ           5.67679        -5.58714        0.973566
LJ          -3.82133        -3.34436        -3.90757
LJ         -0.230571         3.67589         6.13447
LJ            1.3305        -3.18495         4.76474
LJ          -1.52512        -1.37966        -4.55072
LJ           4.38018        -1.73638         2.36462
LJ           1.70451        -5.55745        -1.14753
LJ           2.72374         5.51635         4.92214
LJ          -4.37618        -2.60833       -0.999657
LJ          -3.28691        -1.52817         5.61483
LJ          -0.58925         5.45325        -5.88892
LJ          -4.03744         1.70547         4.77599
LJ           3.26497         -2.3287         2.98691
LJ          -5.45966         4.73456        -1.85032
LJ           5.09859        -2.71734         4.49932
LJ           3.62291         5.15048         6.31086
LJ          -6.25471         3.23954        -4.77284
LJ          -5.77763         2.91643        -2.34569
LJ           2.77786        -1.29693       -0.708036
LJ           1.63894        -5.75417        0.397683
LJ          -5.15621        -2.82647        0.702721
LJ          -1.32245        -6.45102         -5.5351
LJ          -1.50942         4.52653       -0.735978
LJ           4.02228        -5.99909         1.16149
LJ         -0.730198        -1.99138         1.91211
LJ          -3.77282         4.68869        -1.70701
LJ          0.618683        -5.59804      -0.0784086
LJ          0.279168       -0.262757        -5.50678
LJ           1.79328        -2.44673         1.62606
LJ          -4.48891       -0.724996        -2.80179
LJ          -1.40798        0.881244        -2.93865
LJ           4.35519          1.6601        -1.40517
LJ         -0.597762         2.99896       -0.572834
LJ          -4.92602          2.2554       -0.928419
LJ          -2.59051         -2.8911         5.71255
LJ          0.554525         2.89301        -4.57909
LJ          0.175672         1.40633       -0.374485
LJ           -3.0275      0.00758491         3.45677
LJ         -0.643403         2.55906         -1.7954
LJ            1.5718        -5.75503        -2.29637
LJ           6.33694         2.06298         5.21566
LJ          -1.53975         3.27521        -2.09932
LJ          -4.76271         3.70175       -0.331075
