108
#Comment!
LJ          -2.02288         2.99752         5.64641
LJ          -4.58216         -4.9911        -2.75081
LJ           4.66355        -1.84558        -5.78763
LJ           1.81382         3.13746         1.00853
LJ         -0.261544        -5.93853         4.14469
LJ           2.95277        -4.06383        0.406498
LJ           1.90432         4.67529        -1.37183
LJ           3.84251         4.47476         -5.1442
LJ          -6.12314         5.15374        0.931792
LJ          -2.58177        -2.38781        -4.37178
LJ         -0.702336       -0.142322          5.9567
LJ           1.20185        -6.01321         -1.0173
LJ         -0.191646         5.54462       -0.221423
LJ           4.98418        -3.06205        -6.34743
LJ          -1.41693        -6.27512        -5.86509
LJ            4.3152        -5.07046        -1.64097
LJ          -4.72008        -6.36325         -3.3495
LJ          0.249054          -4.811       -0.829027
LJ          -5.02026        -2.29977        -1.86884
LJ          -3.68522         5.79326         5.13591
LJ          -1.60064         3.46287     -0.00743341
LJ          0.501225        -2.31866        -2.77795
LJ          -6.36339          3.6468        -3.42636
LJ          -3.15543         2.08472        -4.14764
LJ          0.294329         1.78226         6.44773
LJ           3.53268         5.45205        -1.93472
LJ           3.79016         4.61474         1.28249
LJ          -1.09423        -1.90798        -2.69551
LJ          -3.29479        0.876781        -1.27979
LJ          -5.37721        -1.32238         5.60422
LJ           -5.0708         2.60439        -2.49118
LJ           1.84193         3.02547        -2.12529
LJ          -4.99254         5.91375        -2.02868
LJ          -1.17599         4.42182        -2.05162
LJ           3.71148        -1.98086         1.55956
LJ           2.80283         3.50773        -3.29912
LJ           5.85153        -2.12399        -4.00618
LJ          0.859163         3.04651        -3.96097
LJ         -0.395527        -5.70479          6.1936
LJ         -0.967176        -5.82938          -1.052
LJ           4.32256         2.16657         3.89311
LJ           -3.6039        -1.07149        -4.90921
LJ          -2.60491        -1.52441        -1.06648
LJ          -3.94579         1.89097        -1.20746
LJ           5.24669        -3.81187        -5.56488
LJ          -3.80614         1.85644       -0.107558
LJ           4.84153         4.09019         -4.9237
LJ          0.242695         3.59762       -0.983131
LJ           2.99431      -0.0291942         3.08258
LJ          -4.14634        -1.30824         3.69823
LJ           2.35434       -0.916983         3.54647
LJ           6.19251         6.41576        -5.74192
LJ           5.50571        -4.40023        -4.57968
LJ          -5.01716         -1.1675        -4.74192
LJ            4.7637        -2.57251        -4.93718
LJ           1.05829         6.10173        -2.30723
LJ          -2.50866         3.06529         2.52706
LJ          0.730922          1.5033         2.72879
LJ          -2.23566      -0.0601428         3.68796
LJ          -5.97305         4.18717        -2.01693
LJ           2.63356        0.777354         2.19542
LJ          -1.30052        -6.06402      -0.0243138
LJ          -6.31574        -5.49632        -6.27579
LJ          -4.16516         1.22453        -2.10933
LJ          0.472422        -1.43995         0.52018
LJ          -2.12575        -4.37239      -0.0790615
LJ           1.90955        -5.68993        -3.72106
LJ           5.36394        -1.11634         -6.4533
LJ           6.11316          2.8466        -1.41338
LJ          0.884162        0.764813        0.169062
LJ           3.33431         3.08621        -2.09758
LJ         -0.933778         5.97609        0.577421
LJ           4.87776         2.25808         1.70897
LJ          -1.14646        0.926623        0.162278
LJ           5.70006        -5.06309         6.41827
LJ          -6.12274          -2.398         6.39035
LJ          -2.91003         6.33224        -5.48089
LJ           -2.6108        -3.60771         4.00855
LJ           4.23476        -1.84596       -0.616267
LJ           3.23878        -6.31993        0.381841
LJ           5.55781        -5.45454        -5.34352
LJ          -1.08567         1.22612        -2.06511
LJ          -2.31587        0.594256        -1.64947
LJ           6.28294        -3.61934         4.57586
LJ          -1.68493         5.45385        -4.87352
LJ          -0.94764        -4.57399        -3.00166
LJ          -6.23113        -4.96688        -3.98905
LJ         -0.463646         5.96648        -2.19349
LJ           4.16489        -2.03427         6.17674
LJ          -5.55811         0.37386        -2.44357
LJ          0.465841        0.997527        -2.97426
LJ          0.423271         5.90297        -1.00596
LJ           3.23519        -1.08269        -2.17964
LJ            5.4356        -0.29131         4.50139
LJ         -0.739534         2.35487         -1.3308
LJ           6.03964        -3.15613        -2.68806
LJ           5.92086        -1.42138         3.94564
LJ          -1.88214         1.40549        0.724608
LJ          0.630539        -1.95817         5.90185
LJ          -2.87362        -2.10778        -6.43021
LJ          0.407532         5.39133        -3.21361
LJ          0.179109         1.64048     -0.00198912
LJ          -4.69992        -5.33772        -4.58445
LJ           5.65803      -0.0919639         2.55363
LJ          -0.45586         3.92986        -3.90547
LJ           5.37815        0.956183         4.41253
LJ           4.22675        0.844005         2.84885
LJ          -5.53821         4.96631         6.33023
