108
#Comment!
LJ          0.446097        -5.96359         4.42663
LJ          -4.19693         6.26273        -2.37593
LJ          -3.36333        0.847812         -3.6477
LJ           5.37366        -2.45623        -3.90222
LJ           2.11299         4.92579         4.71618
LJ          -3.54207        -1.13713        -6.09713
LJ          -2.17851        -4.71104          3.9584
LJ          -4.96008         1.50246        -5.63629
LJ         -0.573979        -4.81696         5.05038
LJ           1.84279        -2.39228         6.23795
LJ        -0.0516328        -4.36956        -4.37716
LJ          -1.50068        -2.58549         2.86947
LJ          -5.85913       0.0451142         6.32665
LJ          -1.83062         5.98874          6.2345
LJ          -4.23632        -4.76283       -0.450843
LJ          -2.01195         -5.2135          5.9444
LJ            2.1256        -2.12232         2.59354
LJ          -6.04537       -0.854748        -6.12107
LJ          -2.48194       -0.340673        0.628194
LJ          0.209108         -5.5442        0.206053
LJ          -3.12478          6.4011        -6.09943
LJ          -3.78209         5.31802        -2.96677
LJ           1.19286         5.38814         5.72443
LJ           5.73804        -5.29113        -1.32262
LJ        -0.0917184         3.40402        -3.74534
LJ          -2.88256        -5.43789       -0.846731
LJ           0.40796         -5.0267         4.07729
LJ          -2.87011         1.37175          1.5247
LJ          0.180229        -4.09719         6.29257
LJ           3.30268         4.54173        -2.60391
LJ          -2.56589        0.571458        -2.61767
LJ           3.19716         1.96904        -4.02463
LJ          0.121104         1.61931         4.45502
LJ          0.766913          -3.027         6.05546
LJ          0.891479         3.79187        -5.34143
LJ           4.13169         4.84619         5.31525
LJ          0.151549        -5.22033        -1.12292
LJ          0.410973         1.17312         2.91333
LJ          -4.00551          5.3297        0.674707
LJ          -2.45842        -4.13644        -4.52967
LJ           4.42712         4.50647         4.29933
LJ          0.466774         3.75847          2.9426
LJ          -4.04608         4.77363        -5.26523
LJ           2.21996        -1.35314         3.54571
LJ          -2.90659        -5.66854         -3.8532
LJ          -5.99481         5.00514        -6.17239
LJ           4.09593       -0.540065         5.06031
LJ           4.76886        0.956927         4.52392
LJ            5.0022        0.558675        -4.50438
LJ           -3.7161        0.355219         1.36284
LJ          -6.28438          4.9503        -3.97175
LJ           2.15865       -0.947682         5.30833
LJ           -3.2149         1.26294        -5.00109
LJ         -0.348046        -4.40113        -3.24717
LJ           1.63876        -3.34527        -6.39128
LJ          -2.92398         -6.4112       -0.137247
LJ           4.12233         5.11938        0.134904
LJ          -5.28628        -1.94496         5.35802
LJ          -2.14886        -2.41737        0.100796
LJ          -6.15289         -4.8339         3.00617
LJ          -5.15564        -5.80224         1.21383
LJ           2.21474         3.61771         4.10491
LJ           4.06155        -2.28177        -3.41855
LJ          -2.93487         5.20239       0.0620836
LJ           2.38467         4.58105      -0.0638785
LJ            2.9811         -4.3637         4.73372
LJ          -5.69262         6.35883         3.30197
LJ           0.93527        -3.60757        -2.80996
LJ           3.01816        -2.85109          2.0208
LJ            4.9777        -4.96986         5.94507
LJ           1.54991         1.24917          3.4194
LJ          -4.77697        -2.22396         1.31884
LJ           0.81373         4.50364        -1.51005
LJ          -6.24405         5.49784        -2.54547
LJ         -0.355226         2.39065        -2.02781
LJ           -4.9142         4.99511         6.33735
LJ          -2.04988        -5.35391         2.02142
LJ          -4.25704       -0.079865          6.1725
LJ          -2.80441         4.78404        -1.66618
LJ           4.42543         6.08958        -5.07352
LJ           4.85336        -2.82177        -2.29781
LJ           6.14614          4.0389         5.93329
LJ          0.706381         3.56692        -3.22274
LJ          -5.93141        -4.96409        -2.89257
LJ           5.06605         4.58351         5.96202
LJ           3.51679        -5.39532        -3.26001
LJ          -2.09109         4.46158        -5.42132
LJ           3.83124        -1.56601        -4.45386
LJ          -5.30362       -0.652542         1.65232
LJ            3.0132        -1.63442         5.25595
LJ          -0.95171         1.26597         1.57723
LJ           -1.8436        -6.20733         2.49242
LJ          0.137008        -3.44968         3.34184
LJ        -0.0911042        -5.73111         3.47184
LJ          -4.10914        0.502394         3.35891
LJ           2.57775        0.638474        -5.55565
LJ           1.39797          2.1693         3.31329
LJ          -1.57333         3.73768         -4.6258
LJ            5.2076         3.94557         5.04566
LJ          -4.12187         2.70883         1.98582
LJ          -2.90589        -3.87904       -0.766886
LJ          -2.00033         2.92281        -5.14639
LJ           3.27395         5.96846         -1.0345
LJ           5.90798      -0.0170512        0.890222
LJ           2.27956        -5.97906        -3.59167
LJ           3.03296         1.20725        -1.78337
LJ          -3.70653         3.06905         3.19181
LJ          -3.60574         1.06324         4.79178
