108
#Comment!
LJ           4.24157         4.29714         -4.2453
LJ           1.58189        -3.08697        -3.52407
LJ          -6.41875          2.0331       -0.628282
LJ          -3.45536         6.33454        -2.64636
LJ           2.56784        -6.10926         6.18356
LJ           3.93691        -2.44977        -4.35187
LJ          -4.58562        -3.12282         4.74902
LJ           3.91761         1.60963        -3.59559
LJ          -5.98777         1.61325         -1.8817
LJ           -3.4269        -3.15132         6.32485
LJ           4.11056        -5.95596         3.49995
LJ          -3.48391         4.23812         4.35924
LJ          0.528783        -5.97595         1.59646
LJ           3.44375        -6.35867        -2.75855
LJ           1.65643         -6.4417        -3.01885
LJ           5.85967         2.84262        -3.60044
LJ           4.26571        -1.76824      -0.0815506
LJ          0.226111         2.62491        -6.16981
LJ          -1.22497        -1.81906         5.00379
LJ           3.17954         2.82379         6.40749
LJ          -5.00058        -1.69544         4.89607
LJ          -5.99029         4.40169         2.04132
LJ          -4.42121         2.77866        0.513232
LJ          -3.60472         2.01973        0.816335
LJ         -0.290807         2.83236         1.18158
LJ           -0.3017         3.16303         5.46243
LJ           2.64212        -5.70608         3.85992
LJ           3.57213         1.09928        -5.21601
LJ          -2.11668        0.877645         4.96697
LJ         -0.158236         1.65865           2.952
LJ          -1.68635         5.78839        -5.92893
LJ         -0.454082         3.95216         3.60289
LJ           4.21814        -6.32093        -1.95488
LJ         -0.941934         2.00109        -1.52063
LJ           2.21212        -1.76537        -2.87572
LJ          -3.55995         4.26704        -2.39936
LJ         -0.684574        -2.50229        -2.64511
LJ           4.79358         4.57263        0.814865
LJ           2.66747       -0.325057        -4.21036
LJ          -5.52963        -6.35363        -6.28269
LJ           3.32216        -5.12813         5.08891
LJ          -2.99975        -3.31211         3.17732
LJ          -5.07652        -5.38411        -1.81066
LJ           5.68071         2.36872         2.51581
LJ           3.48278         -3.4347        -4.05868
LJ           3.98563           2.566         1.43132
LJ           5.45946         4.30964         3.70407
LJ          -3.44379        -3.66142         5.30892
LJ           4.26347        -5.32669         5.05251
LJ            1.8869         5.71674        -1.08569
LJ          -1.09724        -3.21146        -4.77087
LJ          -6.00545        -4.16602         4.12301
LJ           1.66146        0.333118        -5.16994
LJ         -0.331768        -2.33931        -4.66408
LJ           -6.1713          2.7016        -1.74081
LJ          -3.10011        -6.31998         1.19002
LJ         -0.686494        -5.19802         3.74854
LJ           1.49278         0.62406         3.26613
LJ         -0.737003        -6.34136         1.86923
LJ           5.89131         2.68197          5.8668
LJ        -0.0968601          4.7826        -5.61132
LJ          -4.59033         1.66884        -4.73857
LJ           5.60809        -4.08534       -0.682812
LJ           1.77101        -6.24205        0.641902
LJ          -6.11267        -5.02659         4.81069
LJ            3.6249        -3.78716         3.84959
LJ          -5.59512        -1.70999         3.71651
LJ           4.37275         2.88562        -5.78126
LJ           1.66622         4.01305         6.17942
LJ          -2.68454        -3.12831        -5.69333
LJ          -4.31915        -1.32072         4.16959
LJ           1.21389        -2.71753        0.241889
LJ          -3.66124        -6.17299          3.6998
LJ          -2.21566          6.4529         4.43377
LJ          -3.54192        -4.17285         3.16313
LJ          -1.06261          4.9924         6.22342
LJ          -4.05617       -0.191302         1.45525
LJ           3.24999        -2.25574          2.8655
LJ          -4.89667         3.47654         -3.7694
LJ          -6.32024        -2.43875         2.32659
LJ          -2.31224        -4.63214          4.8144
LJ           6.24825         4.58657        -6.11666
LJ          -3.69318         3.87051        -4.12009
LJ          -0.83789       -0.207993         3.74238
LJ           2.70326        -4.04723         2.58193
LJ          -4.97958         -2.7819       0.0524715
LJ          -6.31756        -5.09573        -4.46434
LJ          -1.34111        0.471216        -2.64729
LJ          -5.33809         -4.3147        -2.48224
LJ         -0.725763         -5.7192         2.70864
LJ          -5.97785         5.32364         1.34033
LJ           2.38111        -3.11297       -0.250485
LJ          -1.11745        -2.25553        -5.31438
LJ          -5.66561        -3.54524        0.458017
LJ          -4.23814         2.18561        -6.29689
LJ           1.00876         2.08002        -2.68035
LJ           1.84971         3.39841        -4.32357
LJ         -0.146382         -1.2908        -3.28335
LJ           6.25861         1.47362         2.97257
LJ          -2.63173        -2.84607         5.70756
LJ        -0.0450602         1.87886       -0.805685
LJ           2.97071          3.2331        0.771826
LJ          -3.56579        -4.46842         4.22896
LJ          0.315165        -6.08371         -4.5441
LJ           1.76483        -3.97154       -0.571188
LJ          -4.17238       -0.383317         4.81931
LJ           1.14563         4.16102        -1.49955
LJ           5.08784         1.57547         3.28017
