108
#Comment!
LJ          -5.05272         3.88837        -2.46848
LJ           4.69927        -2.78762        -2.93537
LJ           6.19625        0.434519        -2.36191
LJ          0.630065        -4.35766        0.800662
LJ           2.93717          4.2286        0.328151
LJ           1.49046         -5.0695        -3.13607
LJ            4.8539        -0.51757         2.35712
LJ           4.56368         3.31862          0.9584
LJ           4.90516         5.67191         6.16837
LJ         -0.640459         -6.0329        -4.40889
LJ          -5.34015         2.81815         2.70651
LJ          -2.17428         5.33066         0.58714
LJ           1.48912         5.71632       -0.425469
LJ           2.93978        -6.03717         1.46425
LJ         0.0773251       0.0485207        -4.15358
LJ           2.32278        0.458816        -3.14205
LJ           6.28062        0.626417         6.45555
LJ            1.9943       -0.086405         1.80993
LJ           -1.2133         1.13863         5.90613
LJ          0.338443          4.8827        -5.17376
LJ          -2.48856        -2.18505         3.88973
LJ          -6.03725        -5.46376         5.63474
LJ          0.176561         2.12206         5.09098
LJ          -2.76447         3.51063        0.201143
LJ         -0.313723        -6.30583          2.2534
LJ          0.442437          4.4022        -6.46065
LJ          -2.54641         5.88533         6.16223
LJ          -6.19102         1.06831         4.25107
LJ           -2.6119         1.54728         -5.4709
LJ          -3.27472        -1.27118         4.37048
LJ          -2.72792         4.72372         3.46792
LJ          -3.25375        -4.72308         1.03748
LJ           1.65035         4.40221       -0.250005
LJ          -2.10989         1.96367        -4.58062
LJ         -0.560988        -1.18129       -0.126743
LJ         -0.365517         5.22171         -4.3269
LJ           2.01068         5.85183        -4.17518
LJ          -4.87541         3.15993        -1.69105
LJ           1.55497          1.9214        0.623957
LJ          -4.28713        -6.30976        -3.50638
LJ           4.32065         4.53338         3.79559
LJ          0.175348        -3.01418         5.02397
LJ          -3.44667        -3.90531        -2.59355
LJ          -5.97954         3.17419        0.462205
LJ           3.16691         5.23669        -3.81924
LJ          -6.41531         2.14202        0.733065
LJ           2.99767         2.33903         2.58434
LJ           5.75794       -0.236598         3.63501
LJ            3.9642        -4.20477        -3.58824
LJ            4.0312         1.87983        0.422286
LJ           0.24572        -1.59846        -6.12095
LJ           5.36448        -5.01156       -0.205554
LJ           2.61086        -2.12432        -4.39497
LJ          0.899516         -1.1568        -1.77796
LJ             5.391        0.866704        -1.58025
LJ          -1.13299         6.32759        -2.00001
LJ          -1.82317        -1.77138         2.31162
LJ         -0.432984        -2.22019       -0.453976
LJ         -0.392792        -3.31407         0.10687
LJ            1.6592         2.48565        -5.30562
LJ          0.958006        -5.30271         4.24306
LJ          -2.86233        -1.37862        -3.95908
LJ           5.88796        -4.49796        -3.09392
LJ           1.42036        -4.79784         1.15023
LJ          -6.15647         -4.5139        -4.03885
LJ           5.95482         -5.6074        0.938227
LJ          -3.43064        -3.58065        -4.44982
LJ         -0.264059         3.40963          5.8902
LJ           1.61167        -2.69935         4.60969
LJ          -1.33667        -1.19847        -4.34991
LJ           4.37687        -1.46796         2.17926
LJ           1.65906        -5.63945         -1.2513
LJ           2.12539         5.35103         4.74114
LJ          -4.91414         -2.4932       -0.343858
LJ          -3.30434        -1.52758         5.58586
LJ         -0.598514          5.3749        -6.15913
LJ          -4.05207         1.88133         5.11552
LJ           2.91252        -2.48668         3.09316
LJ          -5.57132         5.07185        -1.65883
LJ           5.06798         -2.6725          4.6117
LJ           4.25568         4.82448        -6.38305
LJ           -6.1853         3.08989        -4.70821
LJ          -5.60134          2.8774        -2.74776
LJ           3.23514        -1.13726        -1.23048
LJ           1.60893        -5.84851        0.285944
LJ          -5.11747        -2.62454        0.754701
LJ         -0.782762         6.45915        -5.54998
LJ             -1.47          5.0735       -0.641935
LJ           4.01041        -5.86625         1.69975
LJ         -0.897636         -1.8876         1.83883
LJ          -3.52469          4.6002        -1.91752
LJ          0.506109        -6.07359       0.0296908
LJ          0.496268      -0.0501529        -5.37191
LJ           1.22188        -2.36195         1.76422
LJ          -4.34649        -1.09752        -2.58013
LJ          -1.74483        0.678793        -2.99167
LJ           4.62842         1.46623         -1.0837
LJ         -0.571077         3.61739       -0.517083
LJ          -4.56866          2.2144        -1.28195
LJ          -2.52866         -2.8086         5.78063
LJ          0.737545         3.35419        -4.41403
LJ         -0.123695         1.41733       -0.553706
LJ          -2.96535        0.460501         3.70763
LJ          -0.97213         2.20128        -1.27142
LJ           1.36236        -6.13285        -2.26279
LJ           6.21175         2.14867         5.26479
LJ          -1.63659         3.04446        -1.99331
LJ          -4.87015         4.08525       -0.834791
