108
#Comment!
LJ          -0.20355         6.05762         6.09559
LJ          -3.78696        -5.79473        -2.79007
LJ          -3.55357       -0.355887        -1.86592
LJ            4.7034        -3.04605        -4.81235
LJ          0.127665         4.49762         4.92955
LJ          -3.96691        -1.10223        -6.30531
LJ        -0.0457768        -3.00974         4.66445
LJ          -4.23711            1.17         3.49986
LJ         -0.200927        -5.26898         5.97622
LJ           1.65195        -2.70087         3.46633
LJ            -1.119        -5.52312        -3.24678
LJ         0.0835565        -2.17346         2.72332
LJ          -4.58939        -1.41296         4.45944
LJ         -0.601286         3.69132        -5.98623
LJ          -6.39507        -1.82048        0.698735
LJ           -2.0647         5.85123         3.57876
LJ           2.14258        -1.52742        0.952429
LJ          -4.30621       -0.902118        -4.34479
LJ            6.3437        0.241094         1.31255
LJ          -2.71909        -3.93774         1.57893
LJ           -3.1326         5.13551         6.23444
LJ          -5.03317         5.60834        -2.19861
LJ           1.61998         3.89688         4.74576
LJ          -4.65817        -5.62214       -0.828307
LJ         -0.369578         1.44129        -2.05454
LJ          -3.40642         -5.3887       -0.569478
LJ           2.07169        -5.63469         3.59045
LJ          -6.02414         1.32831         2.89184
LJ          0.838735        -3.09216         4.10827
LJ           1.57908         3.32835        -0.70497
LJ          -2.19626        0.498335        -5.08905
LJ           1.38126         4.52577        -5.15106
LJ          0.042409         3.75641         6.01873
LJ           1.74012        -3.41255         5.80117
LJ          -1.95445         5.00408         -5.3836
LJ           5.25438         5.23103         4.22416
LJ           3.17178        -4.07922        -2.28577
LJ         -0.192086     -0.00650012          1.7826
LJ          -3.50332         6.28252        -1.06375
LJ          -1.20529        -4.32794        -4.97247
LJ           4.99053         4.21078         4.25324
LJ         -0.246446         4.43626         2.91226
LJ          -6.16689         5.75318         -3.4926
LJ           1.56215        -1.29672         2.73599
LJ          -3.15004         6.15486        -3.96577
LJ          -2.97645         4.33942        -5.36684
LJ           4.98524      -0.0547383          4.0164
LJ           5.86536       -0.517174         5.44086
LJ           2.34749         -1.4518        -3.16978
LJ           -3.8546      0.00753241         2.24703
LJ            6.0424        -6.30954        -4.34527
LJ          0.855941         1.92998         4.27737
LJ          -2.90605         1.76584        -4.37245
LJ         0.0701054        -4.98662        -3.38964
LJ          0.854029        -3.47469        -6.45121
LJ          -3.81579        -4.53794        0.156042
LJ            6.1335         4.41601        -2.61354
LJ          -3.89215        -2.35714        -5.45989
LJ           1.84442       -0.407282         1.11321
LJ          -5.55494        -4.78984         3.00812
LJ           5.74579         6.24676         3.10369
LJ           2.25874         6.08253         3.31633
LJ             5.324       -0.424152        -3.65442
LJ          -1.55657         2.60015       -0.972293
LJ           1.17626         2.08262       -0.763918
LJ           3.62477        -6.02604         6.31547
LJ          -5.50916         4.44658         5.70437
LJ           2.33701        -4.12274        -3.43135
LJ           1.26513        -3.89658         3.52249
LJ           4.10496        -6.16308         5.26065
LJ          0.910657      -0.0576497          2.0409
LJ          -4.93681        -2.35455       -0.108032
LJ         -0.685268         5.01344       -0.165543
LJ           4.91455         6.40894        -1.36488
LJ          -1.29549       -0.367416        -4.44707
LJ            -1.272         5.84616        -4.42816
LJ          -2.75315         -6.1277        0.109543
LJ          -5.96073       -0.284046        -4.67213
LJ          -4.81381         5.77765         -1.0135
LJ           4.82127        -3.85978        -5.70593
LJ          -4.96071        -3.39804        -2.18784
LJ           4.08498         3.34774          5.7912
LJ           4.45437          5.1433        -1.92589
LJ          -4.72602        -4.87005        -3.16396
LJ           5.34077         4.94808         5.22407
LJ           3.81343        -5.99749        -3.40663
LJ           -4.7243          3.1198         4.60332
LJ           2.88457       -0.260952        -1.98984
LJ           5.10766         -2.2867        0.476273
LJ           1.35568        -1.76207         4.83001
LJ          -2.88482         1.66479        0.335506
LJ          -1.27652        -6.13508         4.66602
LJ         -0.120905        -3.28362         2.05472
LJ          0.821896        -5.43826         4.12033
LJ          -1.99397        0.701859         4.44907
LJ            1.6452       -0.652584        -4.13526
LJ           1.34114         5.22138         2.33369
LJ         -0.821932         3.19121        -3.75598
LJ           4.89745         2.28283         5.98341
LJ          -3.39566         3.06975         2.36523
LJ          -3.10158        -3.28027        -1.02183
LJ          -0.84166         1.95316        -6.34833
LJ           4.62222         -5.3358         -2.1713
LJ           5.58947       -0.303329        0.621514
LJ            5.4813         6.45195        -3.31803
LJ           2.97911         4.09396       -0.451486
LJ           -4.0971         6.20375         2.09797
LJ          -1.91257      -0.0568901         6.38028
