108
#Comment!
LJ          0.189037        -5.92544         4.75382
LJ         -0.909671          6.3663        -4.78907
LJ          -3.88606        0.215177        -1.86224
LJ          -4.31601         6.41989        -3.28858
LJ           4.28566         3.56967        -4.02822
LJ          -3.27441       -0.625626         6.10126
LJ          -6.43152         4.32222         1.88569
LJ          -5.32671         1.49971         2.39999
LJ         -0.915483        -3.78972         6.25256
LJ           1.42935        -1.20135         3.77289
LJ          -0.79385        -1.81617        -3.17092
LJ           4.57695        -4.96704         3.73627
LJ          -4.98638         4.60365         4.35999
LJ          -5.11762         2.48396         5.95048
LJ          -4.94003         1.38783        -1.77839
LJ           2.13755        0.441088        -2.30439
LJ           3.88163         -1.9778         4.97399
LJ            2.6476        -4.04573        -5.29894
LJ          -6.25458        -1.98794        0.589284
LJ          -4.83902         1.29072        -5.93815
LJ          -1.34439        -3.82855        -4.67344
LJ         -0.575724         5.23709        -5.24926
LJ          0.835208        -5.26677         2.49129
LJ          -1.44942        -2.33034        -2.28908
LJ          0.878229         4.61761        0.879674
LJ           1.12442        -3.28683         3.09333
LJ         -0.245644        -2.60324         4.44572
LJ          -1.85409          3.8049         -2.3881
LJ           0.43944         -2.5116        -3.04031
LJ          -6.39997        -6.12506         1.32189
LJ          -2.87007        0.330396        -1.37689
LJ           4.91705       -0.937149        0.553992
LJ          0.154244        -2.85411         3.41911
LJ          -2.39433        -4.53186         6.44531
LJ           4.29713         -1.8528        -5.90259
LJ           5.13794         3.59481         5.84044
LJ          0.414205        -3.26375        -3.95044
LJ           2.76514         2.20609         4.53505
LJ           6.07771         1.02132         2.44497
LJ          -6.07652        -3.51055        -3.26061
LJ           5.53091        -2.09592         5.36964
LJ          -5.38652        -5.74476          3.2297
LJ           2.15273         3.84489         1.46394
LJ           4.62401       -0.989809         4.73868
LJ          0.910419        -5.49392        -3.63896
LJ           1.36858         2.55059          4.4529
LJ          0.110056        -5.38726         6.24491
LJ           5.28626         1.30277         1.38698
LJ           6.29771         5.72377        -1.71734
LJ          -2.16039         5.10688        0.948344
LJ           -5.2602        -1.28057         5.40453
LJ           3.01413         5.88321        -5.51188
LJ          -2.62908         1.10875        0.292895
LJ          -4.29256        -1.46983        -3.98302
LJ           1.22008        -4.36911        -6.11759
LJ           3.64166        -3.43918         1.08064
LJ         -0.498697        -6.01024        -6.12917
LJ            4.8865       -0.616626        -1.85418
LJ           3.64019         3.65219        -2.03651
LJ           5.51501        -6.13668         2.67587
LJ         0.0820707         2.43951        -1.11525
LJ           2.50312       -0.610474          -5.159
LJ         -0.080033        -6.05961        -4.71989
LJ          -5.36359        0.946925       -0.915018
LJ           2.45045        -3.64444         2.74252
LJ          0.354141        -5.26006       -0.701584
LJ          -5.63029        -1.81557        -2.86769
LJ          -2.74403        -2.03402         6.31621
LJ          -4.96905        -1.32668        0.774759
LJ           5.40839        -4.70377          3.1486
LJ           2.14221        -4.56567         4.93404
LJ           -5.8673        -3.62534         4.03754
LJ           5.85244         1.40258        -5.49276
LJ          -4.20076         3.59677        0.288948
LJ           4.75027        -2.94466        0.478462
LJ          -5.01411        -2.60037         2.30493
LJ          -2.61295         2.13487         4.90576
LJ          -2.32695        -0.43971         3.99517
LJ          -3.08566         1.48421        -3.38415
LJ           2.50844         1.74111        -3.13147
LJ          -1.74099        0.621978       -0.937931
LJ          0.414814         3.57739         4.75645
LJ           2.00655        -1.49157        0.558432
LJ           4.48766         5.53798        -0.89777
LJ           5.63017        0.337734          -1.604
LJ         -0.859852        -5.21713        -4.86312
LJ             5.735        -2.67739        -2.49769
LJ           6.09588         2.84051        -5.77985
LJ          0.132736         1.95903         4.23325
LJ          -5.22324       -0.811491        -4.66396
LJ           -2.2671         0.36035         4.93118
LJ          -3.39857         3.61438        -3.31597
LJ         -0.198321        -5.32187          -4.028
LJ           4.18791         6.27085         1.69957
LJ           -2.2165         3.84412          2.8507
LJ           5.84694         3.88575         4.93389
LJ           2.64881       -0.686289          -3.955
LJ           4.01116        -6.14571         6.31533
LJ           3.52665         4.08823         5.54505
LJ          -1.21385         1.44788         2.61894
LJ          -4.01773       -0.602213        -5.42045
LJ           -2.9943        -0.40372         1.55567
LJ           1.56599         4.92956         6.00263
LJ           2.78658       -0.910812       -0.380643
LJ         -0.189587        -2.88959       -0.772974
LJ           1.96379         6.45733        -5.78318
LJ           5.99259       0.0828512         1.74205
LJ           3.56215        0.557573           1.076
