108
#Comment!
LJ  0.32409401499695945   0.32074117839863292   -0.09757929907521426
LJ  0.11089644355009411   0.13279685296494403   -0.074952596489242046
LJ  -0.26839266315264332   0.10907338189741878   0.1680894409989255
LJ  0.11393246357798191   0.28942743100597323   -0.15395386677501885
LJ  -0.23272169174170348   0.20339288492204644   -0.426220349835984
LJ  0.17238863453622832   0.17645033234731114   0.38913939422863753
LJ  0.48029543150692477   -0.19156277861000254   -0.2881928502514573
LJ  -0.050070299169497845   -0.08727195843445841   -0.25518660452415809
LJ  -0.30730234257994998   -0.3954908542504717   0.35359607654213993
LJ  -0.10503063004995382   -0.1242029310058201   0.35699521395064576
LJ  0.1163821871163212   0.12850355648147896   0.36112171423366157
LJ  0.32801376898243878   -0.28989853638445146   0.0081957586037696775
LJ  0.46931406235460582   0.44369617814199003   0.16596386974788718
LJ  0.19339780394865733   0.25778312650542839   -0.35612187227108577
LJ  0.29490707244283848   0.31612960926728001   0.11862989522362116
LJ  -0.34980677588664577   -0.15435281350427954   -0.2298427702345798
LJ  0.28121665147463171   -0.15956866100014166   0.29628221088712658
LJ  0.37141890770309172   0.19274731599707717   -0.35230693536746854
LJ  0.42946684921730854   0.27274418026099262   0.33364880502491628
LJ  -0.37527105045732967   0.31530939000199321   0.14769355562726297
LJ  -0.31491259378311626   -0.17810508682975471   0.048961798918485476
LJ  -0.13290920983608484   0.36748958222770184   -0.2311714479869445
LJ  -0.14105561020393834   -0.47654292202050541   0.38093002993493102
LJ  0.13270287994714122   0.13462038525746431   -0.25082387277234169
LJ  0.0029260503902160452   0.12318869533600196   0.25100273838008785
LJ  -0.3733167388414067   0.05585194072444425   -0.20353250793927533
LJ  0.033446262041100211   -0.096707300784966629   0.069492385569635828
LJ  0.10576301024818978   0.41410320074906176   0.40335449384041017
LJ  0.24235592111156817   -0.28287483405977093   0.07056999743550238
LJ  0.20017204989337975   -0.11683084320020726   0.0055322220801986956
LJ  -0.13347102774699041   0.32633648136429627   -0.39138545180334322
LJ  -0.18469594233076655   -0.15456941349299172   0.13953592100259235
LJ  0.44342313567279046   0.10732349634224957   0.31598220116069214
LJ  0.02400860223826462   -0.39368398880189109   0.39011966940119724
LJ  -0.39281897634671187   0.35083000902254169   0.47446913105066735
LJ  0.037131976944818117   0.39413206154710589   0.34372768535464798
LJ  -0.0077127392021147535   0.37927959207979339   0.071893895812301989
LJ  0.1538225718199881   -0.16639208119492152   0.077191501822828981
LJ  0.03151143452615475   0.12559432725609249   -0.16062694976439576
LJ  0.0048381964436844185   -0.30024058210612153   0.22358483658221578
LJ  0.10078074191458157   0.21250793486840072   -0.16100759569801756
LJ  0.31742494737722965   0.47324352822364613   -0.21482960944845261
LJ  0.40232387491845012   -0.41522079378762694   -0.037995058311370872
LJ  0.15676744655968891   -0.16528119403936989   0.35217146558015083
LJ  0.39226343885372167   -0.15630651504248122   -0.21250247723270971
LJ  0.14950891925363796   -0.43977094737171663   -0.090843044855906246
LJ  -0.11724078790479055   0.13129109369610478   -0.16466614286675349
LJ  0.30200416809550729   -0.1638088813735106   0.43945148277176843
LJ  -0.087505402268885174   0.24176442365035894   0.13146856565133169
LJ  0.056947598114762688   0.0019214437764047039   0.27066950134391027
LJ  -0.48740299608513471   0.227539944954153   0.16385377464834447
LJ  -0.37879685003262442   -0.19398624609463849   -0.077981109436372695
LJ  0.4481082151535225   0.28739248647789367   0.25465508674041976
LJ  -0.061774555507623952   0.13725301743878518   0.048736191095437212
LJ  0.31005211871242955   -0.44068269467264637   -0.19697891402201775
LJ  0.14060555374652878   0.16044883405159088   0.23185453038150414
LJ  0.023622866505014301   -0.086866455678282925   -0.015415643244204311
LJ  0.16216301329671007   0.46067390399570318   0.48972482418830016
LJ  0.34769581604372102   0.3243266967834571   0.30775558980192352
LJ  0.44118784155922242   0.2651996286373095   -0.3525471064312265
LJ  0.26158710000084445   0.02076210264952693   0.13908228345485732
LJ  -0.24392363228434899   -0.49897521191768662   -0.27038881797672198
LJ  0.12245381295604575   -0.19473097928914476   -0.26459843231093322
LJ  -0.25277037351250897   -0.45762181730769852   0.33598905907558124
LJ  -0.23786395302825505   0.3136580756050889   0.085666557618611264
LJ  0.21256836076286797   -0.14132749842026815   -0.072794088368244483
LJ  -0.22180536421681704   0.13535041773060497   -0.19903520745116365
LJ  0.097939398152702237   -0.24548952599277257   0.11492024343258642
LJ  -0.4862157593506109   0.24370251828055972   -0.47583208041441161
LJ  -0.46947973751842165   0.14492723261402796   -0.16999987424614341
LJ  0.27422899111038646   0.41239850196525868   0.48695335013931534
LJ  0.054113386456188177   0.23278240614861351   -0.081969268712557081
LJ  0.23565644885534523   -0.098630367968020022   0.10122184052628869
LJ  0.17381686928832152   0.16085927270473221   0.30426879368593007
LJ  -0.090436956972830398   0.40544565341736477   -0.0028997532554026944
LJ  -0.31521121145088921   -0.3016686913976061   -0.3940006211475508
LJ  -0.35445006771741605   0.27178356679690041   -0.41790943542478093
LJ  -0.202608155826139   -0.24449756574424666   -0.37166837347494691
LJ  0.32906995404075279   -0.12201089950456336   -0.40502477265963643
LJ  0.28697394174522545   -0.076695830689991057   -0.22646609180890453
LJ  0.30020134032001805   0.22589292258899327   0.089116124643311992
LJ  0.49472427425218329   0.18922286599484536   0.2508150938914972
LJ  0.22500959458323888   -0.44701963605287171   -0.18159450791417633
LJ  -0.10142108616249404   0.39664666798641735   0.18069295327131685
LJ  -0.20622191997247064   -0.36511608826162134   0.21280695802402488
LJ  -0.44350312400253494   0.47207468937469593   -0.12723654481253088
LJ  0.16822684976351313   0.13067611486584751   -0.35443073173338924
LJ  -0.37454466074108417   0.37260590959031736   0.36068801732620659
LJ  0.082419872286167983   0.49341807937799642   -0.074254680998516134
LJ  -0.34113618829878051   0.43609679965176984   0.30792531336388268
LJ  0.21899332177350575   -0.40959272995052237   0.053915958629151467
LJ  -0.26924008939012856   0.47854974134874462   -0.020944190279516123
LJ  -0.36862114362871723   -0.25499878166662215   -0.018088770021072412
LJ  -0.32297440811169748   -0.19871519642195598   0.2258624234477791
LJ  0.39946306281897098   -0.14345571247992284   -0.28943475536236662
LJ  -0.30224546168937577   0.044893520462421427   0.026975332932178759
LJ  0.080483090604284616   -0.41048106457601619   -0.049827944186982276
LJ  -0.47050706360822553   0.33362056898976822   -0.24516131866316429
LJ  0.12896790850946055   -0.22752596240719589   0.0057625408201841559
LJ  0.43563776893026523   0.38414470623483105   0.22156421342210592
LJ  -0.25432601910821478   -0.1599401334637259   -0.16840858197306641
LJ  0.40405469031405999   -0.22759136771017094   -0.3692311110254029
LJ  0.10326928103613026   0.45237915322928735   -0.42451678492610401
LJ  -0.31732084676191069   -0.30758387953278948   0.41457610028809572
LJ  -0.3878317791078072   0.47971777219965167   0.2447684519262516
LJ  -0.16761502020563648   0.22058120109261312   -0.48708863486058979
LJ  -0.27734837811644059   0.38734261010946264   -0.17698256750349309
LJ  -0.45731097723931979   -0.036752942563028294   0.016834954213370983
