108
#Comment!
LJ          -5.72634         2.97936        -4.68782
LJ           1.25665         2.13201        -1.00094
LJ           -3.3892         1.84935         2.38369
LJ           1.52052         3.37873        -1.92253
LJ          -3.04436         1.52015        -3.89182
LJ           3.37274          2.4117         5.90712
LJ           6.05823        -3.81498        -5.20627
LJ          -1.02142       -0.358004        -2.15875
LJ           -3.2554        -3.87683        -5.12203
LJ         0.0858043       -0.507215          2.9903
LJ           1.40009         1.41969         1.51372
LJ           6.05173         -1.4391         1.60199
LJ          -4.93566         3.65221         0.75965
LJ           1.33549         1.06087        -1.22381
LJ           1.55491         3.44776        0.349037
LJ           5.50387        -2.01707        -2.27833
LJ           2.73578         1.34579          3.2035
LJ           3.33863        0.364554        -1.44202
LJ          -6.08212         3.62583         4.58715
LJ          -4.41614         3.71056         2.54929
LJ          -3.34901         -2.5995        0.198228
LJ            -3.182         4.16606       -0.105048
LJ          -1.86697        -2.39105         3.10421
LJ        -0.0711307         2.00964         5.46954
LJ          0.748921         3.18739         1.94759
LJ          -2.44565      -0.0824834        -1.31272
LJ           2.26096         -4.2249         2.85361
LJ         -0.997685        -6.42204         2.07787
LJ           2.07002        -1.20233       -0.212048
LJ           2.50355        -2.01619         1.27541
LJ             -1.37         2.64518        -4.74016
LJ          -4.41157        -2.13805         1.30621
LJ            5.9518        -0.11228         4.33794
LJ          -1.07913        -5.67221         2.71597
LJ           -5.2332        -3.70825        -4.56086
LJ         -0.426731         2.66773          4.5679
LJ           1.92483         4.21529       -0.589943
LJ            1.9371        -2.89188        0.943024
LJ         -0.939516         1.36736        -1.86302
LJ             1.822        -4.93344         2.13444
LJ           1.79471        -2.28324        -2.01565
LJ           3.76186        -6.14211        -1.02137
LJ           4.11697         5.50376        -1.36887
LJ           1.40027        -2.39917         5.94073
LJ           3.17059        -6.29106        -3.04925
LJ           2.02295         5.88865         -2.4072
LJ        -0.0888034         5.44628         -4.6306
LJ           1.70352        0.956332        -6.19052
LJ          -2.42761         4.48069         2.54199
LJ           1.64021        -1.86001         3.34048
LJ          -5.66737         3.43643         1.50302
LJ          -4.19983          -2.423        -2.37386
LJ           6.26082         2.71911         2.79767
LJ          -1.02403         4.61387       -0.976213
LJ           -4.0788         5.41419        -2.26531
LJ           3.25699         -1.1303        0.816151
LJ          0.174524        0.433699         1.99167
LJ         0.0494543        -5.06307        -6.29643
LJ          -5.31863         4.45446         5.26038
LJ            3.5004        0.349891        -2.78355
LJ             5.439         0.73562        -1.09364
LJ         -0.540592        -4.21982        -4.06595
LJ           1.54814        -3.59491         6.25047
LJ          -2.01114        -3.34366         4.09232
LJ          -5.93833         4.94144         1.85805
LJ          0.686793       -0.767006       -0.171286
LJ          -1.96913         1.08879        -3.72443
LJ           0.79972       -0.959042        -1.28455
LJ          -5.58909         2.52152        -5.53866
LJ          -4.65803         1.62835       -0.113162
LJ           3.33184        -4.58162         -3.0257
LJ          0.233909         1.63734       -0.959238
LJ           3.16171        -2.82579         1.55389
LJ           4.54344         1.98329         5.84909
LJ           -3.0843        -5.25121         1.94954
LJ          -5.67464         -2.8449        -5.65889
LJ          -3.06961         1.39967        -5.82803
LJ          -1.64688        -2.40649          5.3054
LJ           4.85463        -1.53342         6.14378
LJ           5.78441        -1.27168        -3.03553
LJ           1.75803         4.47545         1.14131
LJ           6.41293         4.04484         3.68595
LJ           2.38528         5.91837        -3.42261
LJ          -2.81022         5.30016          4.5925
LJ          -4.63524        -6.05182         2.99526
LJ           3.14965        -4.43265          1.1609
LJ           2.41411         2.69022        -3.42203
LJ          -4.65516         6.24814         5.46169
LJ           2.45378        -6.04371       -0.709279
LJ          -3.45796         4.21738         4.22725
LJ           2.64403        -5.58018        0.288071
LJ          -1.92353        -5.12841         1.19094
LJ          -3.22911        -2.52859        -2.84912
LJ          -4.52693         -1.7462         3.82261
LJ          -5.65099        -4.86292        -2.12761
LJ          -6.27462         0.29736        0.448958
LJ             2.001         5.88291        -1.19888
LJ           -5.8905         5.20193        -3.76197
LJ           -0.9706        -4.67551         -1.0669
LJ           5.84708         1.70089         2.44895
LJ          -3.32545        -1.54923      -0.0371006
LJ           5.66252         -0.6426        -6.32165
LJ           2.07296         6.21295        -6.36679
LJ           4.74701        -5.10813        -5.35183
LJ          -1.25323         4.30337         1.29424
LJ          -2.50112       -0.101199        -2.58443
LJ          -4.13439         5.86067        -3.84186
LJ           4.78696         4.29513       0.0640785
