108
#Comment!
LJ           -5.3877          3.0447         -4.5853
LJ           1.19033         1.89044       -0.924846
LJ          -3.39121         1.95098         2.41583
LJ           1.61396         3.69246        -2.08266
LJ          -2.76668        0.891992        -3.81396
LJ            3.7547         2.35164         5.99739
LJ           6.10029        -3.81512        -5.34145
LJ          -1.22262       -0.106458        -1.94391
LJ          -2.89226        -3.51169         -4.6863
LJ          0.384823       -0.277336         2.63238
LJ           1.70998         1.82178         1.05477
LJ             6.357         -1.0179         1.86289
LJ          -4.41937         3.31911         0.64094
LJ           1.02724        0.656605       -0.532522
LJ            1.4497         3.85045      -0.0560363
LJ           4.97057        -1.99295        -2.21133
LJ           2.54496         1.94236          3.0768
LJ           3.09464        0.008758        -1.09402
LJ          -5.76034         3.94436         4.49079
LJ           -4.2244         3.74421          2.3463
LJ          -3.25407        -2.52136        0.286798
LJ          -3.72507         4.05282         0.49841
LJ          -1.99851        -2.12018         2.50242
LJ        -0.0974155         1.70196         5.20047
LJ          0.911169         3.47179         1.62072
LJ          -1.96388       -0.229504        -1.31191
LJ           2.72481        -4.57248         2.97396
LJ          -1.01439        -6.16221         1.62035
LJ           1.92968       -0.971964          0.1692
LJ           2.67446        -2.05609         1.08089
LJ          -1.22669         2.22833        -4.76582
LJ          -4.91135        -2.46096         1.51703
LJ           5.94904       -0.420058         4.42106
LJ         -0.785024        -5.28233         3.00201
LJ          -5.58887        -2.94399        -4.15795
LJ         -0.785756         2.64441         4.10571
LJ           2.06264         3.90238        -1.00994
LJ            2.2746        -3.13715        0.747182
LJ          -1.09235         1.24393        -1.82692
LJ           2.13168        -5.27826         2.21256
LJ           1.62515         -3.1736        -2.65864
LJ           3.59029        -6.09903       -0.618986
LJ           3.86589         5.38917        -1.57956
LJ           1.21684        -2.66961         6.19412
LJ           3.30016         6.19792        -3.14412
LJ           1.68321         5.26643        -2.56963
LJ          0.151327          6.2384        -4.99371
LJ           1.40376         1.57014        -5.95242
LJ          -2.63429          4.8437         2.71737
LJ           1.46499        -1.95525         3.89182
LJ          -5.59757         3.67626         1.52179
LJ           -4.0134        -2.47463        -2.60924
LJ           6.24112         2.61993         2.77748
LJ         -0.637157          4.9774        -1.21567
LJ          -3.44775         5.05048        -2.09563
LJ           3.66034        -1.51508         1.18252
LJ          -0.43923        0.526556         2.41335
LJ         -0.254606         -4.7809        -6.20376
LJ          -5.02917         4.04863         5.30106
LJ           3.05992        -0.19832        -2.24953
LJ           5.79069         0.81299        -1.59713
LJ          -0.07951        -3.83009        -4.16988
LJ           1.52057         -3.6287         5.59298
LJ          -1.75002        -2.95304         3.58866
LJ           6.42304         4.82366         1.94535
LJ          0.445898       -0.987817       -0.464718
LJ          -1.64216         1.06934        -3.23592
LJ          0.610964       -0.346885        -1.67476
LJ          -5.33704         2.05019        -6.11792
LJ          -4.41385         1.58286        0.269915
LJ           3.25755        -4.10922        -2.34361
LJ          0.204617          1.2955        -1.01248
LJ           3.22622        -3.20075         1.22197
LJ           4.76261         2.03296         6.26023
LJ          -3.60232         -4.9242         1.80248
LJ           -5.2564        -3.09684        -5.56859
LJ          -2.96618         1.33096        -6.15816
LJ          -1.37739        -1.87745         5.54443
LJ           4.42151        -1.01463         5.47635
LJ           6.16114        -1.35258         -2.8257
LJ           1.21867         4.36008         1.39292
LJ           6.08526         4.11815           3.758
LJ           2.11369         5.70252         -3.6528
LJ          -3.07685         4.89028         5.01338
LJ          -5.41803        -6.05219         2.85014
LJ            2.5694        -3.88602         1.99164
LJ            2.3744         2.90578        -3.08324
LJ          -4.35389        -6.27176         5.59441
LJ           2.57111        -6.20822       -0.875165
LJ          -3.26978         4.14035         4.26237
LJ           2.48094        -5.61279        0.543182
LJ          -1.74678         -4.5339          1.6253
LJ           -3.0127        -2.25573        -3.29961
LJ          -4.47754        -1.95169         4.34838
LJ          -5.19869        -5.40457        -1.80364
LJ           6.14908        0.591085       0.0585134
LJ           2.50181          5.5688        -1.57359
LJ          -5.73423         5.47452        -3.87608
LJ          -1.41713        -5.00526        -1.33301
LJ           6.21655         1.30643         2.96408
LJ          -3.24323        -1.30016       -0.182515
LJ           5.60748       -0.475833        -6.40471
LJ           2.16742         6.34892         6.37497
LJ           4.00755        -5.47121        -5.12387
LJ            -1.046            3.26        0.964661
LJ          -2.76766       -0.686807         -2.0454
LJ          -4.29965           6.023        -4.54668
LJ           4.43063         5.12383        -0.25239
