108
#Comment!
LJ           1.71027        -6.43745        -3.17679
LJ           -3.4859         -3.4822        -4.95024
LJ           -5.0727         1.34958         1.84011
LJ           2.47571        -4.17018        -3.84659
LJ          -2.11466         3.61391         3.77202
LJ          -4.34292       -0.313676         6.10669
LJ           2.74257         -2.5388         4.67284
LJ          -2.06735         2.07675        -3.14013
LJ          -2.36223        -6.30155         6.27533
LJ           5.28992        -2.45864        -2.98942
LJ          -1.44594         4.16645        -1.37107
LJ          -1.03884        -4.13955        -1.41733
LJ          -3.93864        -6.18702        0.636891
LJ           3.26473          4.4644        -3.99752
LJ          -3.84273        -4.68876         2.04792
LJ          0.728395         1.93517       -0.292012
LJ          -1.20754        -1.69796        -3.43661
LJ          -3.69912       -0.641618         1.09382
LJ           -4.1112       -0.190304          2.0797
LJ          -5.85696        -2.39552        -5.91944
LJ         -0.970852         3.62763          4.8974
LJ           5.00066         4.50232       -0.819387
LJ            1.6348         2.42109         1.07233
LJ        0.00560674        -4.15732         3.19819
LJ          0.276212        -6.13524         1.42334
LJ           1.02815        -2.01373         1.60921
LJ           5.27799         -1.4075        -6.08473
LJ         -0.571831         1.17225         5.47349
LJ           1.49366        -5.32806         4.74876
LJ          -1.50006        0.968487         3.34864
LJ          -1.33346       -0.789781         6.44823
LJ           1.84541        -4.79811         -2.8518
LJ          0.455677         5.76934        -4.61341
LJ        -0.0941955        -5.49329         6.11214
LJ           5.10109        -5.59879         6.13562
LJ           6.26558         2.61415         5.51037
LJ          -3.87035         1.33872         5.99329
LJ          -1.34104       -0.439723         1.54303
LJ          -4.33026         6.44497        -3.11379
LJ          0.180818        -6.35848        -6.32624
LJ           2.83543        -1.15023         2.44288
LJ          -1.59363        -3.18452         3.14052
LJ          -4.67209         5.23031        -3.27853
LJ              1.65        -1.67294         3.41985
LJ          -2.07217         2.66858        -5.82656
LJ          -2.82608         1.31506        -6.02102
LJ          -1.68878         5.07827         -5.9957
LJ           4.85017        -3.20375         5.42931
LJ          -4.73777        -3.77866        0.924546
LJ          -4.66431         -3.1288         2.12828
LJ           -6.4287        -4.79136        -5.88986
LJ          -2.84284          5.0843         4.88969
LJ         0.0945402         2.24977        -3.23895
LJ        -0.0565674          4.8355        -1.28885
LJ          0.335935        0.547798         3.35404
LJ          -5.13932        0.578673       -0.654513
LJ          -4.48233        -6.04947         4.83303
LJ          0.508797       -0.291648        -4.51167
LJ           1.28747        0.953523        0.564598
LJ          -2.64193        -4.62356         3.69978
LJ           -5.8855        -1.92052       -0.394701
LJ           1.88527        -1.97464        -2.75567
LJ           6.42423         4.73665        -3.21559
LJ         -0.908369          1.9439        -2.02566
LJ          0.303811         -4.3278        -1.65724
LJ           5.78546         2.75554         6.39307
LJ          -6.07369        -1.60897        -3.75349
LJ           4.59121        -3.86319        -4.74992
LJ          0.589903        -4.49066         4.89285
LJ           2.11781        -3.04358         6.28752
LJ         -0.262948        -1.77928         -2.2072
LJ          -5.30825        -1.43706        -2.10594
LJ          -4.86339        -6.22766        -0.25224
LJ           2.01003        -5.50804       -0.835939
LJ          -4.56249        -5.12761          5.7363
LJ           5.47761        -4.69739        -1.94459
LJ          -4.90614        -5.29375        -3.30016
LJ           5.19254        -3.77405        -1.21537
LJ           4.80452         5.01761          -2.781
LJ           4.30935       -0.186933         4.62324
LJ          -2.67687         5.63528        -6.10918
LJ            4.8368       -0.826638         5.79746
LJ          -3.97221        -3.69086         1.65689
LJ         -0.759783         -2.8798         -1.6334
LJ          -5.90971         4.96635         -4.8207
LJ            5.8931         5.66437        -3.15585
LJ          -1.16743       -0.250687        0.294992
LJ           4.73729         6.07876        0.518382
LJ           1.18468         -3.4249        -2.72188
LJ          -1.23744         -2.3562         6.02952
LJ          -5.25868         2.06856        -2.85551
LJ           -2.6789        -6.39974        -5.04815
LJ          -2.29785      -0.0229173         1.96404
LJ           3.72018         -2.3482         5.33472
LJ           2.59253        0.467489          6.3219
LJ         -0.525022        -5.01161        0.160226
LJ           1.54043       -0.195443        0.650704
LJ           3.49995         2.89315        -1.95369
LJ           1.64891        0.335621        -4.06331
LJ          -2.58927         2.29031         1.94434
LJ          -5.77125        0.523901        -1.82019
LJ         -0.930127        -5.10817        -6.04243
LJ          -6.15029      -0.0925087       -0.231306
LJ          -2.89635         6.09842       -0.589038
LJ           5.84794         4.27735       -0.190393
LJ          0.318397        -3.12959        0.508506
LJ          -2.79775        -3.44424         1.22079
LJ           1.94037       -0.302388         -5.2562
