108
#Comment!
LJ          0.203636         3.40969        -4.76469
LJ          0.276373        -2.47333         6.27501
LJ           2.46482          2.8086       -0.157897
LJ           5.22632         5.02432        -4.18104
LJ           5.22221        -2.18801        -1.24991
LJ           5.01944        0.503294        -4.76377
LJ          -4.55104        -3.11344         5.71709
LJ           1.35104         0.35364         2.73208
LJ          -3.58711        0.528764         3.67605
LJ           -1.0062       -0.101248       -0.981898
LJ           4.02758       -0.190065        -4.85978
LJ           -5.1662         2.35817        -6.13435
LJ           3.06835         -2.1648          2.1329
LJ            5.2543        -5.03181          -4.905
LJ           3.02392       -0.173596        -1.75456
LJ          -2.47301        -4.43992        -1.80229
LJ           2.67384        -4.09269         2.23287
LJ          -1.67231       -0.632798          5.1401
LJ          -3.42801        -5.01856         3.20885
LJ          -5.14203         1.74725         5.81253
LJ          -4.14511       -0.911424         3.69004
LJ           6.42686       -0.773113        0.999094
LJ          -4.77972         1.07206        -6.40018
LJ           2.44878       -0.806162       -0.965112
LJ         -0.282187         1.75559         6.22705
LJ          -1.75158         1.50766        -4.86705
LJ           1.59653        -4.68143         3.13339
LJ           1.17964          4.8833        -3.73132
LJ         -0.840937         -1.3546         2.24319
LJ           2.29233         4.93526        0.798726
LJ          -1.39897         6.03363        -5.26297
LJ           2.46313        -6.41952         3.02279
LJ           4.85036        -4.67075        -5.87829
LJ          0.348118         1.87891        0.914951
LJ          -1.40599           6.127         3.70614
LJ          -4.25254         3.89786       -0.147257
LJ         -0.847871         5.11996        -5.16663
LJ           4.17729        -5.79974       0.0602268
LJ           2.88529        0.023878         3.69075
LJ           5.06042        -5.88168         3.84459
LJ           -1.1994       -0.941319        -1.65372
LJ            4.5145        -4.31492         4.27842
LJ           5.41957        -5.98141       -0.946512
LJ           1.80188         1.45941         5.76854
LJ           3.96724         1.69484        -4.40097
LJ           2.32545         4.12123         4.91296
LJ           -1.6365        -5.19489        -5.33684
LJ         -0.848913          5.5159        -6.33629
LJ           4.98629          5.9654         3.99594
LJ          0.485576        -5.83569        -1.22748
LJ          -3.37182        -5.28849         4.51213
LJ          -4.70652        -3.69768        -5.33904
LJ          -1.78357       -0.780916        -6.14141
LJ           6.44788        -5.21654        -4.66089
LJ           5.69754         -2.7073        0.202781
LJ          -5.77048        -6.10767         2.12071
LJ           2.29114         3.93926         3.43233
LJ           2.59201         1.35291        -6.35401
LJ          -1.90628         2.78014          3.1899
LJ          -2.71015         4.61209          4.6823
LJ         -0.438767        -3.23779        -4.56353
LJ          -5.89034         1.95581        -5.43223
LJ           -6.3873        -5.00815         2.18198
LJ          0.449838        -6.07538        -2.72697
LJ          0.363073         4.74917         4.82037
LJ            2.0206         -1.2843         -4.3599
LJ           1.43458        -1.48069        -6.02412
LJ          -5.10459         2.89143          5.6374
LJ          0.498813        -2.06289        -2.99738
LJ           -1.4648        -5.36794         5.56489
LJ         -0.239059        -6.10017         2.48414
LJ           3.10741        -1.01811      -0.0513695
LJ           3.57514         5.46227         3.18538
LJ          -4.92164         2.60264        -2.40508
LJ          0.447632          1.9259         3.01048
LJ          -2.08393        -6.29758        -4.48321
LJ          -2.25855       -0.593776         1.14643
LJ           1.62038         -6.2915        -5.85499
LJ           -1.8901         5.09598        -2.97531
LJ          -3.83662        -1.90667        -1.10565
LJ          -1.94091        -5.67306         4.50122
LJ           5.77063         4.82266         5.04381
LJ          -1.88265         5.81666         6.45837
LJ           -3.1792         2.39004        -5.37869
LJ           4.86239        -1.32724        -4.42986
LJ          -4.27269        -2.27364         1.14336
LJ           2.43195         6.01675        -3.65496
LJ          -1.25566       -0.186138        -3.98091
LJ          -2.04006        -4.01739        -4.11366
LJ          -2.93715         3.48956         2.70903
LJ           4.92014        -4.92623         2.42944
LJ            1.8501        -1.53028       -0.229666
LJ          -2.50759       -0.208032         6.17143
LJ          -2.57541        -6.41236        -1.90696
LJ          -1.54295          3.2385          4.1615
LJ           1.75556         1.68258        -2.63236
LJ           1.47846         2.26789         6.21951
LJ          -1.73088        -1.64025        -4.15865
LJ             4.547         2.48137        -5.37752
LJ          -3.90422       -0.559959         -3.2714
LJ           5.27953        0.923342         1.34694
LJ           4.65093         2.07434         3.26955
LJ           3.62231        -4.20316         2.59432
LJ           6.34219         6.14758         4.39578
LJ          0.823817       -0.127127          0.1893
LJ         -0.167873        -2.78488        -3.73236
LJ            5.0293         5.78483       -0.246952
LJ           1.40913        0.034327         4.98244
