108
#Comment!
LJ         -0.637244         5.96611        -6.30128
LJ          -3.82606        -5.80538        -3.08329
LJ          -3.47733        -1.16368       -0.669451
LJ           4.15431        -2.99798        -4.57749
LJ         -0.483102         4.03226         4.92059
LJ          -4.14207        -1.58416        -6.44916
LJ          0.273972        -2.13538          5.8398
LJ          -3.81936         1.38588         1.24396
LJ         -0.211297        -5.86766         -6.0779
LJ           2.75558        -2.51149         1.81151
LJ         -0.625758        -5.97685        -2.41544
LJ        -0.0391518        -1.33631         2.44796
LJ          -3.84293        -2.28012         3.49196
LJ          0.360272         3.66754        -5.36584
LJ          -6.05323        -2.81086         1.28356
LJ          -1.48086         5.07933         2.12547
LJ           1.69112       -0.282018       -0.981558
LJ          -3.89613       -0.629214        -3.01027
LJ           4.81471        0.323386         2.40268
LJ          -3.94162        -3.65489          3.3361
LJ          -2.73753         4.68176         5.91262
LJ          -5.87632          5.8728        -1.66174
LJ           1.42433         3.31124         3.75701
LJ           -4.3091        -5.13691        -0.63486
LJ          -0.37514      -0.0359268       -0.965949
LJ          -2.19054        -4.27586        0.402605
LJ             3.291           -4.87         4.69435
LJ           4.84239         1.47836         4.28763
LJ          0.374827        -3.61831         3.89249
LJ           1.02593         2.61669        0.346766
LJ          -1.87862        0.447898         -5.7655
LJ          0.187457         6.31538        -5.56646
LJ          0.785138         5.12408        -6.37595
LJ            1.8188        -3.64429         6.14481
LJ          -3.71959           6.077        -5.79751
LJ           5.11885         4.97992         4.87314
LJ           5.10489        -3.40714        -2.96728
LJ         -0.681368       -0.838101         1.16466
LJ          -3.88461        -5.69396        -1.47043
LJ         -0.549223        -4.47113        -5.24629
LJ           4.69408         2.60034         3.85818
LJ          -0.71871         4.95459         3.10598
LJ          -6.09241         5.21647        -3.11629
LJ           1.08438        -2.22179         2.29456
LJ           -2.8998         5.17782        -4.54582
LJ          -1.46412         3.18929        -4.18969
LJ           5.76024        0.405479         3.65575
LJ           6.29308        -1.37292         5.69744
LJ          0.299174        -2.23928        -2.20295
LJ          -4.12837       -0.472985         2.39515
LJ           6.45413        -5.76634        -4.77437
LJ         -0.167737         3.60671         3.61909
LJ          -2.62725         2.13208        -4.29277
LJ         -0.594972        -5.75539        -3.75556
LJ          0.644307        -3.17513         5.27609
LJ          -4.21278        -3.36335     -0.00894639
LJ          -5.65653         4.70978        -4.23812
LJ          -2.77331        -2.00016        -4.69292
LJ           3.63304        0.321423         1.92193
LJ          -5.18929        -4.85747         2.94669
LJ           5.83063        -5.56791         2.17368
LJ           2.30559         4.63792          1.7888
LJ           5.75481        0.743258        -3.63531
LJ         -0.886416         1.36101        -1.62183
LJ          0.446767        0.629471        -1.28572
LJ           4.39961         5.80734         6.44914
LJ          -5.43212          3.2825        -5.85377
LJ           2.99702        -4.37225        -4.24505
LJ           1.46187        -3.80178          3.9719
LJ           2.97153        -5.78969           5.516
LJ           1.03255       -0.771574        0.873672
LJ          -5.44354        -2.51941       -0.982976
LJ          -1.56886         5.28284         0.63738
LJ            3.8083        -6.13786        -0.98661
LJ          -2.64477        -1.55814        -5.90832
LJ          0.743762         6.22802        -3.70579
LJ          -3.23899         6.24606        -1.21994
LJ          -6.31234       -0.821734        -3.47155
LJ          -5.42337         4.84562        -1.16272
LJ           5.21646        -2.49704         6.10115
LJ          -3.19808        -4.22197        -2.46727
LJ            3.3359         1.57812         5.69781
LJ          -6.19825        -6.37029       -0.872914
LJ          -4.26681        -4.20798        -3.25451
LJ           5.92482         4.93372         6.28743
LJ           4.25065         6.22857        -4.05636
LJ           6.21032         2.33882         2.98303
LJ           2.76773        0.514696         -1.0883
LJ           4.11328        -2.69238       -0.442246
LJ          0.130011        -1.76708         4.53014
LJ          -3.55375         1.92004       -0.467571
LJ           -1.3972         6.38493         6.10186
LJ         0.0748103        -2.48419         1.88044
LJ           1.85122        -4.87264         4.14633
LJ         -0.834988        0.753846         5.04362
LJ           1.34525        -1.56107        -3.09133
LJ           1.43922        -5.96715          1.9263
LJ         -0.359493         2.88469        -3.43623
LJ           4.26027         2.17585         6.44679
LJ          -2.95225         3.25374         2.63919
LJ          -4.05572        -2.41733          -1.678
LJ         -0.894427        0.128679        -6.16062
LJ           5.51956        -4.16015         -1.8724
LJ           3.28112         1.55227        0.174598
LJ           5.37106        -6.14939        -2.11305
LJ           2.34057         5.87268        0.176211
LJ           -4.3405        -4.91049         1.38003
LJ          -0.32865       -0.776295        -6.25787
