108
#Comment!
LJ         -0.698176         3.37614        -4.51073
LJ          0.390104        -2.37834         4.99761
LJ          0.921187         2.92088       0.0276135
LJ           4.23286         5.35205        -4.11495
LJ          -6.37106        -1.91976        -2.19547
LJ           5.24648         1.13597        -4.95533
LJ           -4.8697        -3.23399         5.96348
LJ           1.42352        0.399641         1.45218
LJ          -3.12187       -0.283567         2.34488
LJ         -0.543571        0.905808        0.572985
LJ           4.00207        0.695755        -4.00761
LJ          -5.31132         2.28486         6.24683
LJ            4.1921        -1.27618         2.00841
LJ           4.24662        -4.42353        -5.82544
LJ           3.00103        -1.48275         -1.7327
LJ          -1.45473        -3.20693        -1.23139
LJ           1.51585        -3.91496         1.43046
LJ          -1.40191        -1.70321         4.16259
LJ          -3.68021        -5.22889         3.10017
LJ          -5.05051          2.1818         4.50568
LJ          -4.13014       -0.507579         3.25313
LJ          -6.18567        -1.69509         1.02387
LJ          -4.72724       -0.228171         4.90022
LJ           1.45361        -1.11922         -2.2596
LJ        -0.0910024         1.67377        -5.36729
LJ          -1.99076        0.866639        -4.17078
LJ          0.805005        -4.61064         3.33955
LJ          0.555805         5.88373        -3.67939
LJ         -0.543814        -1.42016         1.33826
LJ           3.06026          5.9245        0.629036
LJ          -1.28387        -5.44122        -5.54974
LJ           2.80451         6.27633         2.85578
LJ           5.32959        -3.86956         6.39481
LJ          0.392238         1.42306         1.15525
LJ          -2.78363         5.07559         2.70634
LJ          -3.90152         3.92588       0.0462998
LJ          0.173443         5.00602         -4.1276
LJ           4.02528        -5.20331      -0.0591416
LJ           2.77353        0.550345         2.85102
LJ           4.32619        -5.70517         3.36392
LJ           -1.5525       0.0797945       0.0575955
LJ           3.21743        -4.86721          4.0724
LJ           4.95176        -6.20245       -0.925115
LJ          0.876646        0.136753         6.27683
LJ           3.76097         2.30108        -4.28198
LJ           1.82679         3.87645         6.06104
LJ         -0.182225        -5.37985        -4.34624
LJ         -0.458982          5.7132         -6.1127
LJ           5.44213         6.24289         3.92446
LJ          0.292515        -6.18816        -1.65673
LJ          -3.68558        -6.26583         4.17121
LJ          -4.24797        -3.26854        -4.57771
LJ          -2.69643       -0.833273         5.93259
LJ           5.44879        -5.36697        -4.21441
LJ           4.99473        -1.22169        0.164215
LJ          -6.35762        -6.41625         2.09584
LJ           3.67871         3.27261         3.55892
LJ           1.77694         1.16229         6.32886
LJ          -2.08217         2.08649         3.48793
LJ          -1.89516         5.55731         4.13247
LJ          -1.25896        -2.07645        -5.20709
LJ           6.42317        0.683215         -5.3932
LJ           6.21125        -5.03173          3.0273
LJ         0.0433029        -5.45995        -3.17955
LJ          0.821817         3.69367         4.05636
LJ           2.17419       -0.891526        -3.91058
LJ         -0.252934        -2.03171        -5.14848
LJ          -3.65839         2.93033         6.19415
LJ          0.119126        -2.64709        -1.29987
LJ         -0.796544        -4.71639         4.63088
LJ          0.541514         5.35373         1.96684
LJ           2.87486       -0.685771       -0.168051
LJ           4.34604          6.1844         2.78112
LJ          -5.34627         2.48743        -2.90775
LJ           1.37357          0.4408          2.7483
LJ          -2.41019        -6.24627        -4.43693
LJ          -1.27786       -0.487137         3.01205
LJ           1.19109         5.37166        -4.63422
LJ         -0.579673         5.86826        -2.01571
LJ          -3.88935        -2.00408        -1.65564
LJ          -1.53339        -5.03698         3.50135
LJ           5.77569           4.649          4.9625
LJ          -1.62587         5.20298        -6.11395
LJ          -3.71505         2.21325        -5.20884
LJ           5.03118       0.0251473        -2.91704
LJ          -3.72221        -2.38328         1.48195
LJ           1.80874          4.9509        -3.64389
LJ          -1.18586       -0.624337         -4.4656
LJ          -1.47338        -4.64472        -4.00434
LJ           -3.0203         2.75456         3.98415
LJ           4.80622        -4.51694         2.80234
LJ           1.32768        -1.31408        0.710231
LJ          -2.59963        0.749563         5.80009
LJ          -2.75134        -6.00293        -2.57102
LJ          -1.02057         3.22857         3.14351
LJ           2.16139         1.61865        -2.58052
LJ           1.30521         3.00135        -6.42971
LJ          -1.81476        -2.39563          -4.223
LJ           5.41307         3.23656        -4.68586
LJ          -4.25027       -0.333373        -4.34193
LJ           6.42157         0.49759         1.42444
LJ           4.73556         1.52361         3.84163
LJ           3.73197        -4.21994         2.99351
LJ          -5.10031         5.55022         2.81254
LJ          0.627464        0.888754        0.344632
LJ          -0.13871        -3.28813        -2.21138
LJ           5.88488          6.4308        0.398959
LJ          0.748452       -0.385063         5.09256
