108
#Comment!
LJ         -0.213573         3.37469        -4.64188
LJ          0.325375        -2.44115         5.67079
LJ            1.7567         2.86593      -0.0761265
LJ           4.76858         5.17606        -4.14991
LJ           5.83846        -2.06539        -1.69599
LJ           5.07337        0.750769        -4.86563
LJ          -4.69892        -3.16803         5.82562
LJ           1.39494        0.350719         2.16882
LJ          -3.42427        0.130903         3.09553
LJ         -0.809473        0.394722       -0.259736
LJ           4.03246        0.258907        -4.47855
LJ          -5.27543         2.28965        -6.38429
LJ           3.58794        -1.75414         2.07854
LJ           4.86186        -4.79415         -5.2603
LJ           3.10443       -0.757205        -1.79208
LJ          -2.00771        -3.87183        -1.53348
LJ           2.12411        -4.00089         1.83342
LJ          -1.53982        -1.13454         4.67173
LJ          -3.55162        -5.16619         3.28553
LJ          -5.09633         1.97504          5.2335
LJ          -4.09751        -0.70063         3.45438
LJ           6.33834        -1.31816        0.858741
LJ          -4.76879        0.473662         5.74574
LJ           1.84373        -1.02857        -1.47536
LJ         -0.209477         1.71383        -6.08205
LJ           -1.8657         1.22696        -4.54199
LJ           1.21735        -4.65236         3.24429
LJ           1.01767          5.3125         -3.7625
LJ         -0.669574        -1.41642         1.82011
LJ           2.64521          5.3898        0.717938
LJ          -1.41377        -6.20366        -5.39526
LJ           2.58809         6.40696         2.94284
LJ           5.08883        -4.27286        -6.22701
LJ          0.358627         1.70589         1.02888
LJ          -2.03844         5.64802         3.18569
LJ          -4.09049         3.91085      -0.0577752
LJ         -0.405579          5.0986        -4.82025
LJ           4.28775        -5.62791       -0.156418
LJ           2.85451        0.263898         3.31331
LJ           4.72455          -5.761         3.65918
LJ          -1.40097       -0.504608        -0.88727
LJ           3.88887        -4.54864         4.25592
LJ           5.01646        -6.04473       -0.718059
LJ           1.28245        0.786907         5.89956
LJ           3.96283          2.1052        -4.44373
LJ           2.11699         4.03115           5.444
LJ         -0.881396         -5.2084        -4.87359
LJ         -0.662494          5.5451        -6.14217
LJ             4.976         5.98051         3.78137
LJ          0.405408        -5.99966        -1.38149
LJ          -3.54103         -5.6832         4.22658
LJ          -4.49532        -3.50055         -4.9826
LJ          -2.20704       -0.858652           6.412
LJ           5.89707        -5.26964        -4.47595
LJ           5.61031        -1.90779        0.344189
LJ          -6.08149        -6.16186          2.1035
LJ           2.93233           3.629         3.48259
LJ             2.323         1.27767        -6.41299
LJ          -1.97035         2.33121         3.29225
LJ          -2.34062         5.03359         4.48144
LJ         -0.786187        -2.73034        -4.91228
LJ          -6.17427         1.34932        -5.39246
LJ          -6.46018         -5.1005         2.55799
LJ          0.265021        -5.77969        -2.95987
LJ          0.567902         4.26611         4.46188
LJ           2.09388        -1.10325        -4.15129
LJ          0.677272        -1.71973        -5.61883
LJ          -4.37366         2.93985         5.85923
LJ          0.341555        -2.31837        -2.19894
LJ          -1.11732        -5.04437          5.2039
LJ          0.121827         6.14661         2.24172
LJ           3.06144       -0.846123      -0.0693901
LJ            4.1776         5.78423         3.17002
LJ          -5.11775         2.54972        -2.63634
LJ          0.860087         1.25863         2.87942
LJ          -2.25809        -6.31252        -4.45788
LJ          -1.83379       -0.518457         2.01057
LJ              1.39         6.08766        -5.24329
LJ          -1.58158          5.7359        -2.42985
LJ          -3.86198        -1.95143        -1.35988
LJ          -1.76286        -5.38771         3.97407
LJ           5.77509          4.7282         5.01998
LJ          -1.75697         5.48769        -6.32927
LJ          -3.42479         2.31186        -5.29136
LJ           4.96751        -0.74229         -3.7035
LJ          -4.01844        -2.32634         1.29957
LJ           2.10117         5.52578        -3.63495
LJ          -1.20719       -0.378077        -4.19788
LJ          -1.81376        -4.27977        -4.03626
LJ          -3.06094         3.20414          3.2938
LJ           4.86182         -4.6992         2.55411
LJ           1.61509        -1.40194         0.12662
LJ           -2.5547        0.291759         5.99507
LJ          -2.37132         6.40935        -2.30454
LJ          -1.23544         3.29992         3.72361
LJ           1.94162          1.6547        -2.60831
LJ           1.38685          2.6048         6.34347
LJ          -1.82932        -1.98537        -4.14567
LJ           4.84222          2.7424        -4.95607
LJ          -4.06605       -0.455336        -3.76483
LJ           5.80621        0.732537         1.38309
LJ           4.69299         1.82032         3.53479
LJ           3.67841        -4.17771         2.74393
LJ            -5.877          5.8618         3.67764
LJ          0.769723        0.331479        0.251656
LJ         -0.162093        -3.03745        -3.03153
LJ           5.43133         6.14782       -0.012443
LJ           1.10817       -0.129195         5.09385
