108
#Comment!
LJ           4.37424         4.10205        -1.45602
LJ           1.46911         1.71601       -0.872952
LJ           -3.4615         1.43523         2.18964
LJ           1.41082         3.60249        -1.93703
LJ          -2.98146           2.628        -5.38455
LJ           2.25027         2.26273         5.04072
LJ           6.26405        -2.60353        -3.81788
LJ         -0.666474        -1.08959        -3.23352
LJ          -3.94015        -5.09574         4.76757
LJ           -1.2776        -1.54201         4.52406
LJ           1.51068         1.67512         4.49776
LJ           4.37673        -3.61652        0.184223
LJ           6.18663         5.66406         2.01151
LJ           2.43383         3.27307        -4.38217
LJ           3.59205          4.0562         1.54317
LJ          -4.69431        -1.98132        -2.95369
LJ           3.59797        -1.86219         3.78877
LJ           4.72542         2.36817        -4.36304
LJ           5.66239          3.4713          4.4241
LJ          -4.87462           4.031         1.98831
LJ          -4.03546        -2.35886        0.621803
LJ          -1.78694         4.68519        -3.07934
LJ           -1.7905         -5.8877         4.90066
LJ           1.54143         1.73705        -3.46985
LJ         0.0686056         1.67469         3.17027
LJ          -4.69158        0.666425        -2.54998
LJ          0.468144        -1.42733         1.12732
LJ           1.24827         5.43099         5.00236
LJ           3.07661         -3.5056        0.817401
LJ           2.61623        -1.44553        0.146456
LJ          -1.75629         4.23715        -4.79855
LJ          -2.45926        -1.96842         1.75898
LJ           5.84027          1.4431         4.01688
LJ          0.133954        -5.15247         4.85135
LJ           -5.0511         4.82106         6.26954
LJ          0.384048         4.90168         4.44249
LJ         0.0364134         4.87059        0.860641
LJ           1.96309        -2.13787         1.08964
LJ          0.291405          1.5717        -2.06174
LJ          0.170422        -3.83724         2.67693
LJ           1.41241         2.51787        -2.10334
LJ           4.04449         6.10905        -2.72753
LJ           5.11285        -5.52673       -0.498729
LJ            2.0337        -2.10408         4.67546
LJ           4.90952         -2.3106        -2.71284
LJ           1.91826        -5.66431        -1.21381
LJ          -1.44887         1.84535         -2.3288
LJ           3.72608        -1.98888         5.70854
LJ          -1.18287         3.13494          1.6485
LJ           0.83875       -0.125054         3.40224
LJ          -6.23403         2.94258          2.0557
LJ          -4.90068        -2.49189        -1.06068
LJ           5.80432         3.61891         3.22561
LJ         -0.881828          2.0035        0.631537
LJ            4.3558        -5.75642        -2.48041
LJ            1.9294         1.87253         2.91664
LJ          0.429307        -1.24101      -0.0733755
LJ           1.96041         6.09355         6.34031
LJ           4.63699         4.31245         4.07439
LJ           5.57372         3.24478        -4.46536
LJ            3.5068        0.302335         1.63117
LJ          -3.00204        -6.31734        -3.53017
LJ           1.58022        -2.58342        -3.60489
LJ          -3.25393        -5.77433         4.30999
LJ          -3.20717         4.12288          1.1368
LJ           2.61133        -1.69681       -0.912439
LJ          -2.89068         1.68141        -2.72271
LJ            1.1815        -3.11347         1.38375
LJ          -6.25421         3.11215        -6.11984
LJ           -5.9932         1.86599         -2.0762
LJ           3.55259         5.50516        -6.43041
LJ          0.671948         3.03872         -1.1038
LJ            3.0049        -1.35659         1.36362
LJ           2.33312         2.05998         3.96095
LJ          -1.24211         5.40115         0.10822
LJ           -4.2716        -3.83153        -5.14899
LJ          -4.52135         3.35142        -5.42047
LJ          -2.55985        -3.13567        -5.02915
LJ           4.38242        -1.61866        -5.01615
LJ           3.83354        -1.02494        -3.03761
LJ           3.84289         2.99451         1.06102
LJ           6.40382         2.33808         3.39518
LJ           2.84855        -5.85039        -2.38405
LJ          -1.41628         5.20415         2.45832
LJ          -2.65494        -4.82355         2.80889
LJ          -5.94663         6.25049        -1.56605
LJ           2.25977         1.70378        -4.59541
LJ          -4.87248         4.89341         4.70416
LJ           1.20102         6.34158       -0.964703
LJ          -4.32473         5.50608         4.01683
LJ           2.83015        -5.31632        0.663637
LJ          -3.42467         6.10586       -0.403428
LJ          -4.65645         -3.3103       -0.417931
LJ          -4.23879        -2.39931         2.84541
LJ           5.16392        -1.93185         -3.7498
LJ          -4.01385        0.444413        0.490883
LJ           1.10071        -5.37997        -0.70751
LJ          -6.08097          4.3398        -3.20499
LJ           1.50194         -3.0302       0.0328391
LJ            5.5444         4.82243         2.71783
LJ          -3.26565         -2.0091        -2.01828
LJ           5.28223        -2.82499         -4.9905
LJ           1.38259          5.8461        -5.52342
LJ          -4.34652        -3.96717         5.53528
LJ          -4.79385         6.19606         2.97925
LJ           -2.0837         2.73333        -5.97943
LJ           -3.5285          5.1293        -2.10263
LJ          -6.04986        -0.19796        0.253937
