108
#Comment!
LJ          0.601934         -6.1207         4.21733
LJ          -4.33461         5.92948        -2.49933
LJ          -3.18208        0.857476        -3.43816
LJ           5.47895        -2.38332        -3.71905
LJ           2.55443          4.8644         4.85031
LJ          -3.58671         -1.0802        -6.18931
LJ          -2.50024         -5.0808         3.83998
LJ           -5.0674         1.47026        -4.94613
LJ         -0.703014        -4.63149         5.08549
LJ           1.75124        -2.13174        -5.88177
LJ          0.254381        -4.16087        -4.41857
LJ          -1.99898        -2.63641         2.84664
LJ          -6.04789        0.546504        -6.39361
LJ           -1.9387         -6.1653         6.17332
LJ          -3.65905        -5.41357       -0.640803
LJ          -1.90001        -4.87613          6.3439
LJ           2.18206        -2.13108         2.64621
LJ          -6.42758        -0.92196        -6.20843
LJ          -1.80061       -0.481427        0.634728
LJ          0.649304        -6.06277        0.787961
LJ          -3.05485        -6.40264        -5.96966
LJ          -3.52138         5.40133        -3.06372
LJ             1.096         5.66385         5.59776
LJ           5.23954        -5.16975        -1.43582
LJ         -0.579319         3.64648        -4.39914
LJ          -2.65933        -5.36147       -0.561176
LJ          0.243701        -4.65488         3.98118
LJ          -2.88349         1.30463         1.47837
LJ         0.0843616         -4.0053        -6.20196
LJ           3.61608         4.76039        -2.97363
LJ          -2.84356        0.624311         -2.3091
LJ           3.52794         1.49204        -3.81157
LJ          0.237886         1.27506          4.0499
LJ          0.602584        -3.08252         6.22343
LJ           1.34464         3.52751        -5.34532
LJ           4.13435         4.50138         5.63562
LJ         -0.165268        -5.32271        -1.55995
LJ          0.786262         1.44528         3.24485
LJ          -4.01235         5.09247        0.853165
LJ          -2.71325        -4.11043        -4.46301
LJ           4.10931         4.85041         4.31324
LJ          0.621998         3.57651         3.00289
LJ           -3.6835         4.64648        -5.77564
LJ           2.37503         -1.5932         3.64855
LJ          -2.83578        -5.48169        -3.89508
LJ           6.26583         5.04262        -6.23672
LJ           3.91355       -0.608752         5.25922
LJ           4.50883         1.14385         4.36328
LJ           5.36108         0.92839        -4.71326
LJ          -3.54792        0.553162         1.00299
LJ          -6.10418         4.55837        -4.24758
LJ           2.19782        -1.42334         5.50271
LJ           -3.1744         1.35822         -5.5105
LJ         -0.420249        -4.26998        -3.31984
LJ           1.75815        -3.61504         6.40232
LJ          -2.74138        -6.42301       -0.303785
LJ           3.69202         5.30085        0.584903
LJ          -5.46878        -1.86617         4.88654
LJ          -2.89729        -2.80904      -0.0762739
LJ          -6.25298        -4.90046         2.98871
LJ          -4.71148        -5.54462        0.784002
LJ           2.19748          3.3888         4.41176
LJ           3.83696        -2.60284        -3.31989
LJ          -3.33807         5.71895        0.280664
LJ           2.67147         5.07835     -0.00544855
LJ           2.88447        -4.07047         4.43695
LJ          -5.73826        -6.18412         2.84545
LJ          0.558508        -3.58621        -2.74705
LJ           3.51872         -2.5782         1.81119
LJ           5.02784        -4.41196         6.05519
LJ           1.54923        0.666072         3.68267
LJ          -4.85267        -2.17606         1.56648
LJ           1.10902         4.38826        -1.77127
LJ           -5.9502         5.39884        -2.43315
LJ         -0.192976          2.9859        -1.64201
LJ          -5.44374         4.88053         5.91943
LJ          -1.96628        -4.91915         2.18809
LJ          -3.85994       -0.144586         5.89322
LJ          -2.51241         4.43244        -1.72018
LJ           4.34734         5.53702        -4.95889
LJ           4.24983        -2.68556          -2.413
LJ           6.26288         4.16115         5.91456
LJ          0.495966         3.34463        -3.05289
LJ           -6.1539        -5.00469         -2.8095
LJ           5.10272         4.31028         6.18659
LJ           3.32468        -5.48347         -3.3716
LJ          -1.99289         4.97759        -4.95688
LJ           4.15925         -1.8304        -4.94815
LJ          -4.79778       -0.293148         1.78737
LJ           3.46088        -1.77009         5.23328
LJ         -0.100788         1.19786         1.73181
LJ          -2.20125         6.27578         2.19411
LJ          0.180756        -3.33236         3.70946
LJ        -0.0322667        -5.79349         3.29725
LJ          -4.52915         0.47033         3.02365
LJ           2.77242        0.871884        -5.80122
LJ           1.13325         2.39523          3.3365
LJ          -1.54928            3.87         -4.7143
LJ           5.50742         4.13209          4.9088
LJ          -4.17437         2.68179         2.08156
LJ          -3.05389        -3.99866       -0.873481
LJ          -2.19505         2.53756        -4.79942
LJ           3.07326         5.61085       -0.764118
LJ           5.94447       0.0764528         1.00327
LJ           1.81054        -5.70494        -3.51089
LJ           2.97916        0.711722        -2.05106
LJ          -3.68865         2.38249         3.21259
LJ          -3.92288         1.25867         4.62085
