108
#Comment!
LJ         -0.316226        0.136927          1.6092
LJ          -0.29077         4.49498        -1.36269
LJ          -5.09625         5.87762        -6.44083
LJ         -0.984024         2.19615        -5.89978
LJ          -3.92358         4.85821         6.29232
LJ          -2.06714        -2.62425         5.41744
LJ           6.34262         5.53708        -5.42257
LJ           2.22049       -0.888433         -5.2015
LJ          -3.21415         4.11074        -6.02368
LJ           5.99921       -0.230298         6.40586
LJ           2.35098        -1.40884         3.80729
LJ         0.0500463       -0.426999        -1.91786
LJ          -4.70561       -0.226253        -2.23674
LJ          -2.92243         5.30263        -5.77936
LJ           5.51511         1.02067        -3.36724
LJ           5.59321         4.40206        -5.06623
LJ           2.89234        -3.32735         3.46866
LJ          -5.02088        -4.21249        0.775012
LJ          -3.21036        -3.39435        0.586471
LJ            0.8583         -2.8266        -1.49391
LJ          -3.48855        -1.57699         3.54984
LJ          -3.80648         3.61291        0.389812
LJ          -2.05204         2.67353        -4.74014
LJ          -3.09336         3.52589         5.31201
LJ          -1.52479        -2.40017         2.61253
LJ           4.67879        -2.35767         4.67846
LJ          -2.76128         1.30919        -5.67186
LJ           2.69566         -1.7249         5.13918
LJ           4.38334        -2.69344        -3.16356
LJ           3.75842         3.69293          2.1219
LJ          -5.74022         3.54538          6.1534
LJ          -6.32222        0.137536        -4.78752
LJ           2.11249         1.06226         1.97994
LJ          -0.89482        0.893841        -3.49933
LJ          0.410735         1.32695         2.63119
LJ          -5.47609        -5.76439        0.105791
LJ          -1.80072         2.86912        -2.64809
LJ            5.8552        -5.50094         4.89821
LJ          -5.78408        -2.11579         3.00517
LJ          -3.46684        -0.21424        -4.60545
LJ           5.01758        -1.08889       -0.183276
LJ          -2.88378         1.41891        0.439357
LJ           -3.0998        -2.02197         5.33276
LJ           5.34759         1.55243         5.49715
LJ           2.02942        0.142375        -5.89606
LJ            3.9957        -5.95272         4.01176
LJ          -6.23299        -2.15358         -5.1832
LJ           6.11026        -1.22369        -2.00189
LJ          -1.69336        -6.07756       -0.997214
LJ          -5.43381        -5.05271        -4.94501
LJ            -5.722        -1.70665        -1.02432
LJ          -0.80128         3.51286         2.44992
LJ          -2.31619        -1.13927        -4.71033
LJ           5.98969         3.17288        -4.07081
LJ           6.24315         3.54015         3.62638
LJ          -5.62779         5.84921         5.30809
LJ           6.34739        -4.34163         4.71293
LJ          -1.74044        -4.96683        -2.77955
LJ          -1.58318       -0.946643       -0.538438
LJ          -1.03321          2.5611        -3.14882
LJ           -2.2427         3.73178        -4.56367
LJ          -2.88796         6.04673        0.694463
LJ            3.3726        -3.82059         5.54588
LJ          -4.66859          4.3037        0.991294
LJ           2.46182         2.87102        -1.92525
LJ          0.060515          -5.997        -5.88843
LJ          -3.12571         4.06786       -0.315644
LJ          -1.93527        -1.57451         -1.8185
LJ           5.11978        0.346297        -5.14928
LJ          -5.90755         2.66881         5.47803
LJ           1.74915       -0.234233         4.81899
LJ          -6.01338         4.58737         5.81019
LJ           4.87189        -6.24577        -5.78923
LJ          -5.56218          6.2586       -0.454343
LJ          -4.79638        -5.71817       -0.783598
LJ           4.46489         4.21273         3.20125
LJ           5.88639        -3.09223        -1.74881
LJ         -0.277688         4.32137         2.93203
LJ           5.72989         2.05926        -3.74681
LJ           -3.4158        0.602021         2.37171
LJ          -2.90795        -3.56429        -2.99582
LJ           5.07327        0.942212       -0.731251
LJ         -0.290406        -5.76127         1.71936
LJ          -4.29344         4.07039         5.58117
LJ          -2.36973         5.74897         5.97012
LJ           2.43725         4.73955         3.42439
LJ           4.84907         3.95572       -0.652416
LJ          -5.52413        -3.14797         0.49649
LJ          -1.13617        -1.03649        -4.68008
LJ          -2.10056         5.79819         4.74771
LJ             3.181      -0.0347172        -0.56422
LJ          -2.71707         1.19383        -4.36181
LJ           -5.2637        -3.68917        -5.89719
LJ           3.85265       -0.765288        -4.03386
LJ          -4.97825        -4.49413         5.42378
LJ           5.18339        -4.96144         2.07978
LJ           2.56192         4.47316         5.35961
LJ          -4.50493        -5.41723         1.79118
LJ          -2.14908         5.25668        -0.57554
LJ           5.47513        -5.43537         3.63886
LJ          -3.88632         5.32551        0.439762
LJ          -6.06125        -3.75801         2.66953
LJ          -1.40481         1.33658        0.445519
LJ          -5.87456          3.3696        -5.87313
LJ           -1.7848         2.53559        -0.58635
LJ          -6.23434        -5.34174         -4.3666
LJ           2.57111       -0.408518         1.15009
LJ          -3.42373        -4.68545        -3.25339
