108
#Comment!
LJ           4.56264         4.05753        -1.65485
LJ             1.496         1.73031       -0.792147
LJ          -3.45382         1.46062          2.2054
LJ           1.34328         3.53122           -1.86
LJ          -2.98225         2.62808        -5.24224
LJ           2.31808         2.28973         5.10421
LJ           6.29248        -2.72186        -3.91558
LJ         -0.686002        -1.05022        -3.16689
LJ          -3.93781        -5.03977         4.99139
LJ          -1.19571         -1.4772         4.43128
LJ           1.43392         1.63289         4.30838
LJ           4.50329        -3.48289         0.26989
LJ           6.29905         5.57591         1.88779
LJ           2.36488         3.20335        -4.15625
LJ           3.37241         4.00689         1.54526
LJ          -4.86671         -1.9679        -2.93128
LJ           3.55695        -1.65804         3.75019
LJ           4.66244         2.25779        -4.16983
LJ           5.76635         3.42476         4.51108
LJ          -4.90055         3.98328         2.06886
LJ          -4.00316        -2.42223         0.60332
LJ           -1.8587         4.61805        -3.17617
LJ          -1.76404        -5.60838         4.87301
LJ           1.37307         1.73898        -3.70979
LJ          0.105233          1.7574         3.09549
LJ          -4.55576        0.612235        -2.46652
LJ          0.512617         -1.6114         1.34002
LJ           1.11807         5.50628         4.78448
LJ           3.02373        -3.34974        0.713537
LJ           2.63823        -1.38436        0.284695
LJ          -1.78925         4.25482        -4.52951
LJ          -2.53487        -1.93881         1.71282
LJ           5.94896         1.49934           3.948
LJ        -0.0473819        -5.21807         4.65568
LJ          -5.02286         5.11119         6.40116
LJ          0.297969           4.712         4.44944
LJ          0.167495         4.84002        0.786998
LJ           1.94131        -2.12731         1.16638
LJ          0.186216         1.53204        -2.04348
LJ          0.282705         -3.7908          2.4566
LJ           1.49799         2.19113        -2.11754
LJ           3.98107         6.11214        -2.67301
LJ           5.02227        -5.68877       -0.507478
LJ           2.04554         -2.0702         4.80011
LJ           4.74282        -2.60787        -2.66073
LJ           2.02748        -5.70722        -1.33698
LJ          -1.38753         1.99506        -2.53538
LJ           3.54305        -1.85753         5.73447
LJ          -1.23378         3.13914         1.58991
LJ           0.94346       -0.275134         3.30359
LJ          -6.16964         2.94556         2.00871
LJ          -4.91058        -2.44479        -1.13863
LJ           5.81554         3.52394         3.16803
LJ         -0.968377         2.24486        0.639468
LJ           4.69618        -5.82486        -2.41249
LJ           1.97274         1.65193         2.68303
LJ          0.559629        -1.36695       0.0767609
LJ           1.81362         6.22621         6.36366
LJ           4.80444         4.42165         4.16891
LJ           5.42871         3.04288        -4.37062
LJ           3.63297        0.332805         1.46033
LJ          -2.84788        -6.18337        -3.56491
LJ           1.57763        -2.65074        -3.79296
LJ          -3.20628        -5.65891         4.26079
LJ          -3.34369         4.19272         1.16822
LJ           2.47209        -1.57271       -0.906155
LJ          -2.90499         1.61242        -2.87266
LJ           1.11165        -3.03237         1.25937
LJ          -6.22081         3.07466        -6.08611
LJ          -5.91377         1.85647        -1.95338
LJ           3.55493          5.6847        -6.22515
LJ          0.669147         3.05985        -1.17671
LJ           2.94017        -1.45086         1.39448
LJ           2.52473         2.06448         4.10142
LJ          -1.31046         5.56152        0.261564
LJ          -4.46986        -3.76089        -5.20647
LJ          -4.45752         3.18509        -5.44112
LJ          -2.50243        -3.11151        -5.25868
LJ           4.52634        -1.67259        -4.78173
LJ           3.96649        -1.06571        -3.15175
LJ           3.80025         3.08891        0.976782
LJ           6.40803         2.25352         3.54136
LJ           2.79761        -5.92697        -2.41407
LJ          -1.52314         5.28163         2.58182
LJ          -2.64512        -4.93116         2.87127
LJ          -6.16488         6.40155         -1.4858
LJ           2.33686         1.72714        -4.59142
LJ          -4.92284           4.953         4.77597
LJ           1.35064         6.34327       -0.969229
LJ          -4.22667         5.40315         4.01706
LJ           2.82899        -5.33479        0.627744
LJ          -3.36754         6.02239       -0.540644
LJ          -4.53275        -3.34789       -0.575966
LJ          -4.30275         -2.2264         2.76828
LJ           5.17733         -2.0196        -3.79711
LJ          -4.12345        0.305946        0.637028
LJ           1.03701        -5.43147       -0.697632
LJ          -6.08056         4.36694        -3.24218
LJ            1.3383        -3.10973       0.0182734
LJ           5.46839          4.6691          2.5686
LJ          -3.24993        -1.95005        -1.85802
LJ           5.34095        -2.68908        -5.19637
LJ           1.44176         5.84838        -5.57903
LJ          -4.59148        -3.97055         5.70741
LJ          -4.56269         6.17975         2.80705
LJ          -1.97498         2.61666        -5.66879
LJ          -3.46917         5.25576        -1.91311
LJ          -6.18986       0.0849827        0.290974
