108
#Comment!
LJ          0.121201        -6.36691         5.30766
LJ           -3.7841        -6.15901        -2.12762
LJ          -3.62238        0.380105        -3.01939
LJ           5.02764        -2.72961        -4.30764
LJ          0.989444         4.87079         4.58574
LJ          -3.65699        -1.04993        -6.01481
LJ          -1.30529        -3.89036         4.25146
LJ          -4.66188          1.4367         5.61066
LJ         -0.195698        -5.28362         4.98574
LJ           1.97162        -2.35689         4.10636
LJ         -0.851587        -4.84128        -4.18213
LJ         -0.183771        -2.61507         2.93193
LJ          -5.27345       -0.584252         5.39773
LJ          -1.55432         4.46166         6.46119
LJ          -5.50623        -3.20915      -0.0224836
LJ          -2.21247        -6.10918         4.94753
LJ           2.16201        -2.05507         2.66402
LJ          -5.08318        -1.24281        -5.69917
LJ          -4.26968        0.173838        0.919735
LJ          -1.34529        -4.51135        0.199076
LJ          -3.13901         5.94839         6.46113
LJ          -4.29756         5.39032        -2.47329
LJ           1.57756         4.65299         5.64419
LJ          -5.96754        -5.58092        -1.08877
LJ         -0.154923         2.58926        -2.96703
LJ           -3.4807        -5.85171        -1.20811
LJ          0.757116        -4.73353         4.18811
LJ          -3.92341         1.14095         1.75362
LJ          0.650947        -3.98854         5.02385
LJ           2.48907         4.02503        -1.73593
LJ          -2.28248        0.558334        -3.70255
LJ           2.39742         3.09834        -4.53635
LJ        -0.0661261         2.42517          5.2941
LJ           1.08104        -3.07584         5.63842
LJ         -0.240927         4.41405        -5.28622
LJ           4.56367         5.30531         4.54085
LJ           1.39044        -4.75133        -1.48723
LJ        -0.0493334        0.664356         2.34323
LJ          -3.68804         5.94001       0.0615292
LJ          -1.80176        -4.30784        -4.63851
LJ           4.78819         4.21663         4.11147
LJ          0.235383         4.07319         2.85896
LJ          -4.95107         5.14384        -4.35028
LJ           1.82815       -0.977227         3.13769
LJ          -3.07877        -6.06534        -3.76056
LJ          -4.73218         4.74894        -6.02082
LJ            4.4877       -0.332346          4.5814
LJ           5.27434        0.319691          4.9399
LJ           4.10329       -0.388437        -3.98465
LJ          -3.70377        0.111053         2.03932
LJ           6.28392          5.7846        -3.89961
LJ           1.54735        0.390719           4.887
LJ          -3.12044         1.39955        -4.59664
LJ        0.00592552        -4.62272        -3.11419
LJ           1.35403        -3.51273        -5.99351
LJ          -3.36735        -6.02386       -0.111046
LJ           5.01966         4.72097        -1.04766
LJ          -4.87133        -1.98582        -6.32842
LJ         -0.380068         -1.5156        0.506193
LJ          -5.88316        -4.76741         3.02918
LJ          -6.20544        -6.40801         2.26176
LJ           2.14291         4.40854         3.51186
LJ           4.66039        -1.37166        -3.60625
LJ           -2.2866         4.00382       -0.385873
LJ           1.78563         3.46224       -0.263331
LJ            3.2057        -5.06048         5.46025
LJ          -5.60104           5.509         4.37592
LJ           1.66246        -3.78329        -3.03079
LJ             1.658        -3.33661         2.64648
LJ           4.83801        -6.33241         5.68878
LJ           1.47913        0.595532         2.90744
LJ          -4.65209        -2.23562        0.742132
LJ          0.132036         4.74813       -0.911095
LJ           5.94802         5.86946        -2.24246
LJ         -0.710427         1.05804        -3.03999
LJ          -3.28843         5.31722        -5.41691
LJ           -2.4503        -5.63235         1.18449
LJ          -5.11633       -0.135632        -5.82493
LJ          -3.65678         5.75091        -1.59556
LJ           4.61216        -5.51282        -5.35733
LJ           6.23839         -3.0705        -2.22094
LJ           5.29187         4.21623         5.87492
LJ           2.34536         4.31777         -2.8033
LJ          -5.41061        -4.89234        -3.05427
LJ           5.03119         5.29618         5.79275
LJ           3.65774        -5.41791        -3.11204
LJ          -2.92083         3.87552         6.16123
LJ           3.16304       -0.992813        -3.18518
LJ           6.45161        -1.54154         1.26541
LJ           2.40468        -1.57931         5.21959
LJ          -2.24197         1.44212         1.08938
LJ          -1.18573        -6.02914         3.50454
LJ        -0.0677892        -3.72498         2.53552
LJ         0.0428774        -5.50068         3.96783
LJ          -3.09373        0.626596         4.04755
LJ           2.12809       0.0818606        -4.95296
LJ           1.46209         3.71978         3.01967
LJ           -1.2794         3.49908         -4.1389
LJ           5.07073         2.99497         5.41444
LJ          -3.82473         2.85952         2.11047
LJ          -2.61935         -3.7953       -0.462323
LJ          -1.43072         2.93011        -5.94273
LJ           3.77739        -6.21518        -1.60275
LJ           5.89096       -0.291508        0.658777
LJ           3.73643        -6.41365        -3.65836
LJ           3.16001         2.40866        -1.15349
LJ          -3.86895          4.5404         2.76707
LJ          -2.87641        0.526474         5.29225
