108
#Comment!
LJ          -5.95322         3.11794        -4.41457
LJ           1.27764         2.30561        -1.04333
LJ          -3.39113         1.80398         2.36686
LJ           1.48585         3.21223        -1.80327
LJ          -3.11872         1.81576        -3.92138
LJ           3.19821         2.43303         5.85471
LJ           6.06122        -3.80506         -5.1403
LJ         -0.963095       -0.455647        -2.25722
LJ          -3.44162        -4.05785        -5.33726
LJ        -0.0519951       -0.608606         3.14733
LJ           1.22849         1.21343         1.74824
LJ           5.90047        -1.64729         1.46984
LJ          -5.13463         3.85416        0.773546
LJ           1.47716         1.21947        -1.56011
LJ           1.62477         3.31891        0.556155
LJ           5.78388        -2.02774        -2.31227
LJ           2.82857          1.0476         3.26383
LJ           3.46351        0.539297        -1.68201
LJ          -6.21139         3.48588         4.67442
LJ           -4.5286         3.69167         2.63188
LJ          -3.41318        -2.78378        0.207342
LJ          -2.92335         4.21565       -0.399003
LJ          -1.80486        -2.56668         3.45047
LJ         0.0610316         1.96896         5.85599
LJ          0.682028         3.05035         2.09056
LJ          -2.67393      -0.0166445        -1.38937
LJ           2.07437        -3.98676         2.82503
LJ         -0.970828          6.1733         2.13184
LJ           2.10943        -1.31565       -0.387328
LJ              2.46        -1.84381         1.34231
LJ          -1.44715         2.84541        -4.72271
LJ          -4.14255        -1.97903         1.17985
LJ           5.95191       0.0413166         4.29872
LJ          -1.26087        -5.65472         2.73241
LJ          -5.07128        -4.07032        -4.80979
LJ         -0.365169         2.87327         4.54729
LJ            1.8292         4.33719       -0.362142
LJ           1.80316        -2.83186         1.05451
LJ         -0.839821         1.40845        -1.86739
LJ           1.64788        -4.80193         2.01978
LJ           1.87367        -1.82803        -1.68385
LJ            3.7913        -6.20816        -1.22157
LJ           4.21802         5.60829        -1.24307
LJ           1.49694        -2.30911          5.8258
LJ           3.23396        -5.96697        -2.91629
LJ           2.20058         6.20921        -2.19305
LJ         -0.207623         5.05085        -4.44894
LJ            1.8536        0.651112        -6.31113
LJ           -2.3232           4.297         2.45211
LJ           1.72672        -1.81185         3.06057
LJ            -5.745         3.31455         1.57741
LJ          -4.36654        -2.39376        -2.21673
LJ           6.26729          2.7441         2.80406
LJ          -1.21785         4.43089       -0.853837
LJ          -4.39476         5.60077         -2.3704
LJ           2.98308        -1.00306        0.643134
LJ          0.488858        0.384087         1.79689
LJ           0.20441        -5.20176        -6.34184
LJ          -5.48631         4.63045         5.21147
LJ           3.71389           0.627         -2.9801
LJ           5.26373        0.693914       -0.836442
LJ         -0.771039        -4.41531         -4.0154
LJ           1.55405        -3.53533        -6.35968
LJ          -2.13203        -3.48423         4.31957
LJ          -5.64254         4.96174         1.81003
LJ          0.856565       -0.658595       -0.067218
LJ          -2.19203         1.11069        -3.96983
LJ          0.906629        -1.26672        -1.03971
LJ          -5.65666         2.58786        -5.57396
LJ          -4.78255         1.65427       -0.301355
LJ           3.36641        -4.83549        -3.36429
LJ          0.250998         1.80621       -0.969374
LJ           3.11976        -2.65497         1.68842
LJ           4.41685         1.96536         5.65069
LJ          -2.78562        -5.41327         2.00203
LJ          -5.89356        -2.75446        -5.65489
LJ          -3.11982          1.4355        -5.65418
LJ          -1.78747        -2.68633         5.16379
LJ           5.11201        -1.75158        -6.42615
LJ           5.58231        -1.23187        -3.13974
LJ           2.01175         4.47258        0.964377
LJ          -6.34959          4.0007         3.61348
LJ           2.39879         5.92813        -3.42935
LJ          -2.70082         5.47509         4.37508
LJ          -4.24002        -6.05183         3.06616
LJ           3.38172        -4.74557        0.772055
LJ           2.42685          2.5877        -3.57935
LJ          -4.80598          6.0362         5.39219
LJ           2.41574        -6.04369        -0.69746
LJ          -3.53536         4.28666          4.2054
LJ           2.75409        -5.53137        0.194146
LJ          -2.03964        -5.44218         1.01141
LJ          -3.26338        -2.66694        -2.66318
LJ          -4.55114        -1.64372         3.55858
LJ          -5.87668        -4.59173        -2.29059
LJ          -6.02564        0.151826        0.639563
LJ           1.77881         6.08696        -1.05472
LJ          -5.95695          5.0682        -3.70597
LJ         -0.747622        -4.51074       -0.932867
LJ           5.67918         1.95191         2.20158
LJ          -3.36771        -1.52263    -0.000369253
LJ           5.65107       -0.766135        -6.30608
LJ           2.02487         6.14573        -6.27335
LJ           5.12255        -4.92021        -5.46402
LJ          -1.36374         4.82732         1.46763
LJ          -2.32666        0.204206        -2.79256
LJ          -4.06292         5.77062        -3.46802
LJ           4.96015         3.88694        0.213273
