108
#Comment!
LJ         -0.479112         5.94206        -6.34694
LJ          -3.81458         -5.8311        -2.72059
LJ          -3.49232       -0.950348       -0.963627
LJ           4.29554        -3.02632         -4.6592
LJ         -0.353575         4.14587          4.9658
LJ          -4.11227        -1.45431        -6.43064
LJ          0.117104        -2.26873         5.58114
LJ          -3.91582         1.24999         1.78208
LJ         -0.178615        -5.62695        -6.29954
LJ           2.51833         -2.5366         2.20168
LJ         -0.769561        -5.87086        -2.56114
LJ         -0.100822        -1.53574           2.538
LJ          -4.03095        -2.05628         3.73894
LJ          0.100831         3.63156        -5.48811
LJ          -6.14346        -2.56132         1.15053
LJ          -1.56855          5.2574         2.55139
LJ           1.97652       -0.470635       -0.603287
LJ          -3.99762       -0.693036        -3.34028
LJ           4.89712        0.276031         2.02628
LJ          -3.62634         -3.7286         2.89815
LJ          -2.84325         4.78001         5.95835
LJ          -5.66527         5.87836        -1.80387
LJ           1.35066         3.39614         3.97065
LJ          -4.46596        -5.23078       -0.644702
LJ         -0.456668        0.489821        -1.25612
LJ          -2.44494        -4.54899        0.166594
LJ           2.93836        -5.20511         4.47641
LJ           5.35502         1.48877            3.95
LJ          0.440234        -3.31018         3.98457
LJ           1.16643         2.80726       0.0892424
LJ          -1.99815        0.452361        -5.64451
LJ          0.468057         5.68156        -5.68266
LJ          0.637513         4.95344        -6.39409
LJ           1.90973        -3.60254         6.08799
LJ          -3.29719          5.8198        -5.60127
LJ           5.13622         5.07027         4.65108
LJ           4.74035        -3.74417        -2.64328
LJ         -0.598133       -0.610068         1.30435
LJ          -3.73502        -5.95271        -1.67893
LJ         -0.724509        -4.41246        -5.17575
LJ           4.75096          3.0089         3.94408
LJ         -0.667178         4.84756          2.9883
LJ          -6.24564         5.49844        -3.17258
LJ           1.17383        -2.05852          2.3667
LJ          -2.96103         5.42328        -4.46578
LJ          -1.83554         3.49455        -4.49002
LJ           5.56907        0.209503         3.74769
LJ           6.19027        -1.15806         5.63637
LJ          0.789111        -2.04382        -2.44604
LJ          -4.06897       -0.273539         2.38427
LJ           6.35403        -5.88639        -4.69848
LJ          0.237822          3.2175         3.79219
LJ          -2.71199         2.02937        -4.30568
LJ         -0.423076        -5.51456        -3.69304
LJ          0.646053        -3.32445         5.62526
LJ          -4.13104        -3.62532       0.0684508
LJ          -5.91849         4.52761         -3.8814
LJ          -3.06869        -2.13236        -4.84643
LJ           3.48326        0.160604         1.81822
LJ          -5.29049        -4.83727         2.97472
LJ           5.80572        -5.84667         2.40278
LJ           2.29699         5.06339         2.20142
LJ           5.74625         0.39564        -3.67442
LJ         -0.987371         1.53535        -1.46889
LJ          0.632603        0.964131        -1.13622
LJ           4.21122         6.06274        -6.45765
LJ          -5.44735         3.57014         -6.1943
LJ            2.8199        -4.31365        -4.04608
LJ           1.50031        -3.92423          3.8485
LJ           3.24849        -5.79427         5.33174
LJ            1.0111       -0.569478         1.15428
LJ          -5.33819        -2.46644       -0.768638
LJ          -1.34633         5.21464        0.430902
LJ           4.04971        -6.21392        -1.04974
LJ           -2.2371        -1.25087         -5.6339
LJ          0.260639         6.08941        -3.88599
LJ          -3.14363         6.38595       -0.940839
LJ          -6.32894       -0.629817        -3.73767
LJ          -5.24113         5.00174        -1.05894
LJ           5.11531        -2.81919         6.39908
LJ          -3.56514        -3.91699        -2.29865
LJ           3.47847         2.01684         5.70027
LJ           6.16773         6.14522         -1.1249
LJ          -4.38653        -4.43493        -3.27708
LJ           5.80537         4.92885         6.08379
LJ           4.12622         6.39718        -3.90389
LJ          -6.20164         2.54368         3.38395
LJ           2.63585        0.177309        -1.23139
LJ           4.35729        -2.59225       -0.213554
LJ          0.415877        -1.88105         4.51335
LJ          -3.38809         1.85782       -0.269484
LJ          -1.42416        -6.41925         5.68832
LJ          0.130041        -2.66401         1.95604
LJ           1.63601          -4.999         4.12007
LJ          -1.12762        0.743087         4.87873
LJ           1.44057         -1.3349        -3.35417
LJ           1.40794         -6.3837         2.02548
LJ         -0.460899          2.9559        -3.50144
LJ           4.45972         2.20229         6.36017
LJ          -3.06254         3.21062         2.57138
LJ          -3.82974        -2.68457        -1.59128
LJ         -0.800288        0.640729        -6.23421
LJ           5.26801        -4.50419        -2.18429
LJ           3.87705         1.11204        0.287191
LJ           5.41357         -6.0398         -2.3672
LJ            2.5015         5.42894       0.0169765
LJ          -4.27444        -5.37477         1.55557
LJ         -0.799217       -0.631544        -6.17657
