108
#Comment!
LJ           1.06306         1.23436        0.805403
LJ           1.23306          3.0868        -1.88708
LJ          -4.54453         6.11393        -4.75946
LJ          -3.90754         1.46921        -6.03669
LJ          -4.09127         5.02292         4.32116
LJ          -3.39815          -2.371         5.75723
LJ          -4.46695        -5.44448        -6.29441
LJ            1.3991        0.595119        -5.59577
LJ          -2.02265         3.98013        -5.48628
LJ           5.37529         -1.0424        -5.73899
LJ           1.46325       -0.701394         2.71671
LJ         -0.439515        0.369547        -1.86446
LJ          -4.69217        0.279525         -1.3888
LJ          -4.81211         4.68952         -5.7429
LJ            3.7559        0.159503        -4.50212
LJ           1.91312         4.00581        -5.81988
LJ           3.85473        -3.13778         5.38044
LJ          -5.08467        -2.01274        0.198643
LJ          -1.70005        -1.38843         1.03298
LJ         -0.437235       -0.721685        -1.69192
LJ          -3.45607        -2.85731         3.32908
LJ           -4.1085         4.99284        0.411061
LJ          -1.58928         1.51543        -4.04986
LJ          -3.79773         5.67352        -6.38903
LJ          -1.88022         -4.0779         3.52097
LJ           4.28439        -2.35576         6.25324
LJ          -4.63786         1.21268         4.89213
LJ           1.75324       -0.330961         3.85421
LJ           3.58092        -3.15276        -4.64376
LJ           4.34757         2.58129       -0.191878
LJ          -4.46683         3.15367           4.015
LJ           5.86794       -0.927119        -4.63774
LJ           2.11281         2.37645         1.49297
LJ         -0.507553         2.09874        -4.35939
LJ           0.58955         2.32393         4.06004
LJ          -5.11656        -4.43056         1.93466
LJ          -3.71025          2.8201        -1.04411
LJ          -6.18702         5.76402         4.09507
LJ          -4.82817        -2.30899         3.70147
LJ          -3.36487         1.17856        -5.15368
LJ           4.91976        -1.88786       -0.432515
LJ          -3.30324         2.33927         2.15257
LJ           -3.7552        -2.55235        -6.01868
LJ           4.64411         1.05809           5.008
LJ           1.29622          1.0732         6.33423
LJ           2.48025         5.85366        -6.07155
LJ          -4.57839        -2.61451         5.35062
LJ           -5.8761        0.485819        -0.45282
LJ         -0.844261         5.84734         1.03695
LJ           -5.3763        -5.11165        -5.38164
LJ          -3.98716        -2.36298        -1.15185
LJ          -1.35455         3.79081         2.20112
LJ          -1.74402        -1.55021        -4.60967
LJ           5.58578         2.88769        -4.03992
LJ           6.15652         3.12668         3.55238
LJ          -5.81508         4.68911         5.41998
LJ           6.15069        -4.80405         5.41413
LJ          -2.12167        -3.90776        -3.97505
LJ         -0.550166       -0.382371         0.25115
LJ         -0.490528         3.93703         -3.7787
LJ          -3.68337          4.0655        -3.57587
LJ          -2.65035        -5.73575        -1.47992
LJ            5.0055         -5.0901         2.36532
LJ           5.86853          4.6474        0.286103
LJ           4.78699         3.00417        -3.26213
LJ          -1.11008        -4.41756        -6.23889
LJ          -4.33981         2.34827       -0.303137
LJ          -2.74522        -1.05429        0.800903
LJ           4.28159         1.54477        -5.89116
LJ          -4.71594       -0.574086         4.84492
LJ           4.01811       -0.698195         5.55967
LJ          -5.87622         4.32128        -5.19644
LJ           5.99954        -4.48352        -5.85898
LJ          -4.03022         6.10299       -0.133061
LJ          -4.47376        -5.88479       0.0538216
LJ           1.60154         1.99008         2.91402
LJ           5.66509        -2.91989        -1.51759
LJ           1.57261          4.7484         2.42167
LJ           4.21084         3.59943        -4.14363
LJ          -4.23816        0.214998         2.56606
LJ          -3.09444        -3.49255        -4.18028
LJ           4.26702        0.575775       -0.961474
LJ         -0.186457        -5.21719         1.71635
LJ          -5.56461         3.48286         4.87103
LJ          -2.97663         5.68829        -5.69718
LJ            2.4429          4.0445         2.49806
LJ           5.32698         3.22991       -0.341788
LJ          -4.19758        -1.45641         1.18296
LJ         -0.760292         -1.1178        -4.18892
LJ          -2.10297         6.05062         5.28206
LJ           4.34703         0.32865        0.163398
LJ          -1.50806         2.27154        -6.22484
LJ          -4.33449        -4.48022        -4.71708
LJ           4.78521        -3.17855        -4.40331
LJ          -4.53918        -4.26507         5.76159
LJ           6.32417        -5.44847          3.1285
LJ            2.4051          3.7275         3.46467
LJ          -4.81175        -6.10063         4.41961
LJ          -1.39757         4.10979        0.730635
LJ          -5.27935         5.75471         3.36887
LJ          -5.43296         4.43604       -0.368712
LJ          -4.05159        -0.94502         2.16557
LJ          -2.69366         2.34444       -0.965942
LJ           -6.1187         1.60659        -4.77707
LJ          -0.30188         1.32683        -1.60221
LJ          -5.68701         4.80838        -3.61347
LJ           1.19573        -1.78543        0.894991
LJ          -2.00799        -3.20975        -2.36381
