108
#Comment!
LJ          -1.57953         2.30042         3.29226
LJ          -1.94468         5.95249        -5.54111
LJ          0.847886        -3.39806         4.99427
LJ           5.93368         4.59889        0.400478
LJ          0.583704        -6.41016         1.82933
LJ          0.450242        -3.99809         2.84262
LJ           2.89773         5.67815         -3.8793
LJ           4.84101         6.37093        -3.99697
LJ           -3.8242         2.51127         4.22669
LJ          -5.23881         2.01455        -3.85674
LJ          0.469139        -2.33223        -4.16509
LJ           1.67551        -2.97226        -2.60876
LJ          -2.96096         -4.4773       -0.939256
LJ           5.15859        -4.16801         6.30615
LJ          -2.13568        -2.38129        -5.03006
LJ          -4.76318         3.41354        -2.87248
LJ         -0.555212        -4.51041        -3.21757
LJ           3.52264         6.37656        0.467783
LJ           -4.9982       -0.338904        -2.54996
LJ          0.183107        -2.09335         5.86642
LJ         -0.894521         4.33313        0.651671
LJ           1.27665         1.68559         2.14741
LJ          -3.96538       -0.191101        -4.56757
LJ          -1.99499       -0.984392         -5.9108
LJ          -2.83201         5.72548        -2.20592
LJ           5.05432        -5.73137          1.4577
LJ          -3.34862         3.36496         3.51139
LJ          -6.21357        -5.14208        -6.44306
LJ           1.61155       -0.630575         2.43014
LJ           4.14442         4.16545         6.37569
LJ            6.0176         1.36288        -4.35171
LJ           -5.9066        0.897456        -3.85209
LJ           5.08382        -4.86275       -0.509807
LJ          -3.32375        -3.71149        -3.11657
LJ          -2.91229        -1.50409         3.53128
LJ           2.45971        -6.06154        -4.06376
LJ           -5.5326        -5.17395         5.01992
LJ           3.15645          1.0453        -4.43443
LJ         -0.114268        -2.57384        -3.36166
LJ          -2.40699         -3.2955        -2.28787
LJ           3.51259         4.95341        0.735149
LJ          -2.19512        -1.15453        -3.79419
LJ          -2.02694      0.00734833        0.570301
LJ          -3.70483         3.57116        -3.38684
LJ           4.02833        -4.43248         5.85259
LJ          -1.06099         2.35062        -2.28932
LJ           6.21851         5.51067        -4.25821
LJ          -2.51304         6.15452        -3.30344
LJ          -1.59014          2.9116        -5.68251
LJ          -2.99852        -1.59856        0.698948
LJ           2.69014         6.12758         2.59692
LJ          -2.40617         1.76837         4.76114
LJ          -2.91162        -1.56727        -5.68119
LJ          -6.08088        -1.72852        -5.72398
LJ           3.83694        -5.49229         4.70386
LJ         -0.219427        -5.49506         5.68181
LJ          -3.38027         3.92807          4.8342
LJ           5.93637         4.08631         5.42231
LJ          -3.68257        -3.86345          5.7987
LJ           3.68069        -4.21597        -4.95697
LJ           1.81973         5.45521         6.22017
LJ          -3.02247         5.03853          1.0963
LJ           -4.0932         5.52571         3.89328
LJ           2.18502         3.28496        0.250489
LJ           4.33999       0.0378925       -0.536021
LJ           1.99408        -6.17705        -1.98116
LJ           3.48832         3.50207        0.941224
LJ          -4.24666       -0.554011         1.78701
LJ          -4.37457        -1.75178        -5.60238
LJ          0.728255        0.274825          1.6111
LJ           1.02436         1.48639         1.07343
LJ           -1.4952         5.75646          3.3466
LJ           1.11886         1.58337        -2.99757
LJ          -1.74715         4.89952        -5.55285
LJ         -0.853074         5.49206        0.608804
LJ           2.15897        0.516841         3.12215
LJ          -2.36422        -3.97757        -3.66244
LJ          -4.88289        -3.53063         3.58002
LJ           1.29155         2.53584        -2.31705
LJ        -0.0824776         2.26297         5.14678
LJ          -3.31673         5.80897        -4.20004
LJ          -3.83776         1.07237        -0.56142
LJ          -1.91478         2.66626        0.534065
LJ           4.81641         -5.6283         5.40779
LJ          -3.44614         2.60006         5.17182
LJ           4.66828        -6.12757         3.95936
LJ           3.50509        -5.16255        -3.75524
LJ          -3.10921         1.96916          2.3861
LJ           1.74439        -5.73723        -5.77106
LJ           3.41978         2.73888        -4.29971
LJ            1.5596        -1.53674        -2.65165
LJ          -3.01966        -2.91247        -1.15424
LJ          -6.41888        -2.88553         2.44134
LJ           2.61352        -4.22253         -4.9567
LJ           3.70381         -1.0478         3.15459
LJ           3.97442        -6.22106          -2.824
LJ           4.10595         2.07686        -1.21609
LJ          -4.29981         5.07568         -3.9158
LJ           3.98304        -4.90188         1.09816
LJ          -3.23661         -5.2075        -4.97663
LJ          -1.41768        -5.96157         6.37152
LJ           3.10047       -0.184298          2.4876
LJ           -4.3645        -1.90823         4.99649
LJ           2.54479       -0.227842          5.4766
LJ          -2.56283         3.98549         5.90704
LJ           3.61364       -0.124979         3.76679
LJ           4.14266         3.93818         3.61762
LJ          -5.98313         6.19204         5.77317
