108
#Comment!
LJ          -5.62512         4.11238         -2.8696
LJ           4.26948        -2.74573        -2.97252
LJ            6.2205        0.829852        -2.39935
LJ         -0.276929         -4.7019        0.321192
LJ           2.95597         4.19109       -0.450107
LJ           1.84594        -5.23659        -3.32116
LJ           5.35058       -0.780647          2.8883
LJ           5.04762          3.1824       0.0283604
LJ           5.47822        -6.01571         5.01529
LJ          -0.87925        -6.19307        -4.74845
LJ          -5.96657         3.15736         2.44817
LJ          -2.53768         5.14304         1.25571
LJ           1.31735         5.76059       -0.562946
LJ           2.57858        -6.19173         1.00909
LJ          0.334593       -0.937532        -3.89228
LJ           2.49989        0.912823        -3.49202
LJ           5.98431        0.273261        -5.55863
LJ           1.75024         0.24334         2.54488
LJ         -0.705116         1.33901        -6.39852
LJ           0.59668         4.01454         -5.0388
LJ          -3.02158        -2.52826         4.31578
LJ          -6.28636         -5.8534         5.02883
LJ         -0.552195         2.19117         4.44969
LJ          -2.55826         3.50567        0.536938
LJ         -0.445124          5.9571         2.04247
LJ           1.13434         3.80761         6.28201
LJ          -1.90813         6.17994         5.51105
LJ          -5.63265          0.8364         5.35254
LJ          -2.47328         1.77761         -6.0968
LJ          -2.60932       -0.755846         4.36208
LJ          -2.57757         4.87727         3.96771
LJ          -2.91465        -5.63483         1.34952
LJ           2.57165         5.46193       -0.247777
LJ          -2.54769         1.68256        -4.53406
LJ          0.403765       -0.440136        0.064335
LJ         -0.655866         5.57146        -4.80759
LJ           1.90028        -6.26185        -3.25605
LJ          -5.54792         3.71427        -1.38668
LJ           1.76264         1.49059       0.0530443
LJ          -4.52389        -6.34095        -3.90552
LJ           4.11767         4.88987         3.74984
LJ          0.202215        -2.99251         4.67878
LJ          -3.62081        -4.27774        -2.43241
LJ            -6.048         3.18465        0.520609
LJ            3.3036         5.72328        -3.87742
LJ            6.1968         2.36131         1.00312
LJ           2.77868         1.94126         2.03659
LJ           6.40831       -0.580688         3.71489
LJ           4.15853         -4.3618        -4.33665
LJ           3.52829         2.73121      -0.0397774
LJ          0.145815        -1.96692        -5.71853
LJ            5.7963        -4.63342        0.476654
LJ           2.50059        -1.76785        -4.53801
LJ          0.651698       -0.867768        -2.10014
LJ           5.74445        0.661372        -1.36292
LJ          -1.45848         6.30349        -1.52905
LJ          -1.93814        -2.38631          2.5884
LJ         -0.219076        -1.67765        0.116994
LJ        -0.0472788        -3.42827        0.507004
LJ           1.94985         2.77624        -5.91212
LJ          0.602247        -5.86308         4.96089
LJ          -3.28606        -0.67654        -4.36273
LJ           5.68709        -4.36961        -2.83375
LJ           1.48018         -4.8505         1.66068
LJ          -6.01239        -4.51705        -2.63362
LJ            5.4878        -5.59138        0.998427
LJ           -4.0534        -3.20945        -3.56673
LJ         -0.145865         3.86115         6.30001
LJ           1.41414        -3.51497         4.84577
LJ          -1.64704        -1.48163        -4.66835
LJ           4.38531        -1.86766         2.50517
LJ           1.70142        -5.53319        -1.08677
LJ           3.09313         5.61017         5.04413
LJ          -4.05864        -2.68045        -1.37905
LJ          -3.24755        -1.54306         5.58348
LJ         -0.522861         5.36067        -5.76684
LJ          -4.03293         1.59642          4.5721
LJ           3.50172        -2.21874         2.90526
LJ          -5.35157         4.57199        -1.89267
LJ           5.11582        -2.74253         4.42934
LJ           3.24097         5.35563         6.15235
LJ           -6.2954         3.32938        -4.80864
LJ          -5.89066         2.90205         -2.0816
LJ           2.50159        -1.39242       -0.394801
LJ           1.71452        -5.68575        0.494195
LJ          -5.17373        -2.94597        0.655187
LJ          -1.71509        -6.33974        -5.48633
LJ          -1.53406         4.18435       -0.791218
LJ           3.97991        -6.08202        0.834923
LJ         -0.633128        -2.06248         1.95055
LJ          -3.94831         4.73161        -1.57807
LJ          0.659812        -5.28353       -0.147982
LJ          0.141752       -0.413446        -5.56059
LJ           2.13728        -2.49811         1.54507
LJ          -4.57067       -0.502532        -2.93846
LJ          -1.20524         1.00582        -2.90926
LJ           4.21716         1.75967         -1.5928
LJ         -0.625203         2.60717       -0.665842
LJ          -5.15924         2.35147       -0.732553
LJ          -2.64407        -2.90672         5.65199
LJ          0.454832         2.64041        -4.70076
LJ          0.360534          1.4151       -0.268967
LJ          -3.05855       -0.301443         3.34303
LJ          -0.48016         2.82614        -2.07062
LJ           1.70988        -5.51564        -2.28878
LJ           6.43561         1.97444         5.17596
LJ          -1.43616         3.38175        -2.12915
LJ          -4.73988         3.43408      -0.0954544
