108
#Comment!
LJ  -0.22423363273012695   -0.38577637635665618   0.34877656492735515
LJ  0.32677988985925138   0.35448424835674436   -0.21605474248321382
LJ  -0.34251066538695735   -0.070726336185724201   -0.43708700979942283
LJ  -0.19752314464166582   0.43393013374951933   0.25810929904078683
LJ  0.41412578220694118   0.13864830261411204   -0.12000269665867143
LJ  0.04813529540899613   0.40984679474680419   0.11635632527000905
LJ  0.18078901866140357   0.13492343562853082   -0.13142333231297987
LJ  0.15291443015549969   0.41806357098371039   -0.48823649843285127
LJ  0.35969772064864541   -0.098817022309301505   0.061105603750297437
LJ  -0.10997785281066344   -0.4313677415547178   -0.46365939056435013
LJ  0.0067076173476630641   0.013131017725787585   0.21026221090983366
LJ  -0.037516705615539131   -0.31612136940830293   0.35987086572373467
LJ  0.35720049703834295   -0.12442032096399724   0.30614906150226445
LJ  0.33553841371807552   0.49678822590535127   0.39815796579916735
LJ  0.28861776170230141   -0.45543009642364046   -0.16002096910128105
LJ  0.30211882754272112   -0.32666883884281755   0.36120912997511023
LJ  0.37812617417585481   0.090363290912280902   0.26701536794334801
LJ  0.47110443126140938   0.30734908427005175   0.19429263159204863
LJ  0.015321373882356503   0.45756032916250056   -0.073400028204057388
LJ  -0.44765556153307606   0.31190943542541666   -0.24391671138743332
LJ  0.43294509124206998   -0.29335410632457781   -0.44421400344795964
LJ  -0.41793857693963271   -0.20787044854225417   -0.2962969298862615
LJ  -0.0717600586290318   -0.1470952962734369   -0.0097633487400520715
LJ  -0.37577709291727601   0.2490454318085582   -0.41727419894781193
LJ  0.47218322997195605   0.37375010576919698   -0.43807329272786044
LJ  0.022507461390740103   -0.3449441998136365   0.011201972712068008
LJ  0.17921852707908512   0.15904550353920435   0.23135743820851901
LJ  0.19626119513814236   0.046842258571825411   0.40774137299125196
LJ  -0.12669686312435452   -0.0079064149023310385   -0.47685946420242487
LJ  0.28137015664544268   0.084111770332894992   -0.31377936439427317
LJ  0.13559148297781601   0.35970786267332788   0.31466717680061113
LJ  0.096488359896534773   -0.38631249412491503   0.4809351118105416
LJ  -0.20376448057936755   0.30748526163387069   -0.13066716651513671
LJ  0.19346276684493086   0.34598754016868782   -0.045709759501150055
LJ  -0.33449058248264163   0.10765029390427119   0.41501123238623627
LJ  0.19342247238790608   -0.45105427546732318   0.017486380645074781
LJ  -0.44351342898661883   0.098410084897594494   0.21250508676270793
LJ  -0.1854419756508944   0.0432135974241711   -0.12680812411877251
LJ  -0.040740054692823428   0.3650643223430195   -0.42610153804034495
LJ  0.18365887172531603   -0.061909851554965929   0.16238013198703266
LJ  0.16140627347384187   -0.29842900560760144   -0.18148606219697541
LJ  0.26621701900093003   0.22744607020993896   -0.47436845793784904
LJ  -0.14970120761924241   -0.33935816862043094   0.091767539117994082
LJ  -0.21789417231436414   -0.18577704896185526   0.41693456033771958
LJ  0.065401670433608616   0.083134607389809309   -0.45177893649221251
LJ  -0.36815255125503338   -0.47387423119258143   -0.094924390265244282
LJ  -0.20836842564827887   0.30258604096187935   -0.36166191482515392
LJ  -0.38415582287552308   -0.38513992207811842   -0.37937786117998629
LJ  0.010643123915738691   -0.34094365568442142   -0.34165414547493822
LJ  -0.25367677247477971   0.18173002499070395   0.22283939583615581
LJ  -0.008676358620958351   -0.10963650937996336   0.37371077753305709
LJ  0.15281033765424729   -0.19515006755328113   0.3226347498848896
LJ  -0.11551137006309629   0.10504133063214666   0.34791958777738419
LJ  -0.28880805052123537   0.47050505313572605   -0.28262252505545749
LJ  0.09520641502009855   -0.13699057676132631   -0.44452447160570163
LJ  -0.25718345336489434   -0.040533973478112516   0.27027351225779783
LJ  0.29254036769445341   -0.093698410045775254   -0.47573817065963048
LJ  0.26891230667768323   -0.27241250248548365   0.14185764678649126
LJ  0.005334090022360142   0.0086836044582408005   -0.25077483338094014
LJ  -0.40973939482435362   0.31582635955180227   0.37531667474162039
LJ  0.1794295906433922   -0.078922753481195318   -0.23802282397061064
LJ  0.037503177218308384   0.21712891696777165   0.41219213824114126
LJ  0.4816884339730611   -0.42518617082538723   -0.24560199240184299
LJ  -0.46736334957948805   0.024817111293728888   -0.26350813790757538
LJ  -0.28131684872081353   -0.22104441200558522   0.16793261158089365
LJ  -0.47012770708146762   -0.45466929495146302   0.42680647397635491
LJ  -0.19056427119456146   0.44597574583067051   0.052144625156639382
LJ  -0.19515929772379026   -0.32222124334351798   -0.15651975228419349
LJ  0.1479431960776133   -0.14962130685465388   -0.022083890666999607
LJ  -0.0184636589315436   0.27017866724142586   -0.15342008036978991
LJ  0.47312522974436183   -0.12170256357058365   -0.10416105331199903
LJ  0.34880132840385653   -0.22238732737553471   -0.24273668536275847
LJ  -0.37457167845770756   0.48231606197692534   0.135745260372233
LJ  0.11625635728842991   -0.44503974187962803   0.24446589510093772
LJ  -0.26225965468592471   -0.10122541375350061   -0.24665590882479019
LJ  0.46450341575604209   -0.49125366578814228   0.0036282790647303087
LJ  0.3476296520747359   -0.29317546588759469   -0.048598646079529663
LJ  0.48298894024245981   -0.31210483337648687   0.24155210121924922
LJ  0.48761183931416646   -0.051167873686551825   0.46377068194663751
LJ  -0.4601607991343703   -0.30256770112867409   0.046476630655222513
LJ  -0.19027103542060528   0.023348163143768901   0.076901391208627046
LJ  0.23262727446035766   -0.29161916330387511   -0.4293390102898304
LJ  -0.43016823291524031   -0.23009075835480239   0.3969673326675992
LJ  0.41613136760173564   0.32049084794647292   -0.043520218121553302
LJ  -0.018789573407072109   -0.20452995611378286   0.16983128198668554
LJ  -0.41464968577727618   0.016093150774820323   0.015534359994869493
LJ  -0.35103824484609208   0.20250184703424468   -0.0013274787077291656
LJ  -0.09148883520586408   0.47592400753180492   -0.23306106773498392
LJ  -0.052883061072273571   -0.18666745462882314   -0.21223188540910673
LJ  -0.30959739789632235   0.44366288770201384   0.49639421890282825
LJ  -0.19753811368237875   0.26529229993874626   0.44507880405508876
LJ  0.31791025403761081   0.27839889248014726   0.34485973757071259
LJ  -0.29874381355800445   -0.15883872778721561   -0.057324956293219882
LJ  0.1559079065821066   0.26220943269622859   -0.29232083243588242
LJ  -0.45638003706293961   -0.13605431432454665   0.23304152051310428
LJ  0.10644025943439223   0.45600972749853785   -0.26780071583763237
LJ  0.0074704410081889387   0.043288624372084986   -0.0183100286235942
LJ  0.3197525374990241   -0.47928358024211914   -0.38927221993936262
LJ  0.4375729446565359   0.14621219163260588   0.47750284906048884
LJ  0.072839287274532066   0.22006829609891979   0.048709471235118228
LJ  -0.22196753736844207   0.097945220610783562   -0.3409583365755629
LJ  -0.058319719824870456   0.44695888972201397   0.37995356233909416
LJ  -0.14566966781552093   0.20099281879239922   0.035387223998273092
LJ  0.3430386587086876   -0.45052642817284561   0.17322094236650254
LJ  -0.048561847459201654   0.28080189394973304   0.24812314616669812
LJ  -0.18806950670518291   -0.28367047685119179   -0.36367422514182229
LJ  0.25730992171141831   0.3497322984138817   0.14566020170406418
LJ  0.29135865891762086   0.18270471926495394   0.05204823218164014
