108
#Comment!
LJ          -1.57824         2.30397         3.30447
LJ           -1.9762         5.95018        -5.46005
LJ           0.96133        -3.38313         5.00579
LJ           5.82662         4.57281        0.482081
LJ          0.490667         -6.3851         1.91501
LJ           0.48268        -3.99724          2.8019
LJ           2.84897         5.62987        -3.83741
LJ           4.89969          6.3148        -3.97231
LJ           -3.8927         2.54353         4.21336
LJ          -5.18063          1.9664        -3.87241
LJ          0.465111        -2.28715        -4.22455
LJ           1.68106        -3.02273        -2.59446
LJ           -2.9251        -4.53942       -0.923132
LJ           5.18448        -4.12998         6.29471
LJ           -2.1292        -2.31505        -5.13037
LJ          -4.77619         3.45514         -2.8251
LJ         -0.625674         -4.5481        -3.25941
LJ           3.48018         6.43066        0.437443
LJ          -5.02398       -0.429189        -2.59406
LJ          0.112408        -2.01947         5.79595
LJ         -0.905063          4.4242        0.601694
LJ            1.2845         1.70196         2.10502
LJ          -3.97077       -0.183102         -4.5977
LJ          -2.02569        -1.04918        -5.84918
LJ          -2.74236          5.7383        -2.28804
LJ           5.04555        -5.76424         1.41268
LJ          -3.18354         3.40865         3.55022
LJ          -6.13182        -5.09813        -6.36884
LJ           1.54878       -0.545888         2.49019
LJ           4.21924         4.08102         6.34255
LJ            5.9942         1.39893        -4.37073
LJ          -5.93607        0.877407        -3.78833
LJ           5.12464        -4.93655       -0.543218
LJ          -3.29747        -3.76739        -3.11684
LJ          -2.79886        -1.48984         3.54802
LJ           2.50698        -6.07979        -4.02505
LJ          -5.59599        -5.12947         4.95273
LJ           3.12019         1.10599        -4.38929
LJ         -0.217183        -2.62596        -3.39529
LJ          -2.34857        -3.32627        -2.26247
LJ           3.47689         4.89742        0.749699
LJ          -2.17135        -1.20222         -3.7955
LJ          -2.02746        0.012439        0.554779
LJ          -3.65701         3.54153        -3.32912
LJ           4.12077        -4.51144         5.84637
LJ          -1.18252         2.38305        -2.28065
LJ           6.25475         5.45816        -4.28305
LJ           -2.5236          6.0586        -3.33474
LJ          -1.49537          2.9049        -5.78113
LJ          -3.02065        -1.59923        0.797881
LJ           2.68079         6.23106          2.6489
LJ          -2.49562         1.81897         4.77349
LJ          -2.91525        -1.64241        -5.72679
LJ          -6.05553        -1.72688        -5.73809
LJ           3.80087        -5.44397         4.74288
LJ         -0.214636         -5.5274         5.70112
LJ          -3.33554         3.96172          4.7728
LJ           5.86222          4.0533         5.39256
LJ          -3.62656        -3.86604         5.75107
LJ           3.74951        -4.30639          -4.942
LJ           1.83328         5.36643         6.14417
LJ          -3.00967         5.07301         1.08822
LJ          -4.14847         5.62546         3.98286
LJ           2.08945         3.24981        0.192402
LJ           4.22558       0.0227452       -0.540953
LJ           1.93119        -6.12347        -1.94061
LJ           3.53601         3.52837         1.03754
LJ          -4.30671       -0.560225         1.65804
LJ          -4.38745        -1.75851        -5.55974
LJ          0.720023        0.364662         1.57817
LJ           1.08493          1.4219         1.07095
LJ          -1.47062         5.77477         3.32009
LJ           1.16202         1.57473         -3.0007
LJ          -1.88068         4.89272        -5.43215
LJ         -0.763764         5.44492        0.511958
LJ           1.92388        0.401569         3.16278
LJ            -2.316        -3.97515        -3.68368
LJ          -4.89116        -3.55077         3.57606
LJ           1.37347         2.47796        -2.25725
LJ        -0.0376214         2.31948         5.28127
LJ          -3.33533         5.73456         -4.2022
LJ          -3.78395         1.04791       -0.588882
LJ          -1.91315         2.60884        0.533561
LJ           4.90056        -5.53822         5.39769
LJ          -3.41638         2.64145         5.26312
LJ           4.59682        -6.14192         3.83865
LJ           3.57309        -5.09907        -3.74002
LJ          -3.04846         2.01064         2.30704
LJ           1.76564        -5.68421        -5.78377
LJ           3.44992         2.66944        -4.28944
LJ           1.54275        -1.48833         -2.6593
LJ          -2.99344        -2.95981        -1.11276
LJ            6.4533        -2.86376         2.35895
LJ           2.61626        -4.13363        -5.01659
LJ           3.65292        -1.05942         3.08734
LJ           3.93754        -6.21119        -2.83554
LJ           4.14482         2.02163        -1.13732
LJ          -4.30716         5.08767        -3.93036
LJ           3.91824         -4.8281         1.16974
LJ          -3.29533        -5.03422         -4.9885
LJ          -1.35493        -5.96628        -6.45412
LJ           3.02127       -0.125826          2.3597
LJ          -4.36446        -1.85398         5.08581
LJ           2.57999        -0.24157         5.45069
LJ          -2.52853         3.98345         6.03144
LJ           3.65919      -0.0697102         3.78483
LJ           4.13436         3.89904         3.59267
LJ          -5.97719         6.14088         5.73879
