108
#Comment!
LJ         0.0468776         6.35795         5.55102
LJ          -3.69132        -6.11533        -2.40088
LJ          -3.61141        0.180705        -2.70268
LJ           4.94285        -2.81371        -4.44072
LJ          0.686601         4.79843         4.63707
LJ          -3.82837        -1.01892         -5.9917
LJ         -0.973001        -3.64541         4.34961
LJ          -4.55491         1.37142         5.05152
LJ         -0.233655        -5.21207         5.30797
LJ            1.9781        -2.34168         3.56059
LJ          -1.04402        -5.01445        -3.99202
LJ          0.317455        -2.76689         2.92548
LJ          -5.09474       -0.808262         5.13691
LJ          -1.30815         4.09954        -6.39759
LJ          -5.89485         -2.6585        0.145251
LJ          -2.25574        -6.40907         4.60375
LJ           2.14541        -2.07611         2.58719
LJ          -4.70964        -1.10801        -5.41885
LJ          -4.83889        0.382789         1.17829
LJ          -1.92599        -4.18408        0.305094
LJ          -3.16718         5.69293         6.42682
LJ          -4.43698         5.49514         -2.2696
LJ           1.66557         4.42095         5.45828
LJ          -5.55238        -5.68001        -1.02425
LJ         -0.204845          2.2862        -2.71535
LJ          -3.63582        -6.00149        -1.10661
LJ           1.13594        -4.67221          4.0154
LJ          -4.58742         1.05342         1.87417
LJ          0.759667        -3.73569         4.79055
LJ           2.18393         3.84198        -1.48203
LJ          -2.32516        0.601503        -4.09942
LJ           2.12766         3.47826        -4.70054
LJ         -0.127642         2.69681         5.57235
LJ           1.24548          -3.201         5.55018
LJ         -0.653358         4.60369        -5.27329
LJ            4.8383         5.31989         4.37839
LJ           1.83468         -4.5682        -1.73779
LJ         -0.137403        0.496378         2.18056
LJ          -3.62443         5.95118       -0.167991
LJ          -1.59246        -4.34062        -4.70608
LJ           4.85003         4.25912         4.14305
LJ          0.231207         4.14544          2.8608
LJ          -5.24587         5.28016        -4.12559
LJ           1.70286       -0.874066         3.01807
LJ          -3.14919         -6.2012        -3.70577
LJ          -4.26413          4.6885        -5.91227
LJ           4.58672       -0.256327         4.38886
LJ           5.46421       0.0941501          5.1149
LJ           3.67695       -0.727245        -3.77341
LJ          -3.68619       0.0320568         2.12496
LJ           6.18579         6.02319        -4.01477
LJ           1.36337        0.803751         4.73064
LJ          -3.02989         1.44937        -4.53317
LJ         0.0869711        -4.70011        -3.15065
LJ           1.19868        -3.52176        -6.01133
LJ          -3.41452        -5.64991      -0.0675628
LJ           5.31613         4.60331        -1.45588
LJ          -4.64474        -2.19077        -6.10719
LJ          0.208363        -1.21662         0.64416
LJ          -5.79337        -4.76707         3.02509
LJ           6.37448         6.33319         2.62595
LJ           2.23117         4.89512         3.48454
LJ           4.82249        -1.07208        -3.63389
LJ          -2.09362         3.62929       -0.543379
LJ           1.59842         3.09794       -0.363106
LJ           3.28356        -5.29625         5.70553
LJ           -5.5734         5.22784         4.73085
LJ           1.87576        -3.86799        -3.09508
LJ           1.20169        -3.37634         2.88595
LJ           4.72065         6.38184         5.59032
LJ           1.39991        0.335885         2.73039
LJ          -4.65859         -2.2549        0.529632
LJ        -0.0856652         4.82288       -0.711981
LJ           5.69409            6.03        -1.99582
LJ         -0.830928        0.659859        -3.39837
LJ          -2.74465         5.47546        -5.09837
LJ           -2.5957        -5.72624        0.867558
LJ          -5.38588       -0.166345        -5.51427
LJ          -3.98197         6.09861        -1.48559
LJ           4.67107        -5.07641        -5.45553
LJ          -6.23088        -3.15085        -2.21036
LJ           4.97478         4.27781         5.82892
LJ           2.91525         4.55124        -2.60037
LJ          -5.23708        -4.87738        -3.09539
LJ            5.0328         5.23973         5.57286
LJ           3.68445         -5.4982        -3.07279
LJ          -3.40102           3.663         5.73571
LJ           3.07382       -0.786525        -2.82801
LJ           6.05177        -1.79774         1.09746
LJ           2.13644        -1.59385          5.1445
LJ          -2.40913          1.5003         0.88503
LJ          -1.18492        -6.03378         3.77129
LJ         -0.158395        -3.70063         2.32405
LJ          0.222795        -5.55929         3.96506
LJ          -2.79746        0.653226         4.11543
LJ           1.98533       -0.105869        -4.74729
LJ           1.25539         4.09837         2.79344
LJ          -1.16291         3.41352         -4.0253
LJ           5.03615         2.73784         5.56347
LJ          -3.70889         2.91959         2.17947
LJ          -2.51359        -3.79652       -0.352957
LJ          -1.18927         2.84837         -6.1397
LJ           3.94838        -5.96547        -1.82409
LJ           5.92056       -0.439675        0.611932
LJ           4.25167         6.42897        -3.64459
LJ           3.18744         2.83058       -0.945885
LJ          -3.93054         4.98715         2.58944
LJ           -2.6079        0.363167          5.6179
