108
#Comment!
LJ          -1.59947         2.32676         3.36999
LJ          -2.14414         6.02385        -5.05783
LJ           1.52324        -3.30283         5.06611
LJ            5.2853         4.44259        0.891223
LJ         0.0237274        -6.26154         2.34341
LJ           0.64539        -3.99412         2.59983
LJ           2.60092         5.48483        -3.63478
LJ           5.18878         6.03213        -3.83567
LJ           -4.1446         2.75264         4.17644
LJ          -4.93694         1.67632        -3.93932
LJ          0.424391        -2.07652         -4.4957
LJ           1.70188         -3.2496        -2.52862
LJ          -2.74438        -4.81402       -0.854843
LJ           5.25315        -4.00187         6.19575
LJ          -1.99919        -2.27725        -5.49559
LJ          -4.76178         3.66198        -2.62896
LJ         -0.999066        -4.71729        -3.47312
LJ           3.27636        -6.23665        0.298074
LJ          -5.15422       -0.874582        -2.82105
LJ         -0.237155        -1.65695         5.44098
LJ          -1.05359          4.4654        0.406173
LJ           1.32019         1.75581         1.95418
LJ          -3.99852       -0.156182        -4.75216
LJ          -2.10631        -1.05924        -5.60739
LJ          -2.31386          5.7646        -2.48842
LJ           4.97133        -5.91026         1.17808
LJ           -2.3853         3.58984         3.81544
LJ          -5.72769        -4.88097        -6.01685
LJ           1.18843        -0.49304         2.34264
LJ           4.61081         3.66071          6.1636
LJ           5.94174         1.54757        -4.42426
LJ          -6.09271        0.859048        -3.51459
LJ           5.32495        -5.30847       -0.703033
LJ          -3.06931        -4.03188        -3.10619
LJ          -2.23393        -1.41877         3.63218
LJ           2.79948        -6.22691        -3.80228
LJ          -5.91849        -4.91056         4.63209
LJ           2.95159         1.45511        -4.16016
LJ         -0.713433        -2.88011        -3.58247
LJ          -2.13212        -3.50356        -2.14749
LJ           3.30996         4.56762        0.841556
LJ          -2.05373          -1.453        -3.82653
LJ          -2.03688       0.0342893        0.478294
LJ          -3.50059          3.4044        -3.01348
LJ            4.4828         -4.8276          5.8908
LJ          -1.79018         2.54563        -2.23718
LJ           6.41572          5.2099        -4.40076
LJ          -2.53171         5.61846        -3.71428
LJ          -1.02929         2.88313        -6.28562
LJ          -3.13769        -1.58857         1.29424
LJ           2.64005        -6.17665          2.9082
LJ          -3.00313         2.14091         4.84243
LJ          -3.15543        -2.03159        -5.98825
LJ          -5.90186        -1.71931        -5.80511
LJ           3.72952        -5.19123         4.99029
LJ         -0.230007        -5.70448         5.83297
LJ          -3.11015         4.04727         4.45788
LJ            5.4733         3.88884         5.25598
LJ          -3.34889        -3.87638         5.51405
LJ           4.03649        -4.77323        -4.81822
LJ           1.90147         4.92538         5.76568
LJ          -2.94041         5.24387         1.04752
LJ           -4.4237         6.11952         4.43408
LJ           1.62131         3.07373      -0.0909049
LJ           3.65348      -0.0465257       -0.566598
LJ           1.62186        -5.85601        -1.74363
LJ           3.75683         3.72885         1.49084
LJ          -4.59462       -0.598911         1.00897
LJ          -4.42494        -1.78236        -5.35747
LJ          0.598904         0.67661         1.57029
LJ           1.50099         1.23083        0.876895
LJ          -1.34674         5.86605          3.1858
LJ           1.39674         1.58457        -2.96518
LJ          -2.55327         4.79089        -4.82756
LJ         -0.226102         5.62176      -0.0225557
LJ          0.836514        0.228332         3.75807
LJ          -2.10768        -3.95377        -3.73421
LJ           -4.9356        -3.65243         3.55948
LJ           1.76693         2.13546        -2.00966
LJ          0.179866         2.60366         5.95711
LJ          -3.38027         5.36617        -4.24806
LJ          -3.51229        0.924342       -0.724061
LJ          -1.90721         2.32255        0.537093
LJ           5.40188        -5.14665         5.23043
LJ           -3.2306          2.8592         5.62893
LJ           4.21563         -6.1889         3.27038
LJ            3.9009        -4.81633        -3.70988
LJ           -2.7315         2.22692          1.9227
LJ           1.87872        -5.41504        -5.84021
LJ           3.58604         2.27723        -4.23914
LJ           1.45665        -1.27401        -2.70091
LJ           -2.8294         -3.2426        -0.96011
LJ           6.18357        -2.75613         1.94907
LJ           2.67915        -3.71984        -5.30558
LJ           3.37325        -1.02188         2.76172
LJ           3.73855        -6.13951        -2.95988
LJ           4.33739          1.7401       -0.741488
LJ          -4.38994          5.1207        -3.98281
LJ            3.6173        -4.48845         1.52598
LJ          -3.58184          -4.164        -5.03914
LJ          -1.01681        -5.99589        -5.96189
LJ           2.59995        0.130924          1.7894
LJ          -4.36131        -1.58614         5.53697
LJ           2.75942       -0.309248         5.31239
LJ          -2.36504         3.95999        -6.28429
LJ           3.86292        0.151228         3.82031
LJ           4.09341          3.7043          3.4676
LJ          -5.94741         5.89714         5.56495
