108
#Comment!
LJ           2.20277        -6.38635        -2.23068
LJ          -3.47345        -2.52043        -5.10127
LJ          -5.07463         3.00404         2.95812
LJ           2.13276        -5.07508        -4.13674
LJ          -2.37733         3.90789         4.08293
LJ          -4.24894      -0.0537275         6.10091
LJ           2.01478        -2.48556           3.546
LJ          -1.75992          2.2666        -4.27878
LJ          -1.47475         5.70632         6.43126
LJ           5.82305        -2.57116        -4.04148
LJ          -1.49197          3.4394       -0.989302
LJ          -1.58584         -5.1916        -2.38069
LJ          -4.74259         6.01474       -0.262462
LJ           4.09633         4.65383        -3.67424
LJ           -2.6951        -4.00152         2.74259
LJ            1.3089         1.89154        -1.93382
LJ          -1.90823        -2.36261        -3.74012
LJ          -3.57951        -1.85709        0.862092
LJ           -3.0064        0.984495         2.60685
LJ          -5.29638        -2.58999        -4.97229
LJ         -0.277881         3.32978         4.08087
LJ           4.71151         4.12612        -0.38934
LJ           1.47728         2.01248        0.110342
LJ           1.45455        -4.44087         4.45482
LJ         -0.412144         5.84239         2.74563
LJ           1.71637        -1.61067         1.09975
LJ           5.32501        -1.14703         -4.8812
LJ          -1.09221         1.84933         5.09448
LJ           1.47921        -5.44324         5.21196
LJ          -2.51258        0.568527         4.15588
LJ          -2.27737        -1.96254        -5.79788
LJ           2.53831        -5.00845        -2.62532
LJ          0.105633         5.65452        -4.06073
LJ         -0.301633        -6.13332         5.57505
LJ           4.48856        -6.20333         6.15315
LJ          -5.98432          1.8181         5.08131
LJ          -2.58906         2.65831         5.25475
LJ          -1.90828       0.0292378         1.66765
LJ          -4.62835        -5.98959        -4.23067
LJ         -0.183463         6.03768        -6.18464
LJ           2.26567        -2.07274         2.70251
LJ          -1.72223        -1.84343         2.84302
LJ          -4.85981         5.38237        -3.68182
LJ           1.86314          -1.304         3.85903
LJ           -1.7193         2.62023        -6.33932
LJ           -3.4407         1.17371         5.58704
LJ         -0.637038         6.19288        -4.45913
LJ           5.18066        -2.78877         4.84282
LJ          -6.11984        -4.48094             1.9
LJ          -4.91047        -3.22481         2.67459
LJ           4.99703        -4.64377         -5.6329
LJ          -3.04465         5.01405         5.02013
LJ          0.542354         1.81145        -2.50619
LJ         -0.290581         4.04807     -0.00380453
LJ          0.584954         1.75561         3.37385
LJ          -5.27105         1.73819       -0.377631
LJ          -4.95552        -6.22285         3.20067
LJ         0.0188174       -0.723815        -4.70915
LJ           1.10001         1.11886        0.821444
LJ          -1.60922        -4.62268         4.47415
LJ          -5.39407       -0.754693        -1.00059
LJ           1.64072        -3.68763          -3.369
LJ          -5.73676         5.19792        -2.97354
LJ         -0.348721          2.2554        -2.06958
LJ          0.699556        -5.43742        -1.68587
LJ           5.94343         1.84889        -6.39543
LJ          -6.11138         -3.7379        -5.00544
LJ           4.42416        -3.75765        -3.62839
LJ          0.402497        -5.39298         5.30729
LJ            2.5126         -1.7344          5.9259
LJ         -0.879535        -2.24429        -3.23074
LJ          -5.42428       -0.631899        -2.23909
LJ          -5.17854         6.36924        -1.29284
LJ           2.34221        -5.56477        -1.54228
LJ          -4.54522        -5.15275         5.04665
LJ           -6.3207        -3.87985        -1.26742
LJ          -5.04825        -4.87891        -3.27463
LJ           4.58474        -4.70985        -1.04096
LJ            3.9463         5.44387        -2.69359
LJ           3.81374       -0.210656         5.19973
LJ          -3.29979         5.68769        -6.37814
LJ           5.02842       -0.436308          4.5612
LJ          -3.23441        -3.55895         1.18351
LJ          0.686204        -2.68799        -1.03021
LJ          -5.61475          4.9403        -4.39895
LJ           5.96849         6.42934          -2.315
LJ          -3.44609       -0.588849        0.540335
LJ           5.40856         -5.3603        0.824741
LJ         0.0700377        -2.72435        -2.97505
LJ          -1.27502        -2.87268         6.31046
LJ          -5.42506         1.92489        -2.77023
LJ          -1.94906         5.74269        -5.31218
LJ          -2.72933        0.634873         1.06367
LJ           4.45057       -0.762309         5.89846
LJ           3.38803       0.0672183         6.33872
LJ         -0.874186        -5.96295        0.836505
LJ           1.68646        0.179794         0.37662
LJ           4.54422         3.32216        -1.90192
LJ           2.59161        0.705173        -2.69421
LJ          -2.86191         1.60404         1.33613
LJ          -5.90521         1.46069        -1.60778
LJ         -0.805469        -5.94669         -6.1125
LJ           6.18468        0.536475       -0.424201
LJ          -4.64009        -5.61869       -0.875499
LJ           5.65586         3.36235       -0.302999
LJ          -0.46247        -2.27284       0.0842474
LJ          -2.26676        -4.10012         1.64701
LJ            1.6693       0.0238104        -4.83029
