108
#Comment!
LJ           2.58284         2.66871        0.394041
LJ           2.78638         1.66689        -2.50897
LJ          -4.57071         5.52223        -3.39614
LJ          -6.41978         1.30045        -6.19906
LJ          -4.49847         3.30723         4.31671
LJ          -5.16329         -2.2719         6.40378
LJ          -2.72904        -4.99557        -4.77165
LJ          0.571933         2.09448        -6.05929
LJ         -0.898072         3.78592        -5.20303
LJ           4.81414        -1.46338         -5.9406
LJ          0.570199         0.23279         1.88672
LJ          -1.06906          2.0537        -2.78615
LJ          -5.84314         1.55366         0.21911
LJ          -4.86277         4.29959        -4.35777
LJ           2.18424        -0.72434         -5.8109
LJ          -1.67713         3.62851        -6.33095
LJ           5.29782        -3.21611        -6.08775
LJ          -3.98139        0.882333        0.332424
LJ         -0.835392        0.722339         1.59457
LJ          -1.84246        -1.49727        -1.39892
LJ          -2.40296        -4.35222         3.17032
LJ          -4.82418         4.46731        0.565371
LJ         -0.849894        0.427106        -3.82551
LJ          -5.17104        -5.99138        -4.99859
LJ          -2.39134        -5.50179         4.32397
LJ           3.51274        -1.99133        -4.73849
LJ           6.37026        0.795701         2.41342
LJ          0.611482         1.29811         2.34871
LJ           3.55872         -3.4957        -5.96318
LJ           5.52644         1.88223        -2.51914
LJ          -2.96213         4.26322         4.63161
LJ           5.30492        -1.89273        -4.00264
LJ           1.29708         2.44129         1.25486
LJ         -0.522491         2.71822        -5.35914
LJ          0.988603         3.10663         5.22006
LJ          -5.10909        -3.03894         3.04396
LJ          -5.96366         2.71221        0.123751
LJ          -4.32413         4.10223          3.2742
LJ          -4.95552        -3.20509         4.04752
LJ          -2.80937          2.3345        -5.06561
LJ           4.23023        -1.49252        0.262818
LJ          -4.03777         2.50975           2.912
LJ          -4.25336        -3.08963        -5.76577
LJ           3.94729        0.488897         4.69581
LJ          0.617877          2.0309         5.66458
LJ          0.965453          4.6943          -3.363
LJ          -3.19377        -3.10243          3.0248
LJ          -5.92297        -0.17982         1.09489
LJ         -0.022237         5.31916         2.89643
LJ          -5.45704        -4.47128         6.25954
LJ            -2.461        -3.14891        -2.75474
LJ          -2.11792         4.14502         2.48289
LJ          -1.14159        -2.00147        -4.38465
LJ          -5.57981         2.21985         6.17975
LJ           5.40929         2.98014          3.0098
LJ           6.05903         4.84867          3.5607
LJ           6.28768         -4.9472        -4.98644
LJ          -1.63449         -3.0672        -4.65932
LJ          0.601757      0.00515242        0.696488
LJ         -0.185276         5.52709        -4.45272
LJ          -4.94407         4.34862        -2.67224
LJ          -2.39814        -4.80746        -3.59236
LJ           5.69489        -5.96255         -0.6285
LJ           3.75573         4.69009         -0.5932
LJ           3.98026         3.74215        -2.93377
LJ          -2.30042        -2.90404         6.41907
LJ          -4.22245         2.24834        -1.52849
LJ          -1.73585        -1.29235          2.6731
LJ           3.54763         2.53125         6.45185
LJ          -2.18289        -1.40913         3.88059
LJ            6.0063        -1.67057        -6.31347
LJ           -5.9879         3.96124        -3.81539
LJ          -5.30274        -3.26788        -5.69259
LJ          -2.33258        -6.30373         -0.8655
LJ          -4.53991        -5.59241         1.10998
LJ         -0.888558        0.103473         2.60224
LJ           6.07772        -3.75048        -2.25529
LJ            3.1045         5.28603         1.98158
LJ           3.94044         4.64766        -3.54825
LJ          -5.51813        0.513656         3.05889
LJ          -4.28735        -4.24504        -5.05072
LJ           3.74288       0.0401933      -0.0125211
LJ         -0.129928        -4.77417         1.69232
LJ          -6.40999         1.66338         2.97238
LJ          -3.64637         5.30365        -5.33524
LJ           3.29777         3.94338          1.0153
LJ           5.19686         2.28401      -0.0239723
LJ          -4.11374       -0.449237         2.44066
LJ         -0.603052        -1.25635        -3.74521
LJ          -1.36092        -6.31082         5.83692
LJ           5.31323        0.945497       -0.314011
LJ         -0.591734          3.7626         5.19706
LJ          -3.14766        -3.98187        -3.58962
LJ           4.74405        -5.65999         -4.9718
LJ          -4.35812        -2.93321          6.0766
LJ          -4.68764         6.23074         2.81013
LJ           2.04321         2.60646         2.06421
LJ          -5.16223         5.68801        -5.07812
LJ          0.314278          3.5552         1.68405
LJ          -4.74401         5.21041         2.23902
LJ          -6.10167         3.79217       -0.501101
LJ          -2.72772         1.67701         3.18495
LJ          -4.16075         3.30463         -2.2949
LJ            6.4217        0.147948        -3.69763
LJ           1.60699         1.80263        -1.67745
LJ          -4.61948         2.31847        -3.06536
LJ         -0.154234        -2.97856        0.713041
LJ         -0.863811        -1.45427        -2.16585
