108
#Comment!
LJ             5.648         4.20693        -3.88383
LJ           2.90465        -2.80578        -3.19456
LJ           6.10257         1.88785        -1.44402
LJ           -1.9166        -5.54433        -1.33073
LJ           2.81343          5.3649        -3.64682
LJ           2.97559        -3.64091        -4.04351
LJ          -6.13016        -2.37883         4.42413
LJ           4.81436         2.48933        -2.04124
LJ           6.18087        -1.83939         1.32256
LJ          -2.35149        -4.90863        -5.87065
LJ           5.39419         4.68404           1.848
LJ          -3.36929         4.70041          3.0408
LJ           1.05264         6.35416      0.00265625
LJ            2.5187         6.40898       -0.893694
LJ           1.05299        -3.86555        -3.46342
LJ           3.05522          2.3784        -4.48553
LJ           5.08562        -0.80075        -2.71837
LJ           1.02665         1.32787         4.77571
LJ         -0.627167        0.139322         6.26212
LJ           2.34913         2.63115        -5.14037
LJ          -4.56714        -2.15578          5.3762
LJ           -6.0299         5.64424         3.31596
LJ          -2.86246         2.41121         2.54258
LJ          -2.06036          3.6211         1.29812
LJ         -0.866067         3.99554         1.39674
LJ          0.530968         3.32572          5.6347
LJ          0.230647        -5.94339         3.66554
LJ          -6.22895        0.801269        -5.51931
LJ          -1.98295         2.35284         5.01754
LJ           -1.2685        0.524923         3.65762
LJ          -2.00275         5.46537         5.57369
LJ          -1.87344         4.09104         2.63155
LJ           3.47549        -6.30135        -1.37999
LJ          -2.68076         1.47517        -3.61624
LJ           2.07364        -0.17965        -0.53461
LJ          -1.75425         5.01441        -4.30467
LJ          0.835783        -5.04876        -1.91822
LJ           5.56045          4.2712        0.921137
LJ           2.24027        0.473163        -2.23459
LJ          -5.13303        -6.38699        -5.14864
LJ           3.51382         6.27834         4.16573
LJ         -0.864595        -2.88896         3.59918
LJ           -4.3081        -4.91602         -2.1251
LJ          -6.20993         3.13533         1.66581
LJ           3.45626        -5.46814        -3.98094
LJ           5.25224         2.81079        0.848891
LJ           3.46137         2.39095         2.14144
LJ          -5.14964        -1.87411         3.79353
LJ           4.78736        -4.80959         6.36323
LJ           2.62519         4.36519        -0.63403
LJ         -0.256591        -2.19127        -4.28346
LJ          -6.09102        -3.58385          2.6396
LJ           2.07218       -0.667237        -4.93619
LJ         -0.187988       0.0443173        -3.21607
LJ          -6.11593        0.842306        -1.61835
LJ          -2.39417         6.30662      -0.0235925
LJ          -1.91352        -3.94842         3.40531
LJ          0.637245       -0.172427         1.66015
LJ          0.377821         -5.3803          2.1866
LJ           3.98646         2.80022         6.22392
LJ         -0.159718         5.82718        -6.31099
LJ          -3.85469        0.740246         -4.9566
LJ           5.49081        -4.00074         -1.7947
LJ           1.72489        -5.55127         1.42812
LJ          -6.34592        -4.73343         1.56978
LJ           4.32125         -4.8782         2.14999
LJ          -5.40419        -2.34082       -0.203253
LJ           2.32556         3.60894         -5.6627
LJ           1.75826        -6.22752          5.4957
LJ          -2.46494        -2.29788         -5.7317
LJ          -6.09467        -2.04038         3.13989
LJ            1.0135        -4.42605        -0.40163
LJ           6.29579         6.32091         4.66274
LJ          -1.94512        -3.54299        -4.91725
LJ          -3.35312        -2.62684         4.33112
LJ         -0.767033         4.97652        -6.06577
LJ          -4.04348        0.637313         2.92902
LJ           3.31737        -2.17439         2.94235
LJ          -5.14274         4.50632        -2.94745
LJ            5.6102        -2.60054         3.44466
LJ        -0.0668219         -5.8463         5.48914
LJ           6.44052         4.05842        -5.29281
LJ          -5.13037         2.97233        -2.41051
LJ          0.208482        -1.72803         2.16257
LJ           2.01619        -4.63387        0.663297
LJ          -5.11757        -3.64185        0.253497
LJ          -4.22435        -5.67519        -4.97105
LJ          -1.27717         1.28195        -2.22732
LJ           5.68267        -5.47524       -0.792134
LJ         -0.393848        -3.06699         2.49017
LJ          -5.02683         5.03319      -0.0567036
LJ           1.61074        -3.26232        -0.15496
LJ          -1.04545        -2.48813        -5.66878
LJ           5.04889        -2.80184         1.05071
LJ          -5.00332         1.34419         -4.4459
LJ          0.449727         2.05894        -2.57448
LJ            3.1232         2.59161        -3.13273
LJ         -0.618118       -0.492613         -1.9809
LJ          -6.32015         2.27952        0.924584
LJ          -2.54092        -2.94816         6.03701
LJ        -0.0622294          1.3088        -3.64096
LJ           1.69995         2.28104        0.335595
LJ           -2.7444        -3.06755          3.5441
LJ          0.175118         4.95697        -3.53984
LJ           2.23707        -4.54954       -0.547191
LJ           -5.3131        0.831381         4.99025
LJ         -0.252295         3.95098        -1.73465
LJ          -6.12262         1.77445         1.89537
