108
#Comment!
LJ           3.76279         4.23281        -4.40072
LJ           1.26702        -3.05826        -3.63452
LJ           -6.1539         2.30276        -0.69628
LJ          -4.01854         5.95513        -3.09442
LJ           2.54106        -5.48844         5.02152
LJ           4.33242        -1.94709        -4.47689
LJ          -4.08744        -3.00207         5.41614
LJ           3.61487         1.34992        -4.33266
LJ          -5.64382         2.13505        -3.01579
LJ           -3.7723        -2.62055         6.37069
LJ           3.91665        -5.04198         4.26111
LJ          -3.51121         4.08124         4.81465
LJ          0.534167        -5.75789         2.03833
LJ           3.91924        -6.28293        -3.40809
LJ           1.90179         5.57653        -2.81773
LJ          -6.14672         2.97869        -3.23388
LJ           3.96876        -2.11669        0.835666
LJ         -0.140757         3.27495        -5.67598
LJ          -1.47489         -2.5127          4.5774
LJ           3.86382         3.07697         6.13847
LJ          -4.24887        -1.87035         5.47896
LJ          -6.03864         3.66658         1.95017
LJ          -4.58044         2.72127       -0.202589
LJ          -4.52491         1.64248        0.667412
LJ         -0.115824         2.39913         1.11325
LJ         -0.504268         2.99449         5.59467
LJ           2.83147        -5.79712          3.6029
LJ           2.46993         1.22564        -5.01212
LJ          -2.29534       -0.139861         5.32609
LJ          0.244646         2.03498         2.71055
LJ          -1.78136         5.66682        -5.73328
LJ           0.20243         4.36508          3.5465
LJ           4.22976        -6.36262        -2.14556
LJ         -0.698568         2.13297        -1.10539
LJ           2.21461        -2.43522        -3.80396
LJ          -4.25744          3.9613        -1.83997
LJ           -1.0767        -1.43489        -3.06493
LJ           4.51815         4.62179        0.825357
LJ            2.7035       -0.535773        -4.98944
LJ          -5.68569        -6.28346         6.30156
LJ           2.29649        -4.36667         5.83531
LJ          -3.68465        -3.35108         3.22993
LJ          -5.38384        -5.47152        -1.74947
LJ           5.39371         1.90587          2.7961
LJ           3.28243        -2.78799        -3.99502
LJ           3.49791         2.56002         1.63781
LJ           6.20004         4.94083         4.19233
LJ          -2.92623        -4.34614         5.50572
LJ           4.51523        -5.79003         5.07383
LJ           1.60802         6.17791        -1.28334
LJ          -1.34006        -3.64309        -5.47414
LJ          -6.00022        -4.38004         4.47772
LJ           1.68013        0.637527        -5.11893
LJ         -0.181088         -3.7924        -4.82687
LJ           -6.4032         3.83069        -1.45531
LJ           -3.3361        -6.20941         1.62536
LJ         -0.254687        -5.55623         3.61544
LJ           1.72565        0.902346         3.83375
LJ          -1.27482         6.19406         1.56567
LJ          -6.41308           2.669         5.79093
LJ         0.0883451         4.17575        -5.47541
LJ          -4.93965         2.23424        -4.84047
LJ           5.73278        -4.16794       -0.294105
LJ           1.65697        -6.41707        0.409763
LJ          -5.00776        -5.11667         5.40286
LJ           3.27742        -3.47496         4.33728
LJ          -6.16631        -1.35184          4.2768
LJ           4.71918         2.43779        -5.97482
LJ           1.61272         3.05505         6.45018
LJ          -2.89928        -3.43797         -6.0863
LJ          -3.78588         -1.6818         4.12537
LJ           1.68493        -2.29442        0.272404
LJ          -2.52542        -5.99776         3.39412
LJ          -2.63117         5.47071         3.16454
LJ          -3.19358        -5.26463         2.93111
LJ          -1.05352         5.44107         6.37803
LJ          -4.06667       -0.468244        0.946386
LJ           3.22815        -2.39083         2.85846
LJ          -4.47771         3.02855        -4.11618
LJ          -5.72121         -2.3491         2.01053
LJ           -2.4527        -5.09208         4.68196
LJ           6.16704         4.75629         -6.3953
LJ          -3.48975          4.2716        -4.58231
LJ          -1.21182        0.362666         4.32519
LJ           2.99916        -3.83821         3.43892
LJ          -4.90759        -2.37117      -0.0300537
LJ           5.89726        -4.95073        -4.34532
LJ          -1.43742        0.519036        -2.55109
LJ          -4.68195        -3.93815        -3.01547
LJ         -0.736807         6.35901         2.75186
LJ          -6.29043         5.70977          1.4885
LJ           2.38131        -2.98125       -0.119086
LJ           -1.3415        -2.11737        -5.33108
LJ          -5.21439        -4.03899        0.219205
LJ          -3.88134         2.30056         6.20615
LJ           1.04692         1.98845        -2.66137
LJ           1.40942         3.66436        -4.72516
LJ        -0.0284453        -1.23259        -3.51679
LJ           5.84485         1.43367          3.7676
LJ          -2.93779        -1.88842         5.85195
LJ          0.446647         2.13157        0.377076
LJ           3.56687         3.54344        0.975521
LJ          -4.53481        -4.49201         4.04046
LJ          0.383164        -5.43349        -4.89192
LJ           1.50592        -3.71657       -0.596894
LJ           -3.7735       -0.345628         5.21031
LJ           1.67278         4.27626        -1.41096
LJ            4.6158         1.54115         3.65327
