108
#Comment!
LJ          -3.20013         3.40393        -4.77869
LJ           6.35772        -3.66633        -2.89719
LJ           4.64583       -0.353933        -2.43613
LJ          0.587421       -0.504412        0.928875
LJ           2.02775         5.10819         2.66423
LJ           2.32459        -4.97962        -2.44369
LJ           3.34802         1.65871         1.02189
LJ           3.21406         2.98442         5.89356
LJ           5.52283         5.68542        -3.31804
LJ         -0.279851        -4.91697        -4.00813
LJ          -2.30295         1.29619         4.03237
LJ          -1.58418          5.7543       -0.253932
LJ            1.7062         5.43158       -0.517109
LJ           4.23001        -4.73325         3.56609
LJ         -0.757204         3.76869        -5.69358
LJ            1.5676        -1.98117        -1.17237
LJ           -5.7235         3.17454         2.06381
LJ           2.61976        -1.99056        -1.67005
LJ          -3.58441       0.0601946         2.69239
LJ          -2.48331         -5.3127         6.14357
LJ         -0.837424        0.291223         2.24959
LJ          -3.36551        -4.41513        -5.26428
LJ           2.69266         2.79125        -4.99689
LJ           -3.4542         3.60212        -1.83924
LJ          0.629938         -2.8877         3.32135
LJ           1.71154         3.69992        -4.12227
LJ          -5.32982         4.44573        -3.42088
LJ           3.08351        0.871181       -0.353747
LJ          -3.05593        0.531902        -3.50508
LJ          -4.30982        -3.08617         5.07383
LJ          -3.43299         3.97033         1.07161
LJ          -4.44369       -0.413087       -0.611497
LJ          -2.22837       -0.511773       -0.736421
LJ          0.662875         2.92263        -3.97366
LJ          -4.39547        -2.59219       -0.454625
LJ          0.765057         4.94427        -3.81404
LJ           3.46207         1.61999          -6.059
LJ          -2.50756         2.59167        -3.32989
LJ          0.547408         4.13315         3.13749
LJ          -3.19124        -6.24193         -1.5518
LJ           4.42287         2.58323         3.94179
LJ          -1.00727        -2.70149        -6.29594
LJ          -2.53643        -2.23354        -2.70671
LJ          -5.61222          2.4717       0.0586704
LJ           3.59086         2.60497        -5.78425
LJ          -4.82714         1.78702       -0.562622
LJ           4.12867         3.88857         5.65639
LJ           2.70454          2.1047         2.02608
LJ           3.55074        -2.88936       0.0427056
LJ          -6.11685       -0.964657         1.74625
LJ          0.581642        0.373969         5.05892
LJ           3.73115         5.79881        -2.64851
LJ           3.16893        -3.85435        -3.61632
LJ           2.49669        -2.07797       -0.262975
LJ           5.26311       -0.228108        -3.42433
LJ          0.571837          5.8867         -3.0991
LJ           -2.4366        0.849607         2.02963
LJ          -1.52372        -1.33219        -5.37317
LJ         -0.980036          5.1266         1.55376
LJ          -1.20149          2.2909        -2.43156
LJ           2.46672        -2.44377         0.85098
LJ          -1.28768        -3.79988        -1.82634
LJ           -5.8451        -4.87217        -5.16465
LJ           4.51643         4.80524       -0.378049
LJ           3.93958        -3.74856         3.90473
LJ          -5.07534        -5.29022         0.21442
LJ         -0.343016        -4.60963         4.02426
LJ           1.63557         1.08749         5.03499
LJ           3.65258      -0.0835047         2.41441
LJ          -0.59288        0.113217        -2.36843
LJ           4.18625        0.127812        0.327864
LJ          0.527237         5.83996       -0.188832
LJ          -2.42628         4.05132         3.41567
LJ           4.10073       -0.966966        0.322639
LJ          -4.63907        -2.87083         3.93647
LJ           -3.7815        -5.20492         5.96444
LJ          -4.06788         3.22363        -5.37756
LJ         0.0486845        -2.99356         4.51816
LJ           5.97101        -5.23375       -0.666875
LJ           4.81999        -2.47732         5.42601
LJ           4.98992        -1.85565        -6.16443
LJ          -4.72477         2.04896        -3.37266
LJ          -4.05414         2.46313        -4.44375
LJ          -5.50748       -0.826584       -0.615815
LJ         0.0018916        -5.80531         -1.0817
LJ          -4.46656        -2.04896         5.65716
LJ            2.6495        -5.45449        -3.83937
LJ         -0.163804        -5.84845        -2.55017
LJ            3.5991         -4.8439         4.71247
LJ          -1.45958        -0.57107       0.0407792
LJ          -1.19548          3.6892        -2.65369
LJ           1.05618         4.52341       -0.201973
LJ           1.16023         1.44847        -3.84532
LJ          -2.66816        -2.01002         3.21555
LJ          -2.97154         -4.6942        -2.10634
LJ          -4.18783       -0.866082        -3.30704
LJ           6.02278      -0.0834078         2.67525
LJ            -0.811        -4.02291        0.271319
LJ           -1.4165        0.129869        -3.43787
LJ          -2.36474        -1.73421         6.00702
LJ           1.41509            5.84        -4.04224
LJ         -0.726263         0.72399        -1.09425
LJ          -2.66558         3.79014         5.80761
LJ          -4.52502         1.64284        0.740617
LJ          -0.27552         5.18705        -2.13592
LJ           5.94142         1.63301         5.19138
LJ          -3.56427         1.01954        0.818067
LJ          -5.49238         5.62222        -3.49264
