108
#Comment!
LJ          -1.82238         3.03226         4.02058
LJ          -3.30867         6.37238        -3.64559
LJ           4.15462        -3.01467         5.60609
LJ           3.77467         4.22936         1.35613
LJ          -1.50547        -4.69616         4.25304
LJ           1.49187        -3.99835         1.71443
LJ           1.56298         5.34548        -2.70372
LJ           5.58294         4.85446        -4.01082
LJ          -5.24093         4.28425         3.82154
LJ          -4.19188       -0.184491        -4.38945
LJ         0.0115209        -1.24691        -5.53888
LJ           1.75648        -4.27606        -2.22223
LJ          -1.92895        -6.10703       -0.720542
LJ           4.83897        -4.38841         5.32641
LJ          -1.45507        -3.91679        -6.19155
LJ          -5.30997         5.62711        -2.12759
LJ          -2.85219        -5.55573        -4.08769
LJ           2.46414        -5.08499       -0.202924
LJ           -5.7188         -2.8532        -3.98164
LJ          -1.85571        0.908111         4.88975
LJ          -1.76159         4.49692       -0.430875
LJ           1.87183        0.585987      -0.0680792
LJ          -3.91107        0.561997        -5.07274
LJ          -2.77235        0.428599        -5.02527
LJ           -0.8441         5.03988        -4.24174
LJ           4.43989         6.39385      -0.0232183
LJ           1.02941         4.23328         4.12731
LJ          -3.84584        -3.77862        -4.48958
LJ         -0.610674        -0.35243        0.550793
LJ           6.06631         1.40564         6.09655
LJ           6.07792         1.87496        -4.10877
LJ           6.07362          1.3845        -2.97445
LJ           6.15487         5.87224        -1.30368
LJ          -2.18212        -6.04469        -2.07035
LJ          0.253707        -1.46947         3.14187
LJ           2.82608          5.3379         -4.0377
LJ          -6.29388        -3.65975         1.38291
LJ           1.77253          2.2167         -3.8167
LJ         -0.990121        -3.61088        -5.24018
LJ          -1.72832        -4.42907          -1.986
LJ           3.54972          2.9964         1.96866
LJ          -2.17045         -1.5589        -4.04106
LJ          -2.45537       -0.253088       -0.127125
LJ           -3.7364         2.84824        -2.24899
LJ           5.08479        -4.91381         6.32898
LJ          -3.04051         2.33943        -1.39756
LJ            6.2734         4.49267        -4.79313
LJ          -1.19332         4.10711        -3.09966
LJ            0.5655         2.27644         4.74184
LJ           -3.7342        -1.44178         3.55356
LJ           3.05536         -3.8068         3.73576
LJ          -4.60017         3.80051         5.82883
LJ          -4.99495        -3.03286        -6.15655
LJ          -4.53014        -1.86187         6.39173
LJ             4.619        -3.90604        -6.42083
LJ         -0.477159         6.34883        -5.24969
LJ          -2.18958         4.04772         3.31508
LJ           3.87106         3.50342         3.68179
LJ          -2.08998        -3.88207         4.48442
LJ           5.06652         6.37089        -3.73299
LJ           2.21405         2.91825         4.00355
LJ          -2.50699         5.97622        0.825485
LJ          -5.86483        -4.69313        -6.23204
LJ         -0.467694         2.15443        -1.36262
LJ          0.992766      -0.0476506       -0.520267
LJ          0.255633        -4.79372       -0.864869
LJ           2.56833         4.79372         4.08114
LJ          -5.80029       -0.827989        -1.97423
LJ          -5.73068        0.373461        -3.79915
LJ          0.523962         1.15976         1.88447
LJ           2.82069         2.48176       -0.193125
LJ          -1.43462         5.27409         2.63556
LJ           2.41213         1.72149        -1.33217
LJ          -2.70196         3.11191        -2.76244
LJ           2.19989        -6.23842        -2.52796
LJ          -3.74174       -0.427633        -6.05975
LJ          -2.00726        -4.45809        -4.31447
LJ          -4.39086        -3.85392          3.6843
LJ           3.25222        0.370628        -1.32538
LJ           1.61967         3.87466        -3.78358
LJ          -5.13364         6.03227         -4.7347
LJ          -2.03003        0.373429        -1.10528
LJ          -1.64742         1.15022        0.359283
LJ           6.27641        -4.32852           5.822
LJ          -2.55018         3.96259        -6.21977
LJ           1.87698        -6.05057        0.774612
LJ           5.14985        -4.60884        -3.66682
LJ          -1.27519         3.55103        0.475147
LJ            2.5279        -4.03884          -6.097
LJ           5.13447         1.33985        -4.08832
LJ           1.05611       -0.357274        -2.91071
LJ          -1.70645        -4.57357       -0.776227
LJ           4.94836        -2.26894       0.0751945
LJ           3.14591        -2.15655         6.11938
LJ           1.93436        -0.42546         1.23866
LJ           4.50506          -4.811        -2.81612
LJ           5.14141        0.374446         1.08545
LJ          -5.13603         4.22064        -2.52405
LJ           2.21748        -3.28351         3.30233
LJ          -3.81404        -2.19216        -5.91902
LJ          0.569671        -6.16296        -4.76756
LJ          0.638437        0.530549        0.499944
LJ          -4.15897        -1.25841        -5.51338
LJ           3.71257       -0.527237         4.49419
LJ          -1.23837         3.58151        -4.49301
LJ           4.56041        0.892623         3.94174
LJ           4.19577         2.31867         3.29436
LJ          -5.59734         4.94346         4.65234
