108
#Comment!
LJ        -0.0741769        0.328703         1.45688
LJ        -0.0059933         4.24276        -1.45643
LJ          -4.93253         6.10403        -6.03495
LJ          -1.57007         2.06549         -6.0854
LJ          -3.78368         5.09761          5.8108
LJ          -2.17187        -2.63936         5.44084
LJ          -6.32288         5.96029        -5.70556
LJ           2.07027       -0.632736        -5.25964
LJ          -2.95525         4.12202        -5.88638
LJ           5.88446        -0.39698        -6.42999
LJ           2.17038         -1.2625         3.52652
LJ         -0.030473       -0.266512        -1.92204
LJ          -4.68299       -0.125413        -2.09354
LJ           -3.4248         5.11507        -5.80295
LJ           5.20566        0.966868        -3.56669
LJ           4.91138         4.33486        -5.20788
LJ           3.02418        -3.27828         3.77726
LJ          -5.08938        -3.88865        0.634685
LJ           -2.9238        -3.04886        0.687936
LJ          0.630741        -2.47233        -1.52937
LJ          -3.53964        -1.79083         3.52405
LJ          -3.87947         3.92203        0.490356
LJ          -1.97953         2.54501        -4.57167
LJ          -3.30178         3.82342         5.46656
LJ          -1.58143        -2.70869         2.77785
LJ           4.62728        -2.34356         4.97945
LJ           -3.0738         1.32084        -6.10582
LJ           2.51447        -1.59782         4.94683
LJ           4.20114        -2.84886        -3.41235
LJ             3.899         3.53838         1.92489
LJ          -5.73666         3.42318         5.60029
LJ          -6.41415      -0.0600505        -4.71937
LJ           2.12228         1.30223         1.87203
LJ         -0.783837         1.26825        -3.58479
LJ          0.434488         1.51217         2.90776
LJ          -5.23834        -5.56354        0.648189
LJ          -1.97067         2.74245        -2.22732
LJ           6.02526         -5.7268         4.83615
LJ          -5.55675        -2.12514         3.19452
LJ          -3.49913      0.00776962        -4.68973
LJ           5.03797        -1.31842       -0.287635
LJ          -2.76215         1.59968        0.605792
LJ           -3.3301        -2.05447         5.66831
LJ            5.2136         1.46602         5.39836
LJ            1.8884        0.330868        -6.02447
LJ           3.71335        -6.16111         4.52952
LJ          -5.95995        -2.22383         -5.6228
LJ           6.26434       -0.900573         -1.7299
LJ          -1.70619         6.11685       -0.571526
LJ           -5.3487         -5.1979        -4.96223
LJ          -5.38784        -1.79908       -0.838492
LJ         -0.944384         3.52717         2.39038
LJ          -2.17583        -1.22293        -4.69064
LJ           5.98369         3.18559        -4.01831
LJ           6.35359         3.45354         3.70472
LJ          -5.57471         5.63051         5.44543
LJ           6.19905        -4.78506         4.44562
LJ          -1.76406        -4.80579         -2.9882
LJ          -1.35374       -0.814478       -0.343725
LJ         -0.885621         2.65333         -3.2777
LJ          -2.52793         3.84665        -4.32823
LJ           -2.8865         6.31042         0.33317
LJ           3.73432        -4.10179         4.99515
LJ          -4.94525         4.26633        0.788123
LJ           2.90231         2.88763          -2.158
LJ         -0.149786        -5.70891        -5.95215
LJ          -3.08574         4.01841       -0.245124
LJ          -2.13287        -1.49554        -1.40667
LJ           4.93797        0.584356        -5.31148
LJ          -5.69445         2.00993         5.34123
LJ           2.18287       -0.202966         4.98948
LJ          -6.01513         4.53954         6.16056
LJ           5.05318        -5.91508        -5.79871
LJ          -5.33339         6.18138       -0.429214
LJ          -4.79356        -5.66263       -0.550659
LJ           3.93284         3.71463         2.94422
LJ           5.79772        -2.99854        -1.63884
LJ         0.0720517         4.44586         2.85441
LJ           5.34117         2.19047        -3.81137
LJ           -3.5681        0.534018         2.41312
LJ          -2.96244            -3.4        -3.29081
LJ            4.9627        0.912219       -0.813891
LJ         -0.269019        -5.65966         1.72074
LJ          -4.33962         3.94165         5.47289
LJ          -2.37136         5.80977         6.05005
LJ           2.43889         4.65859         3.21478
LJ           4.94826         3.83062       -0.610903
LJ           -5.2757        -2.81807        0.645301
LJ          -1.08687        -1.05836          -4.594
LJ          -2.29311         5.77664         4.99608
LJ           3.35324       0.0079144       -0.396748
LJ           -2.4683         1.26702         -4.6705
LJ          -5.09498        -3.79477        -5.69083
LJ           4.05199        -1.14192         -4.1181
LJ           -4.8968        -4.52342         5.50954
LJ           5.35276        -4.94809          2.4475
LJ           2.53222         4.33284         5.07147
LJ          -4.63374        -5.47871         1.99241
LJ          -2.06987         5.26702        -0.45184
LJ           5.92911        -5.57004         3.69795
LJ          -4.29484         5.16954        0.266943
LJ          -5.66785        -3.23803         2.30404
LJ          -1.79624         1.66221        0.114443
LJ          -5.90305         3.03391        -5.69034
LJ          -1.70959         2.25948       -0.694513
LJ          -6.14289        -5.86224        -4.19101
LJ           2.31876       -0.670941         1.10269
LJ          -3.18832        -4.53928        -3.01676
