108
#Comment!
LJ          0.136815        -6.30326         5.23943
LJ          -3.82773        -6.17483        -2.15286
LJ          -3.62047        0.431191        -3.10204
LJ           5.04794        -2.70493        -4.27235
LJ           1.07494         4.88519          4.5812
LJ          -3.63104        -1.06135        -6.01899
LJ          -1.38477        -3.95357         4.22663
LJ          -4.68772         1.45152         5.75041
LJ         -0.178208        -5.30312         4.91259
LJ           1.96374        -2.36456         4.27389
LJ         -0.781799           -4.81        -4.20921
LJ         -0.305153        -2.59014         2.92945
LJ          -5.31709       -0.528282         5.46677
LJ          -1.61689         4.54543         6.44862
LJ          -5.40355        -3.34142      -0.0601858
LJ          -2.19843         -6.0339         5.03132
LJ           2.16226        -2.03818         2.65923
LJ          -5.17884        -1.22937        -5.71866
LJ          -4.12151        0.117149        0.862464
LJ          -1.20471        -4.59314        0.172539
LJ          -3.13249         6.00462        -6.44484
LJ          -4.26915         5.36269        -2.53717
LJ           1.54736         4.71412         5.67817
LJ          -6.07047        -5.55664          -1.106
LJ         -0.144618         2.66256        -3.03148
LJ          -3.42568        -5.80035        -1.18609
LJ           0.67655        -4.80213         4.17986
LJ          -3.75277         1.16874         1.72713
LJ          0.608754        -3.99181         5.14447
LJ           2.56648         4.06951         -1.8007
LJ          -2.27927        0.553704        -3.60511
LJ           2.46477         3.00372        -4.49475
LJ        -0.0512937          2.3578          5.2253
LJ           1.03883        -3.05466         5.66301
LJ         -0.142541         4.36398        -5.29163
LJ           4.50137         5.29677         4.59596
LJ           1.27941        -4.79581        -1.42754
LJ        -0.0232478        0.705919         2.38539
LJ          -3.71396         5.91108         0.11628
LJ          -1.86926        -4.28649        -4.63451
LJ           4.77217         4.21227         4.11083
LJ          0.237892          4.0543           2.861
LJ           -4.8777          5.1105        -4.40752
LJ           1.86238        -1.01347         3.16427
LJ          -3.06269        -6.03205        -3.77121
LJ          -4.84504         4.76622        -6.04558
LJ           4.44477       -0.364489         4.61982
LJ             5.245        0.389169         4.90598
LJ            4.1826       -0.294591        -4.03497
LJ          -3.71653        0.131986         2.00733
LJ           6.30977         5.72449        -3.86863
LJ           1.59349        0.286779         4.92463
LJ          -3.13742         1.38043         -4.6065
LJ        -0.0191727        -4.60422        -3.11198
LJ           1.39119         -3.5076        -5.99983
LJ           -3.3372         -6.0851      -0.0963567
LJ           4.94629         4.75242       -0.947171
LJ          -4.90674        -1.99231        -6.43578
LJ         -0.527134        -1.59039        0.472062
LJ          -5.90598        -4.76914         3.02953
LJ          -6.11827        -6.36026         2.17163
LJ           2.11938          4.2901         3.52278
LJ           4.63553        -1.46291         -3.5945
LJ          -2.33491         4.09782       -0.346514
LJ           1.83519         3.55446       -0.242798
LJ            3.1867        -5.00205         5.39912
LJ          -5.60829         5.57926         4.28711
LJ            1.6075        -3.76442        -3.01252
LJ           1.77028        -3.31471         2.59043
LJ            4.8511        -6.21227         5.70879
LJ            1.4964        0.654133         2.95253
LJ          -4.65719        -2.23519        0.791495
LJ          0.186812         4.72895       -0.960839
LJ           6.01097         5.82817        -2.30505
LJ         -0.681826         1.16053        -2.95125
LJ          -3.42683         5.28213        -5.50998
LJ          -2.41705        -5.60868         1.25697
LJ          -5.05146       -0.111891        -5.90706
LJ          -3.56871         5.65355        -1.58613
LJ            4.5971        -5.62262        -5.33277
LJ           6.12421        -3.05073        -2.22367
LJ           5.36837         4.19331         5.87907
LJ           2.20148         4.25653        -2.84865
LJ          -5.45385        -4.89674        -3.04299
LJ           5.04235         5.23839         5.83623
LJ           3.65365        -5.40788        -3.12221
LJ          -2.79707         3.93151         6.27007
LJ            3.1973         -1.0408        -3.28424
LJ          -6.37603         -1.4716         1.30365
LJ           2.46888        -1.57976         5.23216
LJ          -2.20216         1.42712         1.14146
LJ          -1.17906        -6.02408         3.44503
LJ        -0.0414631        -3.71996         2.59518
LJ        -0.0142296        -5.49735         3.95659
LJ          -3.16649        0.618728         4.04209
LJ           2.16447        0.128489        -5.00385
LJ           1.51138         3.62452          3.0747
LJ          -1.30658         3.52049        -4.16929
LJ           5.08048         3.07127         5.37932
LJ          -3.85376          2.8437         2.09321
LJ          -2.64299        -3.79765       -0.488427
LJ          -1.49116         2.95811        -5.89478
LJ           3.73457        -6.27612        -1.55283
LJ           5.88613       -0.261203        0.673519
LJ            3.6061        -6.38433        -3.65667
LJ           3.15029         2.30659        -1.20572
LJ          -3.85359         4.42717         2.81096
LJ          -2.94665        0.568712         5.19924
