108
#Comment!
LJ          -1.73348         3.02094         4.53846
LJ           -3.7588        -6.15782        -3.02267
LJ           5.22238        -2.86873         5.95321
LJ           2.99766         3.71479         1.62203
LJ          -1.29285        -5.00976         4.95905
LJ           2.00057        -3.99071         1.34676
LJ           1.32164         5.42594        -2.37239
LJ           4.82366         4.71092        -4.40195
LJ          -5.56002         4.61744         2.89615
LJ          -3.82163        -1.22342        -4.74289
LJ         -0.222325       -0.875402        -6.01736
LJ           1.76537        -4.84252        -2.01996
LJ          -1.45818         6.32941       -0.467902
LJ           4.54185        -4.23084         5.64845
LJ          -1.46912        -4.85682          6.0584
LJ          -6.30993        -6.33755        -2.01377
LJ          -3.61539        -5.59763        -4.21846
LJ           1.91026        -4.76922       -0.259574
LJ          -5.79536        -3.42657        -4.14377
LJ           -2.6116         2.49747          5.0352
LJ          -1.97015         4.29644       -0.560232
LJ           1.59037       -0.466513        -1.13055
LJ          -4.68999         2.12597        -3.98936
LJ          -2.84704        0.998104        -4.75625
LJ         -0.425171         4.00281        -5.20443
LJ            4.1659         6.09581       -0.639028
LJ           2.09895         4.61464          3.3678
LJ          -2.89936        -3.18439        -3.83492
LJ          -1.76926      -0.0877461        -0.30513
LJ          -6.20674        0.322825         6.10046
LJ          -6.32879         2.13595        -3.95565
LJ           4.97243          1.7579        -2.69819
LJ          -6.22782         5.13817        -1.70872
LJ          -1.95324         5.80784        -1.74745
LJ            1.3895        -1.62513         2.57859
LJ            2.5814         4.63502        -3.97949
LJ           6.37813        -3.12827        -0.36141
LJ           1.35008         2.70273        -3.85264
LJ         -0.658421        -4.20589         -5.6266
LJ          -1.54013        -5.03812        -1.91755
LJ           4.08781         2.61294         2.74524
LJ          -2.53792        -1.16343        -4.15573
LJ          -2.65794       -0.853362       -0.419721
LJ          -3.87048         2.42824        -2.01339
LJ           5.10332        -4.78563           6.424
LJ          -3.40286         2.10223        -1.04649
LJ           5.94483           4.282        -4.91975
LJ         -0.656233         3.87794        -2.38078
LJ           1.40901         1.49954         4.28117
LJ          -4.02647        -1.38572         4.67058
LJ           3.24657        -2.58106         4.01157
LJ          -5.22914         4.68241         6.31737
LJ          -5.69463        -3.14218        -5.70439
LJ            -4.364        -1.41544         5.61054
LJ           5.56623        -3.70323        -5.79718
LJ        -0.0797437         6.04838        -3.81248
LJ          -2.14677         4.00079         2.87072
LJ           2.92187          3.2847         2.79845
LJ          -2.32755         -2.6414         4.23434
LJ           5.54386         5.56705        -3.07631
LJ           2.44301         2.13261         3.11041
LJ          -2.20201         6.30921        0.604053
LJ          -6.30113        -4.18271        -5.34824
LJ          -1.51361         1.68072        -1.92766
LJ         0.0451237       0.0223858       -0.470391
LJ         -0.481548        -4.40009       -0.499719
LJ           2.17698         5.50862         5.66723
LJ          -6.37337       -0.910338        -3.42742
LJ          -6.15909         1.74202         -2.8275
LJ           0.67814         1.05256         1.48892
LJ           3.05639         2.91039       -0.780697
LJ          -1.38781         5.19142         2.17883
LJ           2.99614          1.6444      -0.0153911
LJ          -2.27037         2.51508        -1.48494
LJ           3.28672        -5.87208        -3.83538
LJ          -4.98735        -1.04994        -6.27848
LJ          -2.11926         -5.1221        -4.82307
LJ          -3.82539        -3.80809         3.77668
LJ           3.63692       -0.225285       -0.966176
LJ           2.35943         4.56511        -2.27118
LJ          -5.90781         6.40019        -4.87653
LJ           -1.2107        0.266759        -1.15179
LJ          -1.30439        0.839778        0.100841
LJ           5.83449        -3.61412         5.66493
LJ          -2.28697         4.45139        -5.77665
LJ           0.85774        -5.67026       -0.589849
LJ           5.85376        -4.71861        -3.89661
LJ         -0.781033         4.43548       -0.414707
LJ           2.94388        -3.31164        -6.26986
LJ           5.68337        0.773115        -3.70974
LJ          0.871466       0.0969118        -2.98639
LJ           -1.0728        -5.30367       -0.732772
LJ           4.36252        -2.03596       -0.815421
LJ           3.60872         -1.7175         5.12062
LJ            1.0285        0.119228        0.201173
LJ           4.87985        -4.22584        -2.65895
LJ           5.50116       -0.278497         1.96084
LJ          -4.13292         3.65583        -1.24508
LJ            1.5419          -2.861         4.18321
LJ          -3.29403        -2.26948        -6.01146
LJ          0.755357         6.44323        -4.66285
LJ          0.445477         1.31094        0.451762
LJ           -4.4111        -2.56943           -4.86
LJ           4.25522       -0.518259         4.04121
LJ          -0.60109         3.45332        -4.14764
LJ             4.816         1.19693         4.09175
LJ           4.12414          1.5972           3.096
LJ          -5.58366         4.92376         5.06034
