108
#Comment!
LJ          -4.53597          4.0676        -2.38744
LJ           5.00702        -2.86632        -2.92561
LJ           6.07291        0.202064         -2.2327
LJ          0.724681        -3.76149        0.849605
LJ           2.89766         4.21804        0.891309
LJ           1.21594         -5.1016        -2.88648
LJ           4.60505       -0.126256         2.05986
LJ           4.15534         3.35563         1.63052
LJ           4.91499          5.5243        -6.16374
LJ         -0.441382        -6.05031        -4.25357
LJ          -4.87731         2.55829         2.88939
LJ          -2.01353         5.41304        0.226608
LJ           1.55592         5.82347       -0.271725
LJ           3.08549        -5.90357         1.70981
LJ        -0.0831563        0.764327        -4.50876
LJ           2.18551        0.113442        -2.87843
LJ          -6.42462        0.917909          5.7478
LJ           2.17954       -0.333127         1.25596
LJ          -1.59009         1.00519         5.43984
LJ       9.84181e-05         5.52658        -5.42984
LJ          -2.17565        -1.77695         3.63564
LJ          -5.86572        -5.17835         6.09197
LJ          0.677251         2.12983         5.62311
LJ          -2.90522         3.54447      -0.0662997
LJ         -0.208737        -5.80319         2.40338
LJ          0.258621         4.36349        -6.23648
LJ          -3.00339         5.66275        -6.26192
LJ           6.25796         1.28937         3.46418
LJ          -2.77763         1.30941        -5.22435
LJ          -3.69176         -1.7884         4.42523
LJ          -2.83979         4.60929         3.09349
LJ          -3.50773        -4.03846        0.802553
LJ           1.00456         3.69167       -0.223815
LJ          -1.69969         2.22537        -4.39181
LJ          -1.23817        -1.44783       -0.231665
LJ        -0.0986904         5.02055        -4.12214
LJ           2.21549         5.19974        -4.78659
LJ          -4.52566         3.01592        -1.88065
LJ           1.38716         2.24334         1.04397
LJ          -4.11076        -6.28595        -3.20317
LJ           4.46741         4.26809         3.83469
LJ       -0.00228346        -2.98299         5.27951
LJ          -3.32102        -3.61308        -2.74738
LJ          -5.93661         3.14342        0.416014
LJ            2.9134         4.95033        -3.82851
LJ           -6.1533         2.02125        0.502548
LJ           3.16457         2.63695         2.98215
LJ           5.23049       0.0346126         3.50891
LJ           3.85105         -4.0514        -3.00516
LJ           4.46911         1.29405        0.734443
LJ          0.322495        -1.27563        -6.40255
LJ           5.08857         -5.3408       -0.622487
LJ           2.69422        -2.39226         -4.2844
LJ           1.07632        -1.37509        -1.52623
LJ           5.28032         0.92229        -1.91457
LJ         -0.885518         6.32801        -2.33801
LJ          -2.02553        -1.30174         2.28739
LJ         -0.655997        -2.13925        -1.21804
LJ         -0.555569        -4.07935        0.166681
LJ            1.3808         2.32041        -4.80829
LJ           1.22419        -4.88074         3.70255
LJ          -2.48254        -1.89891        -3.66359
LJ           6.07028        -4.58024        -3.37833
LJ           1.96073        -5.24079        0.879943
LJ          -6.31678         -4.5133        -5.00621
LJ           6.23192        -5.57967         0.80502
LJ          -2.96071        -3.86453         -5.0783
LJ         -0.192867         3.12871         5.63246
LJ           1.92912        -2.13513         4.41828
LJ          -1.15336       -0.971003        -4.09322
LJ              4.27        -1.36403         1.93788
LJ           1.54447        -5.82562        -1.37157
LJ           1.40908         5.15159         4.52661
LJ          -5.54064         -2.2887       -0.138822
LJ          -3.25623        -1.58034         5.43209
LJ         -0.879915         5.39606         6.45424
LJ          -4.07144          2.0863         5.51898
LJ           2.48518        -2.66373         3.22591
LJ          -5.62864         5.33426        -1.43371
LJ           5.02938        -2.61596         4.74294
LJ           4.58129         3.65315        -5.83624
LJ          -6.09643         2.90888        -4.61503
LJ          -5.34531         2.74885        -3.07423
LJ           3.78073       -0.943211        -1.86056
LJ           1.56144        -5.95409        0.161101
LJ          -5.08794        -2.45014         1.39678
LJ         -0.225797        -6.21111         -5.3071
LJ          -1.28753         5.73102        -0.69643
LJ           4.09769        -5.68583         2.38144
LJ          -0.80329        -1.78285         1.59488
LJ          -3.30649         4.45607        -2.15755
LJ          0.462654         6.30053        0.118996
LJ          0.697666        0.187377         -5.0864
LJ          0.524171        -2.26281         1.92778
LJ          -4.16673        -1.54756        -2.32131
LJ          -2.14441        0.439602        -3.06763
LJ           4.86933         1.30303       -0.563909
LJ         -0.579318         4.34328       -0.500473
LJ          -4.02965         1.83139        -1.56973
LJ          -2.50645        -2.61687         5.82774
LJ          0.981984         3.91406        -4.27591
LJ          -0.44224         1.43522       -0.794426
LJ           -2.8946        0.975892         4.03029
LJ          -1.48464         1.93951       -0.680934
LJ           1.15162        -6.44001         -2.2086
LJ           6.09161         2.17889         5.29731
LJ          -1.65432         2.65753        -1.74346
LJ          -5.06905         4.48482        -1.53983
