108
#Comment!
LJ          -6.33561         3.38796        -3.90753
LJ           1.29743         2.27817       -0.927338
LJ          -3.39738         1.73397         2.33868
LJ           1.48939         3.16301        -1.81628
LJ          -3.16816          2.2403        -4.00039
LJ           3.00469         2.42773         5.74872
LJ           6.08079        -3.78484        -5.05909
LJ         -0.899631       -0.589743        -2.42462
LJ          -3.79209        -4.36251        -5.68157
LJ          -0.27148       -0.768191         3.39166
LJ           1.17215         1.21395         2.20085
LJ           5.64974        -1.99082         1.24807
LJ          -5.45413         4.21505        0.836446
LJ           1.64901         1.60375        -2.04731
LJ           1.77767         3.25876        0.876043
LJ           6.22705        -2.00969        -2.40772
LJ           2.97938        0.550659         3.36133
LJ           3.69276        0.840816        -2.18018
LJ          -6.39665         3.33409         4.75953
LJ          -4.75417         3.66583         2.74598
LJ           -3.5466        -2.94582        0.250807
LJ          -2.47848         4.30352       -0.895643
LJ          -1.73395        -2.94052         4.12842
LJ          0.274443         1.91816        -6.45159
LJ           0.58382         2.81502         2.31128
LJ          -3.03332       0.0973272        -1.57484
LJ           1.73045        -3.64811         2.69156
LJ         -0.748264         5.81836         2.40293
LJ           2.15904        -1.49037        -0.25779
LJ           2.32244        -1.52465         1.35993
LJ          -1.58341         3.17005        -4.68889
LJ          -3.67709        -1.76983        0.991593
LJ           5.95136        0.297839         4.23475
LJ          -1.58215        -5.63301         2.74836
LJ          -4.78452        -4.65447        -5.24976
LJ         -0.253465         3.19764         4.53745
LJ           1.57826         4.48727      -0.0293016
LJ           1.69717        -2.63402         1.29609
LJ         -0.625114         1.48244        -1.83783
LJ           1.40166        -4.50306         1.89219
LJ           1.89993        -1.05682        -1.53496
LJ           3.73971        -6.32147        -1.56965
LJ           4.37614         5.80519        -1.01901
LJ           1.66056        -2.21441         5.66651
LJ           3.25725        -5.50941        -2.63534
LJ           2.54163        -6.16343        -1.80782
LJ         -0.406471         4.38951        -4.14646
LJ           2.10361        0.145859         6.41245
LJ          -2.12103         4.01946         2.27428
LJ           1.88367        -1.73979         2.55761
LJ          -5.89893         3.13928         1.77484
LJ          -4.55072         -2.3719        -1.98865
LJ           6.27714          2.8014         2.76715
LJ          -1.55421         4.12049       -0.637986
LJ          -5.05147         5.91009        -2.37531
LJ           2.45366       -0.844383        0.424566
LJ          0.781823      -0.0496253         1.41981
LJ          0.467498        -5.43029        -6.41632
LJ          -5.77243         4.91511         5.10089
LJ           4.04628         1.08082        -3.20264
LJ             4.966        0.622705       -0.410286
LJ            -1.155        -4.74142        -3.93204
LJ           1.55806        -3.38455        -5.86555
LJ          -2.41837        -3.88406         4.42364
LJ          -5.13537         4.91513         1.70031
LJ           1.21426       -0.559785       0.0450055
LJ          -2.63653          1.1824        -4.33872
LJ           1.16236        -1.75198        -0.55411
LJ          -5.76288          2.6711        -5.68192
LJ          -4.99282         1.69625       -0.610951
LJ           3.42293        -5.27665        -3.94379
LJ          0.258049          2.0453        -1.05613
LJ           3.01527        -2.41767         1.90103
LJ           4.10754           1.973         5.33812
LJ           -2.2153        -5.70206          2.0106
LJ          -6.29641          -2.653        -5.62109
LJ           -3.1906         1.49908        -5.31928
LJ          -1.90389        -2.90675         5.09982
LJ           5.56041        -2.11684        -5.82111
LJ           5.26961         -1.2014        -3.27484
LJ           2.47182         4.35575        0.724314
LJ          -6.07162         3.84878         3.53349
LJ           2.45167         6.01775        -3.33102
LJ          -2.55728         5.71817          3.9997
LJ          -3.56812        -6.05276         3.17949
LJ           4.00627         -5.0688        0.253293
LJ           2.44588         2.41531        -3.83304
LJ          -5.07838         5.63492         5.26595
LJ            2.4632        -6.04617       -0.844848
LJ          -3.63796         4.45143         4.16471
LJ           2.73847        -5.57635       0.0459735
LJ          -2.28056        -5.96722        0.820292
LJ          -3.41481        -2.86997        -2.31612
LJ          -4.59058        -1.47336         3.11605
LJ          -6.25209        -4.13764        -2.56395
LJ          -5.61185      -0.0895111        0.955214
LJ           1.36689         6.33346       -0.948657
LJ          -6.05675         4.83887        -3.61107
LJ         -0.376304        -4.23666       -0.708159
LJ           5.45238         2.42648          1.8343
LJ          -3.42942        -1.56367      0.00522159
LJ           5.62535       -0.978977        -6.28693
LJ           1.94242         6.03584        -6.11649
LJ           5.78187        -4.56744        -5.63928
LJ           -1.7798         5.49809         1.59843
LJ           -2.0196        0.733256        -3.12507
LJ          -3.82528         5.61719        -3.01995
LJ           5.25024         3.20661        0.463962
