108
#Comment!
LJ           -1.6405         2.24045         3.24077
LJ          -1.62279          6.0745        -6.36308
LJ         -0.183995        -3.49258         4.93178
LJ          -6.03473         4.83498       -0.332958
LJ           1.42485         6.28299         1.05989
LJ          0.159305        -4.00357         3.22437
LJ           3.29096         6.37594        -4.27908
LJ           4.17102        -6.05267        -4.05376
LJ          -3.51638         2.20807         3.93515
LJ          -5.82753         2.26177        -3.72471
LJ          0.931653        -2.58915        -4.16774
LJ           1.53622        -2.97422         -2.8107
LJ          -3.27239        -3.76267        -1.15952
LJ           4.74072        -4.57418         6.31491
LJ          -2.27803        -2.86992        -4.14658
LJ           -4.7349         2.95894        -3.32347
LJ         0.0723161        -4.13886        -2.84581
LJ           3.96781         6.43112        0.741365
LJ          -4.76681        0.485535        -2.16954
LJ          0.826126         -2.8122         6.45255
LJ         -0.873515         3.56739         1.08856
LJ           1.14599         1.48041          2.3536
LJ          -3.89081       -0.304459        -4.31378
LJ          -1.84088       -0.487986        -6.36868
LJ          -3.59753         5.66886        -1.61206
LJ           4.97526        -5.36031         1.74136
LJ          -4.81244         3.13149         3.12024
LJ            6.0005        -5.58804         5.69999
LJ           2.17729        -1.23391         1.88514
LJ           3.47519         4.93029        -6.25512
LJ           6.17829         1.08038        -4.17387
LJ          -5.45453         1.28355        -4.36495
LJ           4.68055        -4.24534       -0.134748
LJ          -3.72475        -3.23485        -3.22243
LJ           -3.9869        -1.62117         3.39083
LJ           2.02643        -6.11665        -4.52655
LJ          -5.08605        -5.64492         5.74119
LJ           3.48512        0.525193        -4.83689
LJ           0.51384        -2.27775        -2.46231
LJ          -2.79255        -3.08703        -2.46973
LJ           3.79357          4.8988        0.645684
LJ          -2.43831       -0.761859        -3.85265
LJ          -2.04386      -0.0635142        0.707969
LJ          -4.12438         3.96321        -3.96591
LJ           3.42859        -3.79931         5.95556
LJ         0.0611205          2.0906        -2.35394
LJ           5.83805         6.01659        -4.02832
LJ          -2.61989        -6.03608        -3.10001
LJ           -2.4495         2.99273        -4.80572
LJ          -2.79081        -1.56652       -0.193558
LJ           2.78193         5.19773         2.10301
LJ          -1.68182         1.43444         4.60739
LJ          -2.83364       -0.920789         -5.2411
LJ          -6.26546        -1.74304        -5.59671
LJ           3.95753        -5.80389         4.31227
LJ         -0.364195        -5.24126         5.55105
LJ           -4.1019          3.2676         5.13173
LJ          -6.32931         4.39178          5.6929
LJ          -4.19665        -3.83579         6.22196
LJ           3.30507        -3.45308        -5.07087
LJ            1.7431         5.99763        -6.20275
LJ          -3.11486         4.72644         1.17103
LJ          -3.58571         4.59374          3.0971
LJ            2.0037         3.54867        0.513187
LJ           5.36794        0.180635       -0.493436
LJ           2.58808         6.27268        -2.38324
LJ           4.10915         3.41219        0.332577
LJ          -3.68304       -0.541026         2.97736
LJ          -4.15876         -1.6491        -5.96466
LJ          0.940808       -0.481998         1.94869
LJ          0.532209         1.97295         1.30334
LJ          -1.72212         5.58804         3.58309
LJ          0.767388         1.77338        -2.92392
LJ         -0.601549         4.95656         6.29232
LJ          -1.65461         5.80429         1.48546
LJ           4.37636         1.28013         2.71717
LJ          -2.75917        -3.91816        -3.38876
LJ          -4.84516        -3.29505          3.6177
LJ          0.493192         2.91281        -2.91411
LJ         -0.533323         1.75225         3.92285
LJ          -3.21771          6.3324        -3.75116
LJ          -4.31872         1.28845       -0.314811
LJ          -1.87466         3.23908        0.563871
LJ           4.11795        -6.41382         5.57383
LJ          -3.26531         2.50616          5.2221
LJ           5.46317        -6.03655         5.09582
LJ           3.07019        -5.68859        -3.82618
LJ          -3.60684         1.44436         2.76715
LJ           1.55739        -5.93391        -5.39387
LJ           3.14535         3.34048        -4.39406
LJ           1.65425        -1.52475        -2.57577
LJ          -3.24632        -2.59699         -1.5113
LJ          -5.87303        -3.09884         3.21644
LJ            2.3822        -5.15175        -4.34479
LJ           4.32132        -1.45194         3.54902
LJ           4.27714        -6.27907        -2.99245
LJ           3.75389         2.57153        -1.91956
LJ          -4.05894         4.98544        -3.78561
LJ           4.71106        -5.68256        0.487156
LJ          -2.59318           6.235        -5.07304
LJ          -1.90327        -5.97848         5.53095
LJ           3.43316       -0.580785         2.86458
LJ          -4.34139        -2.41286         4.12809
LJ            2.2439       -0.104013         5.68068
LJ          -2.57044          4.0381         4.95227
LJ           3.17264      -0.0184331         4.58603
LJ           4.21708         4.29495         3.84265
LJ          -5.99857        -6.12414          6.0699
