108
#Comment!
LJ          -2.12751         1.94923         3.73544
LJ          -1.13977        -6.14635         3.33272
LJ          -2.54516        -4.35368         4.64556
LJ          -5.86535         3.90004        -2.38205
LJ            3.9714          5.5118        -1.11476
LJ         -0.805748        -3.59039         4.41604
LJ             3.589        -6.02756        -4.59942
LJ           3.69085        -4.10999        -4.18006
LJ          -3.64775         2.58618          4.7628
LJ          -5.69435         1.95386        -4.66373
LJ           2.91482         -3.0239        -5.21087
LJ          0.966618        -2.34315        -2.66957
LJ          -3.92476        -2.61838        -2.22489
LJ           3.16447        -5.93195         6.05374
LJ          -2.84664        -2.59845        -1.39836
LJ          -5.15265         3.33032         -3.7217
LJ           1.06309        -3.83578        -1.03437
LJ            5.3445        -5.72124         1.21327
LJ          -4.19696         2.93815       -0.886911
LJ           2.68888        -4.89092        -4.63936
LJ           -1.2174         1.09665         2.46609
LJ        -0.0635619         2.14612         1.27551
LJ          -3.17187       -0.404779        -4.75452
LJ          -1.95052        0.667669         5.68329
LJ          -3.47427        -5.58931       -0.217141
LJ           4.32014        -3.87788         1.80042
LJ           4.11558         2.89427         2.15342
LJ           6.21846        -2.90767        -5.65309
LJ           3.03489        -2.28591        0.732482
LJ           2.25434         6.17842         5.59466
LJ           -5.0987         1.18342        -4.20431
LJ           6.32977         1.52687        -5.37731
LJ           3.56573         -3.1046           1.481
LJ          -3.22691        -2.87737        -2.90547
LJ           6.20419       -0.577133         2.46761
LJ           2.87248         5.74445        -3.34126
LJ          -4.20558         6.26894        -5.13885
LJ           4.36408       -0.921821        -6.07515
LJ           3.28297        -2.14389       -0.849682
LJ          -3.71971        -1.59039         -2.8983
LJ           4.50825         3.10099        0.704369
LJ          -2.55685       0.0767541        -2.55467
LJ           -2.3205       -0.545205        0.865256
LJ          -5.29922         3.55644        -5.29721
LJ           2.17091        -2.45102         -6.2903
LJ          0.304257         2.98615       -0.554187
LJ           4.92717        -5.21605        -3.75779
LJ          -3.53499        -4.32171        -2.63369
LJ          -4.51455         3.47009        -2.11278
LJ          -2.39009        -1.86406        -3.10159
LJ           3.33274         2.51977       0.0813792
LJ          0.212363         1.27177         2.64449
LJ          -3.66223        0.672418        -4.84246
LJ            6.2389        -1.83252        -5.26107
LJ           4.64819         5.95742         3.92534
LJ           -1.6616        -4.67239          5.3793
LJ          -5.19381        0.665842         5.12402
LJ          -4.38193         5.35898        -6.40996
LJ          -4.91302        -3.89885        -5.34101
LJ           1.77213        -1.60449        -5.18863
LJ          0.454328         5.29864         6.32245
LJ          -2.84345         3.62083         1.80623
LJ          -1.84878          1.9769        0.468821
LJ          0.112995         4.24108        0.979015
LJ          -4.46615         0.91325       -0.277189
LJ           3.84889         5.11314        -4.18657
LJ           -5.9377         3.93447        -0.79493
LJ           -1.8713        -1.30673         6.12184
LJ          -3.80131        -1.21234         -6.2594
LJ           2.62685        -2.97511         2.64386
LJ         -0.553926         2.13563         2.89364
LJ          -2.81451         4.87862         4.04177
LJ            2.7043         1.51314        -5.00703
LJ           2.27754         5.70815         3.33449
LJ          -3.69183         6.18396         4.46742
LJ          -2.03205         2.77396         1.56458
LJ          -4.73004         -4.3321        -2.91921
LJ          -3.77054        -5.16108         3.44587
LJ           -1.7316         3.18243        -4.33325
LJ          -1.67477        0.371674          1.7283
LJ          -3.84084         6.13015        -1.86352
LJ          -5.73053         1.60178      0.00499294
LJ          -1.51781         4.89781         1.32078
LJ            2.0545         4.83805         6.25007
LJ          -2.86147         3.24569        -6.43338
LJ           3.66942         5.60629         5.39982
LJ           3.27288         -6.1677        -1.83471
LJ          -4.74309        -1.39225         1.41704
LJ        -0.0318302        -3.00444        -4.97649
LJ           2.47366         4.54181        -4.96516
LJ           1.47994         -1.0628        -2.36384
LJ          -4.11365       -0.578469        -2.14725
LJ           6.11177        -3.33393         4.76391
LJ           1.33839         5.57414        -3.75988
LJ           5.53262        -2.25266         4.16822
LJ           3.71261        -5.96599        -2.94431
LJ           2.69547         4.16272        -4.05991
LJ          -3.03257         6.17393        -2.96089
LJ          -5.86123         5.44728        -0.71181
LJ         -0.145641         2.61378         6.30317
LJ           -2.3999         5.98847         3.70887
LJ           4.47894        -2.15909          3.4674
LJ          -2.64197        -1.97573         2.94947
LJ          0.359123       0.0769111        -5.99702
LJ          -2.32232         4.46823         2.49166
LJ           3.16198         0.70954        -5.81676
LJ            4.0667         3.49527         2.99565
LJ          -5.30587        -4.92842        -5.66829
