108
#Comment!
LJ          -2.85991         3.24934        -5.17492
LJ           -6.2805        -3.85638         -2.8946
LJ           4.45961       -0.438106        -2.80085
LJ          0.516825        0.218351        0.929145
LJ           1.69118         5.39387         2.91113
LJ           2.93038        -4.73753        -2.64045
LJ           3.05431         2.22312         0.72499
LJ           3.26135          3.3413        -6.37526
LJ           5.66497         5.71889        -2.67963
LJ         -0.601708        -4.29137        -3.89254
LJ          -1.74048         1.09337         4.26311
LJ          -1.34748         5.87402       -0.327734
LJ           1.31577         5.41676       -0.537554
LJ           4.46192        -4.48354         4.18423
LJ          -1.08521         4.26426        -5.76284
LJ           1.70536        -2.41632        -0.90586
LJ          -5.60183         3.66802          1.2808
LJ           2.15534        -2.53545        -2.00581
LJ          -3.86729       -0.144495         1.94235
LJ           -3.1508        -5.06747          6.0365
LJ         -0.714626        0.737698           1.862
LJ          -2.74345        -4.31708        -5.02347
LJ           3.30759         2.87422        -4.63544
LJ          -3.53345         3.56804        -2.30349
LJ          0.746934        -2.20849         3.81943
LJ           2.25388         4.08779        -3.69866
LJ          -5.87434         4.40516        -2.71505
LJ           2.43799         0.41234       -0.776416
LJ          -2.97261        0.474276        -3.12804
LJ          -4.46287        -2.75584           4.975
LJ          -3.56258         3.81886        0.625471
LJ          -3.43756          0.5511       -0.717991
LJ          -2.65975        -1.51357       -0.983098
LJ          0.908217         3.41979        -3.83058
LJ          -5.07373        -2.58706        -0.24702
LJ           1.23455         4.51771        -4.18088
LJ            3.6932        0.769374        -6.27828
LJ           -2.0168         2.56807        -3.61385
LJ          0.416261          4.5923         3.57279
LJ          -2.96822        -6.15737        -1.23262
LJ           4.23573         2.23215         4.07315
LJ          -1.31837        -2.54494        -6.01435
LJ          -2.55284        -2.16588        -2.44064
LJ          -5.43966         2.24473       -0.107703
LJ           3.99493         1.80574        -5.74546
LJ          -4.47849         1.77186       -0.450005
LJ           4.10028         3.84451         6.17308
LJ           2.33862         2.48921         1.47161
LJ           3.47701        -2.55327        0.635653
LJ          -5.83247        -1.07812         1.98787
LJ          0.345938        0.394631          4.7767
LJ           3.44757         5.41129        -3.09198
LJ           3.24024        -4.27234        -3.47093
LJ           3.36987        -1.97631       -0.751184
LJ           5.22838       -0.664734        -3.60732
LJ           0.82439         6.10568        -2.87063
LJ          -2.51601         1.21249         2.08926
LJ          -1.43879         -1.1002         6.42624
LJ          -1.11086         4.37983         1.93836
LJ          -1.90718         2.65275        -2.13661
LJ           2.49535        -1.97864        0.944571
LJ          -1.22581          -4.053        -1.43329
LJ          -5.61257          -4.925        -5.55504
LJ           5.01369         4.15816       -0.673926
LJ           3.15457        -3.64321         3.13821
LJ          -4.65611        -5.15161        0.215163
LJ          0.260179        -4.45493         3.04316
LJ           2.37697        0.979422         4.91946
LJ           4.03044        0.352839         1.90281
LJ         -0.366539        0.328254         -1.9006
LJ           4.12543        0.643524       -0.143012
LJ          0.445377         5.75524       0.0471731
LJ          -3.26475         3.80191         3.17281
LJ           3.31936       -0.766411        0.433713
LJ          -5.15896        -3.25513         4.06855
LJ           -4.3038        -4.67488         5.90131
LJ          -4.12981         3.72712        -5.41038
LJ         -0.408176        -3.12629         4.49314
LJ           5.62642        -4.81419       -0.658447
LJ           4.65665        -2.71101         4.96511
LJ           5.01537        -2.52685        -6.43165
LJ          -4.18756         1.96236        -3.14372
LJ          -3.92262         2.05994         -4.2238
LJ          -5.74104        -1.27828        0.390045
LJ         -0.459573         -6.0121        -1.54337
LJ          -4.02175        -2.44916         6.40588
LJ           3.27163        -5.33912        -3.47398
LJ         -0.048667        -5.79366        -2.74548
LJ           3.62403        -4.44763         4.94622
LJ          -1.67413       -0.197532       -0.399102
LJ         -0.797722         3.31899        -2.72154
LJ           1.29604         4.23012       -0.346839
LJ           1.47733          1.0688        -3.61528
LJ          -3.34886          -1.897         3.50989
LJ          -2.71405        -5.60278        -2.29507
LJ          -4.59221        -1.19771        -3.22483
LJ           6.33995        -0.69102          3.3537
LJ         -0.842407        -3.15874        0.622708
LJ          -1.08949       -0.184013        -3.98326
LJ          -2.26695        -1.59719         6.08075
LJ           1.37436         5.73837        -3.73077
LJ         -0.959787        0.469448       -0.925761
LJ          -2.64535         4.38322         6.18636
LJ          -5.19966         1.56845        0.761928
LJ         -0.454907         5.00362        -2.45241
LJ           5.92782         1.51398         5.10495
LJ          -4.20897        0.730908         1.45219
LJ          -5.51398         5.58531         -3.9939
