108
#Comment!
LJ          0.286827         -6.0745          4.5979
LJ         -0.931458         6.24116        -4.68992
LJ          -3.97109        0.522539        -1.92433
LJ          -4.59231        -5.96465         -3.0954
LJ           4.48163         3.40104        -4.39934
LJ            -3.184       -0.612829         5.93138
LJ          -6.28884         4.48374          2.0303
LJ          -5.48676         2.05382         2.23218
LJ         -0.949136        -3.45009         6.02479
LJ           1.43136        -1.13699           3.147
LJ         -0.691245        -1.87752        -3.18411
LJ           4.77948        -4.72797          3.5581
LJ          -5.09624          4.3526         4.53495
LJ          -4.78614         1.92328         6.05245
LJ          -4.48395         1.34167        -1.84847
LJ           2.06355        0.516981        -2.65979
LJ           4.02601        -1.86536         5.30246
LJ           2.48995        -3.76592        -5.77657
LJ           6.35233        -1.91695        0.624249
LJ          -5.62867         1.56501        -6.19003
LJ          -1.39244        -3.97816        -4.88666
LJ          -1.12189         5.13814        -5.01985
LJ           0.72172        -4.95013         2.80817
LJ          -1.12037        -2.99529        -2.61558
LJ          0.713861         4.69894         1.49063
LJ          0.912818        -3.52557         2.66385
LJ         -0.376165        -2.67884          4.3491
LJ          -1.83772         3.61238        -2.16612
LJ          0.632516        -2.57372        -3.31477
LJ          -6.36933         5.92415         1.92394
LJ          -2.98272         0.65642        -1.38646
LJ           4.77306        -1.09761        0.196948
LJ          0.293415         -3.0077         3.42875
LJ          -1.87305        -4.71023        -6.25601
LJ           4.18722        -1.62961        -6.42892
LJ           5.07469         3.47222         5.96803
LJ          0.527213         -3.4582        -4.14324
LJ           2.70557         2.16354         4.45968
LJ           6.24153         1.16155         2.60149
LJ          -5.79286        -3.53146        -3.47983
LJ           5.22303        -2.44922         5.29823
LJ          -4.78629        -5.95874         3.13529
LJ           1.77374          3.7203         1.78487
LJ           4.45044        -1.06421         4.73979
LJ          0.602953        -5.27504        -3.56121
LJ           1.20986         2.64037         4.51147
LJ           0.69616        -5.24788         6.29729
LJ           5.61968         1.34536         1.63701
LJ           6.41962         5.81621        -1.98729
LJ          -2.26924         4.65255        0.819109
LJ          -5.23479       -0.817727         5.35825
LJ           3.28299         6.18833        -5.87026
LJ          -2.32727         1.02995        0.337233
LJ          -3.92874        -1.78598        -3.87735
LJ           1.31477        -3.99957        -6.17201
LJ           3.26249        -3.70096        0.712171
LJ         -0.467984        -5.82598        -6.05374
LJ           5.11221       -0.607823          -1.428
LJ           3.79427         3.96742        -2.11586
LJ           5.48037        -5.76411         2.80332
LJ         -0.161421         2.94322        -1.00623
LJ           2.44368       -0.147699        -5.40342
LJ          0.390977        -5.85998        -4.65212
LJ          -5.70181        0.101705       -0.428226
LJ           2.52038        -3.99581         2.77454
LJ          0.506606        -4.94576       -0.354608
LJ          -5.99034        -1.48237        -2.61837
LJ          -2.59104        -2.32599        -6.20406
LJ          -4.84623        -1.04496        0.753407
LJ           5.95685        -4.37611         3.13971
LJ           2.07705        -4.15546         5.11265
LJ          -5.90483        -3.58954         3.85002
LJ           5.30415         1.51299        -5.15206
LJ          -4.31227         3.74537        0.111904
LJ           4.25931        -3.37196        0.504924
LJ          -4.97094        -3.03252         2.54077
LJ          -2.60264         1.58837         4.72493
LJ          -2.12749       -0.740626         4.17303
LJ          -3.02253         1.67673        -3.13466
LJ           2.48536         1.36412          -2.969
LJ          -1.64092        0.503599       -0.558856
LJ          0.952494         3.70506         4.83344
LJ           1.88955       -0.996712        0.210062
LJ            4.5899         5.83764        -1.03828
LJ           5.94339      -0.0173597        -2.04399
LJ         -0.731554        -5.55937        -5.06943
LJ           5.96234        -3.45076        -2.52863
LJ            6.0411         2.61859        -5.80657
LJ          0.195034         1.98384         4.17834
LJ          -5.28194       -0.887064         -5.0056
LJ          -2.97615        0.507852            4.76
LJ          -3.45799         3.80504        -2.94659
LJ         -0.319729        -4.74719        -3.94505
LJ           3.69136         6.31522          1.7654
LJ          -2.80465         3.40559         2.69086
LJ           5.70122         3.84365         5.04069
LJ           2.52274       -0.602859        -4.39106
LJ           4.13021        -6.43949         -6.3865
LJ           3.66148         4.07966         5.18786
LJ          -1.45469         1.30666         2.79376
LJ          -4.26725        -0.78287        -5.04452
LJ          -3.27974        -0.41931         1.14655
LJ           1.94362         4.96946        -6.22026
LJ           2.88709       -0.754467       -0.113965
LJ         -0.197781        -2.92846       -0.927342
LJ           2.02106        -5.88734        -5.66012
LJ           5.99578        0.182148         1.86598
LJ           3.92112        0.739218         1.23155
