108
#Comment!
LJ          -1.62188         2.34599          3.3985
LJ          -2.22652         6.02088        -4.87626
LJ           1.74713        -3.27012         5.09058
LJ           5.06114         4.38916          1.0568
LJ         -0.166435        -6.21402         2.51669
LJ          0.710625        -3.99374         2.51939
LJ           2.50851         5.47208        -3.55731
LJ           5.30811         5.91567        -3.78174
LJ          -4.20873         2.84138         4.18289
LJ          -4.85886         1.54493        -3.95998
LJ          0.396318        -1.99989        -4.59162
LJ           1.70884        -3.33574        -2.50374
LJ          -2.67154        -4.90655       -0.832571
LJ           5.26061        -3.98702         6.13581
LJ          -1.93132        -2.43999        -5.57634
LJ          -4.72111          3.7408        -2.56504
LJ          -1.17065        -4.76557        -3.56274
LJ            3.1989        -6.13326        0.246029
LJ          -5.20669        -1.05013        -2.91424
LJ         -0.376586        -1.51284          5.2989
LJ          -1.11308         4.46654        0.328056
LJ           1.32447         1.74019          1.8702
LJ          -4.01078       -0.152145        -4.81569
LJ          -2.14801       -0.903826        -5.55646
LJ          -2.15013         5.76612        -2.55603
LJ           4.93407        -5.96543         1.08145
LJ          -2.04049         3.62541          3.8993
LJ          -5.56779        -4.79405        -5.87985
LJ            1.0369       -0.526931         2.19535
LJ           4.78505         3.49631         6.07511
LJ           5.94072         1.59467         -4.4286
LJ          -6.15344        0.877951         -3.4266
LJ           5.40351        -5.45859       -0.763878
LJ          -2.93842        -4.12859        -3.09928
LJ           -2.0083         -1.3904         3.66582
LJ           2.93334        -6.31802        -3.69605
LJ          -6.05235        -4.82328         4.50773
LJ           2.82668         1.54027        -4.05736
LJ         -0.908531        -2.98061        -3.66801
LJ          -2.07614        -3.58443         -2.1056
LJ           3.25346         4.41421        0.890819
LJ          -2.00577        -1.55841        -3.85007
LJ          -2.04354       0.0431912        0.447868
LJ          -3.47145         3.35735        -2.87751
LJ           4.52308        -4.87881         5.95961
LJ          -2.03502         2.61154        -2.22017
LJ          -6.45598         5.11793        -4.44303
LJ          -2.39842         5.48316        -3.82513
LJ         -0.835232         2.87698         6.42897
LJ          -3.18878        -1.57836         1.49205
LJ           2.63355        -5.96843         3.01332
LJ           -3.2208         2.28058         4.84783
LJ           -3.2843        -2.16497        -6.09248
LJ          -5.82382        -1.71685        -5.82855
LJ           3.74142        -5.07837         5.11893
LJ         -0.252402        -5.78158          5.9071
LJ          -3.05155         4.07736         4.36552
LJ            5.2996         3.82009         5.21736
LJ          -3.23874        -3.87912         5.42046
LJ           4.13634        -4.96192        -4.76164
LJ           1.92883         4.74937          5.6145
LJ           -2.9104         5.31136           1.031
LJ          -4.53604          6.3162         4.61688
LJ            1.4351         3.00112        -0.20326
LJ           3.42521      -0.0703351       -0.576881
LJ           1.49982        -5.74926        -1.66644
LJ           3.84099         3.83503         1.65894
LJ          -4.70333       -0.618108        0.749059
LJ          -4.42965        -1.78901        -5.28931
LJ          0.540228        0.759998         1.62268
LJ           1.70165         1.21363        0.782243
LJ          -1.29389         5.90407         3.12966
LJ           1.50206         1.60512         -2.9288
LJ          -2.73256         4.72949        -4.62092
LJ        -0.0130616         5.70747          -0.235
LJ          0.417415        0.234039         4.06592
LJ          -2.02303        -3.95135        -3.72758
LJ          -4.95523        -3.69503         3.55526
LJ             1.916         1.98198        -1.93341
LJ          0.250954         2.72103         6.23569
LJ          -3.51815         5.26599        -4.34009
LJ          -3.40187        0.874237       -0.776504
LJ          -1.90975         2.20727         0.54692
LJ           5.69623        -5.04528         5.09822
LJ          -3.15518         2.96756         5.76442
LJ           4.05235        -6.20374         3.04527
LJ           4.02659        -4.72037        -3.70107
LJ          -2.59567          2.3155         1.76632
LJ           1.92646        -5.30456        -5.86078
LJ           3.69578         2.17504         -4.2277
LJ           1.42162        -1.19374        -2.71874
LJ          -2.74857        -3.37638       -0.923922
LJ           6.07611        -2.71342          1.7856
LJ           2.71636         -3.5655        -5.41828
LJ           3.25722       -0.984229         2.63486
LJ           3.64775        -6.09986        -3.03772
LJ           4.41275         1.62413       -0.582527
LJ          -4.50138         5.10338        -3.98108
LJ           3.50059        -4.35946         1.66755
LJ          -3.69288        -3.81347        -5.05549
LJ         -0.871603        -6.00784        -5.77914
LJ           2.41897        0.225757         1.57312
LJ          -4.35803        -1.48098         5.72321
LJ           2.83301       -0.335495         5.25286
LJ          -2.29875         3.94488        -6.03784
LJ           3.93664         0.22583         3.82481
LJ           4.07729         3.62688         3.41604
LJ          -5.93371          5.8024         5.49328
