108
#Comment!
LJ          0.869353        -6.41273         3.73266
LJ          -4.27935         5.20194        -2.96187
LJ          -2.68557        0.875032        -2.77546
LJ           5.56503        -2.21593        -3.24891
LJ           3.32277         4.28693         5.51091
LJ          -3.76457       -0.703437         6.30721
LJ          -3.21178        -5.95378         3.48579
LJ          -5.31519         1.37135        -3.32669
LJ         -0.788118        -4.16536         4.92355
LJ           1.49132        -1.56596        -4.11212
LJ          0.697876        -3.68145        -4.21645
LJ           -3.1798        -2.79557         2.78666
LJ          -6.39067         1.50877        -6.10497
LJ          -2.50298        -4.53696         6.11894
LJ          -3.58402         6.19596        -1.06394
LJ          -1.49469        -3.94826        -5.53906
LJ           2.43497        -2.16535         2.79734
LJ           5.61744       -0.922306        -6.45055
LJ         -0.198651       -0.793844        0.666425
LJ            1.7278         5.60115         2.15397
LJ          -2.59217        -6.00101        -5.83812
LJ          -3.01052         5.55957        -3.25584
LJ          0.891805         6.35764         5.14846
LJ           4.06157        -4.87707        -1.73485
LJ         -0.332577         3.91871        -5.59581
LJ          -1.34626        -5.02757       0.0620811
LJ         -0.420873        -4.07456         3.87906
LJ          -2.91536         1.23397         1.44475
LJ        -0.0139618        -3.72924        -5.05585
LJ           4.38301         5.26491        -3.99432
LJ           -3.5663        0.799758        -1.79122
LJ            4.2983        0.306662        -3.27118
LJ          0.324158        0.262325         3.81349
LJ              0.62        -3.43912        -6.24429
LJ           2.41442          2.8925        -5.34182
LJ           4.37178         3.79821         6.07898
LJ         -0.920497          -5.526        -2.63973
LJ           2.00014         1.44976         3.26188
LJ          -4.04792         4.63665           1.309
LJ           -3.4034        -4.05744        -4.30598
LJ           3.78843         5.77812         4.44677
LJ          0.556954         4.29071         2.66869
LJ          -2.77095         4.37379         5.95827
LJ           2.76444        -2.25415         3.93992
LJ          -2.56205        -5.06925        -4.02396
LJ           4.94196         5.23937         6.31742
LJ             3.376        -1.17587         5.69028
LJ           3.86851         1.56956         3.99417
LJ           6.09595         1.89689        -4.95348
LJ           -3.2738        0.890689        0.204667
LJ          -5.67615         3.63896        -4.90384
LJ           2.25377        -2.47975           5.952
LJ          -3.06615         1.62035         6.26375
LJ         -0.375029        -4.01616         -4.0407
LJ           1.56874        -4.04933         6.14197
LJ          -1.89501        -6.24063        -0.60841
LJ            3.3605         5.95445         2.11774
LJ          -5.90559        -1.66112         3.76663
LJ          -4.64979          -4.059       -0.669291
LJ            6.3965        -5.07365         3.03679
LJ          -3.53395        -5.12682       -0.298137
LJ           2.12878         2.94974         5.10957
LJ           3.03538        -3.23231        -3.92898
LJ           -4.2518        -6.16232        0.758173
LJ           1.93843         5.30898        0.959069
LJ           2.63004        -3.28174         3.73007
LJ          -5.79789        -5.25017         1.64626
LJ         -0.305424        -3.53227        -2.54085
LJ           4.60542        -1.87727         1.38835
LJ           5.15503        -3.11541         6.25996
LJ           1.11637       -0.296847         4.17733
LJ          -5.02694        -2.01144          2.1696
LJ           1.72282         4.02037        -2.42557
LJ          -5.44088         5.12914        -2.07305
LJ          0.302924         4.46302       -0.895442
LJ          -6.00944          5.2493         5.01212
LJ          -1.80249        -3.95274         2.67813
LJ          -2.86346       -0.478191         5.41718
LJ          -1.83322         3.62515        -1.87369
LJ           4.16586         4.22423        -4.58682
LJ           3.20177        -2.44779        -1.98899
LJ           5.47547         4.22204         5.82887
LJ        -0.0371948         2.89006        -2.49134
LJ           6.21752        -5.11272        -2.58826
LJ           4.99029          3.4397        -6.03738
LJ           2.66563        -5.71848        -3.64951
LJ          -1.90974         6.21121         -3.9847
LJ           4.95277        -2.44697        -5.99725
LJ          -3.41071        0.613158          2.0217
LJ           4.60986        -1.84293         5.21461
LJ            2.0196         1.05729          2.2604
LJ          -3.11472         5.29047         1.42895
LJ          0.301368        -3.07848         4.70218
LJ          0.204968        -5.76724          3.0998
LJ          -5.55399        0.486059         2.30097
LJ           3.24942         1.43319        -6.38405
LJ             1.273         2.20332         3.99216
LJ          -2.92992         4.29273        -5.16063
LJ           6.01387         4.34209         4.54702
LJ          -4.07162         2.32048         2.74078
LJ           -3.4035        -4.30618       -0.912679
LJ          -2.62443         1.75484        -3.97184
LJ           3.26414         5.51456        -1.38283
LJ           6.05155        0.297781         1.28559
LJ          0.843852        -4.97668        -3.31492
LJ           2.88785       -0.447821         -2.7508
LJ          -3.93465        0.841814         2.92019
LJ          -4.62844         1.71595         3.99375
