108
#Comment!
LJ         0.0190273        -5.63368         5.14595
LJ           -1.5961         6.09477        -5.19886
LJ          -3.68853        -0.20908        -1.71399
LJ          -3.87349         5.55026        -3.59712
LJ           3.96403         3.83348        -3.41653
LJ          -3.31468       -0.729434         6.23661
LJ           6.26661         4.07426         1.65485
LJ          -5.16396        0.580463         2.66296
LJ         -0.870362        -4.44264        -6.28903
LJ           1.41116        -1.33655         4.76877
LJ         -0.943921         -1.9218        -2.92932
LJ           4.06192        -5.44082         4.14874
LJ          -4.82036          5.0005         4.08183
LJ          -5.67459         3.32264         5.85766
LJ          -5.13016         1.91696         -2.9516
LJ           2.23399        0.254311        -1.73564
LJ           3.80505         -2.0734         4.49845
LJ           2.82735        -4.51465        -4.57189
LJ          -6.03527        -2.23301        0.465998
LJ          -3.57421        0.861941        -5.59119
LJ          -1.16826        -3.78104        -4.36929
LJ          0.194807         5.78313        -5.53886
LJ           1.02456        -5.74489         1.99622
LJ          -1.78656        -1.17819        -1.97685
LJ           1.21619         4.44226      -0.0627011
LJ           1.60916        -2.97995         3.67787
LJ         -0.157686        -2.41503         4.80162
LJ          -1.91601         4.10403        -2.76504
LJ        -0.0651285        -2.36008        -2.63175
LJ           6.44408        -4.72444        0.410925
LJ           -2.6275       -0.136414        -1.33237
LJ           5.18632       -0.665476         1.15486
LJ         0.0833289          -2.648         3.27348
LJ          -3.15165        -4.21824         6.09615
LJ           4.46909        -2.20872        -5.10082
LJ           5.23286         3.80756         5.62038
LJ          0.199988        -2.93768        -3.62111
LJ            2.9148         2.23635         4.67804
LJ           5.83269        0.877024         2.10812
LJ            6.3554        -3.38364        -2.86107
LJ             5.871        -1.42543         5.41634
LJ          -6.38289        -5.39941         3.36843
LJ           2.68383         4.08932        0.915575
LJ           4.90863         -1.0599         4.79446
LJ           1.29931        -5.91322        -3.85205
LJ           1.88556          2.8045         4.48509
LJ         -0.583963         -5.3453          5.9592
LJ           4.65739         1.59387          1.0057
LJ           6.08095         5.57301         -1.2753
LJ          -1.98748         5.82649         1.16138
LJ          -5.30214        -2.01993         5.48556
LJ           2.58699         5.45623        -4.95222
LJ          -3.44017          1.4241        0.616825
LJ          -4.42492        -1.35803        -3.82901
LJ           1.05129        -5.02685        -6.03346
LJ           4.41189        -2.93775         1.58454
LJ         -0.837926         6.35376        -5.87766
LJ           4.64436       -0.514695        -2.48318
LJ           3.39926         3.14862         -1.9325
LJ           5.54354         6.32995         2.48368
LJ          0.467924         1.63137        -1.29106
LJ           2.61501        -1.30946        -4.73776
LJ         0.0992812        -6.17031        -5.21562
LJ          -5.29802         1.78111       -0.422574
LJ           2.18538        -3.04295         2.72944
LJ          0.109312        -5.75751        -1.25907
LJ           -5.0461        -2.35417        -3.32954
LJ          -3.00089        -1.53362         5.60339
LJ          -4.89475        -1.65625        0.940668
LJ           4.77198        -5.28627         2.97505
LJ           2.23327        -5.22179         4.65782
LJ          -5.81793        -3.69057          4.3185
LJ          -6.16684         1.35921        -6.06618
LJ          -4.02066         3.35548        0.573196
LJ           5.38038        -2.30459        0.539957
LJ          -5.10564        -1.88158         1.87636
LJ          -2.62588         2.94568         5.19262
LJ          -2.60885        0.189659         3.90838
LJ          -3.20026         1.17611        -3.76266
LJ           2.58412         2.39672        -3.39584
LJ          -1.76481         0.54533        -2.01828
LJ         -0.359971         3.19786         4.58292
LJ           2.17116        -2.26567         1.08092
LJ           4.34409         5.05639        -0.68254
LJ           5.03414        0.759976       -0.939229
LJ         -0.930612        -4.90299        -4.61023
LJ           5.44521        -1.44256        -2.49155
LJ           6.15792         3.08218         -5.7647
LJ         -0.372792         1.75224         4.22223
LJ          -5.55233       -0.292712        -4.48567
LJ          -1.19222       0.0181511          5.0282
LJ          -3.26667         3.30127        -3.88364
LJ         -0.067009        -5.70567        -3.71918
LJ           5.03293         6.22441          1.6164
LJ           -1.2737         4.54441         3.10206
LJ           6.06642         3.92769          4.8137
LJ           2.83909       -0.854762        -3.27034
LJ           3.76331        -5.70862         5.99602
LJ           3.35642         4.08522         6.12378
LJ         -0.826586         1.67574         2.35686
LJ          -3.79332       -0.239462        -5.75082
LJ          -2.54119       -0.364196         2.20338
LJ          0.972469          4.8789         4.89001
LJ           2.66781        -1.16848       -0.766599
LJ         -0.182588        -2.82481       -0.548796
LJ           1.87471         5.49775        -6.03308
LJ           6.09618       -0.546169         1.55644
LJ           3.02573        0.256544         0.82066
