108
#Comment!
LJ           1.53206         6.39273        -3.43268
LJ           -3.4918        -3.77681        -4.90577
LJ          -5.05838        0.821692         1.49729
LJ            2.6419        -4.01478        -3.92774
LJ           -2.0011         3.52727         3.71521
LJ          -4.45367       -0.485273         6.12055
LJ            2.6576        -2.54677         4.85803
LJ          -2.12493         2.01624        -2.76312
LJ          -2.59346         -6.0639         6.19211
LJ           5.01838        -2.40081        -2.59549
LJ          -1.36457         4.41456        -1.48009
LJ         -0.766073        -3.76126        -1.13093
LJ          -3.77741        -5.97682        0.795008
LJ           3.02362         4.38475         -4.1165
LJ          -4.18694        -4.97205         1.87243
LJ          0.489465         2.21866       -0.111919
LJ         -0.953026        -1.49969        -3.28912
LJ          -3.59508       -0.603622        0.729835
LJ          -4.57261       -0.221654         2.39462
LJ           -6.0605        -2.34581        -6.17555
LJ          -1.22819         3.71711         5.12355
LJ           5.09646         4.59105        -0.98931
LJ           1.63719         2.44878         1.29938
LJ         -0.411241        -4.03343         2.75941
LJ          0.480362        -5.82998         1.00334
LJ          0.711845        -2.14141         1.63564
LJ           5.35093        -1.58467        -6.38368
LJ         -0.421636        0.965844         5.58402
LJ            1.3551        -5.17963         4.60655
LJ           -1.1833         1.08561         3.08522
LJ          -1.09647        -0.34495         6.29077
LJ           1.61178        -4.65876        -2.82182
LJ          0.551097         5.82033        -4.80675
LJ         0.0954008        -5.17901           6.035
LJ           5.30609        -5.39608          6.1441
LJ           6.16813          2.8181          5.4296
LJ          -4.21683        0.871881         6.29173
LJ          -1.27925       -0.515416         1.37382
LJ          -4.19401        -6.39627        -2.81775
LJ          0.231057          -6.271        -6.27161
LJ            3.0617       -0.876928          2.5526
LJ          -1.55136        -3.61994         3.22702
LJ          -4.71315         4.91838        -3.19617
LJ           1.64294        -1.78152         3.24453
LJ          -2.20815         2.63779        -5.68472
LJ          -2.56528         1.55627        -5.69007
LJ          -2.04073         4.63136        -6.38693
LJ           4.68593        -3.27391         5.61534
LJ          -4.36847          -3.703        0.436973
LJ          -4.66613        -2.83385         2.23265
LJ          -5.98257        -4.84434        -5.97997
LJ          -2.75069         5.03409         4.66845
LJ         -0.117072         2.37816        -3.39638
LJ        -0.0489953         5.04557        -1.69671
LJ          0.243254        0.177977         3.34888
LJ          -5.21113        0.170993       -0.845181
LJ          -4.32378        -5.97262         5.37411
LJ          0.537154       -0.248237        -4.48016
LJ           1.34319         1.10104        0.806262
LJ          -2.95919        -4.61236         3.44615
LJ          -6.03608        -2.25432       -0.167964
LJ           1.92128        -1.27255         -2.4742
LJ           6.32972         4.35934        -3.21862
LJ          -1.03891         1.85979        -2.09842
LJ            0.1286        -3.94818         -1.6554
LJ           5.62738         3.07423        -6.36277
LJ          -5.93193       -0.977266        -3.46337
LJ           4.65133        -3.88878        -5.09322
LJ          0.701325        -4.39239         4.86975
LJ           2.01553        -3.43595         6.36905
LJ         -0.102074        -1.73813        -1.88593
LJ          -5.29092        -1.66962         -2.1091
LJ          -4.61253         -6.1204        0.185181
LJ           1.89137        -5.48672       -0.671215
LJ          -4.57432        -5.14451         5.91382
LJ           5.08475         -4.9031        -2.10732
LJ          -4.86131        -5.41599        -3.25955
LJ           5.42693        -3.52976        -1.32179
LJ           5.15165         4.93585        -2.79618
LJ            4.5103       -0.249905         4.54264
LJ          -2.50033         5.69585        -5.72323
LJ           4.60258        -0.86005         6.05432
LJ          -3.91466        -3.74775         1.65709
LJ          -1.17872        -2.94083         -1.8629
LJ          -5.96884         4.97837        -4.99764
LJ             5.653         5.65199        -3.36908
LJ         -0.450216      -0.0848309        0.369827
LJ            4.5349         5.61345        0.415624
LJ            1.4851        -3.67921        -2.61322
LJ          -1.17282        -2.27874         5.89291
LJ          -5.22136         2.08479        -2.85155
LJ          -2.91575        -6.23305        -5.05676
LJ          -2.08297       -0.301496         2.18609
LJ           3.85948        -2.83207         5.28693
LJ           2.34622         0.56556         6.32858
LJ         -0.409383        -4.71211       -0.053155
LJ           1.59283       -0.692367        0.808573
LJ           3.18398         2.77338        -1.96584
LJ           1.54055        0.274207        -4.54966
LJ          -2.50817         2.47241         2.14797
LJ          -5.66276        0.244941        -1.77038
LJ         -0.988157        -4.65047        -5.98963
LJ          -5.89483       -0.259834       -0.216828
LJ          -2.42854         5.74508       -0.497521
LJ           5.89234         4.59232       -0.133763
LJ          0.566809        -3.38606        0.627074
LJ          -3.10352         -3.2828         1.12027
LJ           1.97253       -0.354953        -5.31688
