108
#Comment!
LJ           1.07386         6.23171         3.48575
LJ          -3.18352         4.72363        -3.71079
LJ          -2.57649         1.05832        -1.80214
LJ           5.59847        -2.00113        -2.74507
LJ           3.49232         3.72472         6.31916
LJ          -3.53769       -0.232948         5.49494
LJ          -3.96397         6.04229         3.07276
LJ          -5.55145         1.26024        -1.58198
LJ          -0.65989        -3.44246         5.05785
LJ             1.326        -1.00064        -2.19164
LJ          0.873147        -3.46489        -3.91135
LJ          -4.47361        -2.97524         2.70246
LJ          -6.14644         2.22178          6.0163
LJ           -3.0701         -2.9676         6.24122
LJ           -3.6888         5.05058         -1.3873
LJ         -0.596142        -3.01094        -4.24456
LJ           2.85449        -2.16541         3.33865
LJ           4.53548        -1.26827         6.15792
LJ           1.53345        -1.12773        0.707024
LJ           2.93524         4.26063         3.18978
LJ          -1.99306        -5.38433        -5.70533
LJ           -2.7962         5.78824        -3.45466
LJ          0.653358         -5.7366         4.11949
LJ           2.79203        -4.56008        -2.08753
LJ        0.00194969         4.19655         6.06938
LJ         -0.231429        -5.05893        0.466495
LJ         -0.846707        -3.59997         3.63785
LJ          -2.29926         2.06387        0.447768
LJ          0.227897        -2.97525        -5.09321
LJ           5.14829         5.41706        -5.44351
LJ          -3.88873         1.04804        -1.64517
LJ           5.01996        -1.09731        -2.63667
LJ          0.291645       -0.591816         3.41519
LJ           0.94643        -4.15583        -5.65344
LJ           3.71532         2.20283        -5.45545
LJ           4.69007         2.90931        -6.35767
LJ         -0.981225        -4.99475        -3.64189
LJ           2.42401         1.70724         3.77955
LJ          -4.85337         3.69353         1.83255
LJ          -4.06032        -3.88362        -4.22076
LJ           3.81275        -6.05407         4.40661
LJ        -0.0454856         5.25981         2.37139
LJ          -1.76335         4.07406         4.76822
LJ           3.32036        -1.92997         4.40642
LJ          -2.06316        -5.06434        -3.99457
LJ           3.53531         4.97688         5.76175
LJ           2.98733         -2.2212         6.00616
LJ           3.95652         2.14736         3.61869
LJ           6.32251         3.36854        -4.12975
LJ          -2.97852         1.25691       -0.354189
LJ          -5.32173         2.57601        -5.60389
LJ             2.244        -3.72131         6.37129
LJ          -2.95162         1.88068          5.0204
LJ          -1.24221        -3.99984        -3.91375
LJ          0.977699        -3.98708         6.01097
LJ         -0.769233        -5.76007       -0.616151
LJ           2.93651         -6.3543         3.89499
LJ          -6.35954         -1.4302         2.43139
LJ          -6.13391        -5.69166        -1.36412
LJ            6.1211        -5.18163         2.98787
LJ          -2.65939        -6.23211       -0.429693
LJ           2.03085          2.3473         5.65243
LJ           2.09682        -3.87413        -4.49314
LJ          -5.13127        -4.92266         1.15472
LJ           1.49124         5.79952         2.31399
LJ           2.07574        -3.45369         2.61895
LJ          -5.82336        -4.34004        0.349791
LJ         -0.997411        -3.66571         -2.7014
LJ           5.77655        -1.08937        0.958816
LJ           5.80207        -3.37768         4.63135
LJ          0.910322         -1.3863         4.71448
LJ          -5.14913        -1.85127         2.95154
LJ           2.30389         3.58746        -3.10909
LJ           -5.2174         4.76055        -1.57113
LJ          0.890469         6.05433       -0.186737
LJ          -5.63636         6.35547         4.48425
LJ          -1.80966         -2.7538         3.21866
LJ          -2.20854       -0.849836         5.24361
LJ          -1.50746         2.95722         -2.0624
LJ           4.08526         3.10047        -4.04776
LJ           2.05119        -2.17665        -1.68978
LJ           4.79608         4.48137         5.54204
LJ          -0.17639         2.26841        -1.79634
LJ           5.60858         -5.2302        -2.32523
LJ           4.67006         2.42308        -5.05922
LJ           1.87129        -5.93572        -3.93222
LJ          -2.98338        -6.04266           -3.22
LJ           5.27159        -1.03545        -5.55828
LJ          -2.50933        0.715301         2.63451
LJ            5.6031        -1.69302         5.63137
LJ           4.25814        0.830533         2.59848
LJ          -3.35516          4.8536        0.464601
LJ          0.156034        -3.19212         5.76917
LJ          0.583562        -5.78736         3.11227
LJ          -5.80836        0.687293         2.08267
LJ            3.7398         2.19266         5.98582
LJ           1.77286         1.33253         4.99763
LJ          -4.52299         4.84832        -5.70848
LJ           5.57154         4.01641         4.07052
LJ          -3.49611         1.41599          3.3848
LJ          -3.68545        -3.28059        -1.89378
LJ          -3.15164         0.74449        -2.87831
LJ           3.47912         5.44456        -2.10114
LJ           5.51385        0.404033         1.16735
LJ         0.0697565        -3.84448        -3.06357
LJ           2.82723        -1.69838        -3.55802
LJ          -4.77674       -0.303856         2.93113
LJ           -5.5585         2.03024          3.1554
