108
#Comment!
LJ          -2.63953         3.40994        -4.21068
LJ         0.0493838        -1.64298         1.85185
LJ          -2.30706         2.59897         1.10438
LJ           2.41233         5.49798        -3.65295
LJ          -2.66796        -1.48787        -4.40872
LJ          -6.26673         1.84586        -5.28455
LJ          -5.67855        -3.51121        -6.33286
LJ           1.28652        0.527872        -1.74261
LJ          -2.02788        -2.34538       -0.401812
LJ          0.122551         1.53598         1.80192
LJ           3.89466         3.09974        -2.00722
LJ          -5.09175          2.2884          4.6166
LJ          -6.02233        0.884582         1.54142
LJ           2.45312        -2.48194         4.07039
LJ           2.11224        -4.48856        -1.30681
LJ           1.06158        -1.39106        -1.63436
LJ          0.971961         -5.9856         1.78215
LJ         0.0839351        -2.74715          2.1416
LJ          -4.24718         6.39627         3.07158
LJ          -4.69755         2.90276         2.45352
LJ          -4.46134        -0.60835         2.63196
LJ          -4.75099        -3.83972         1.54907
LJ          -2.99555        -1.62569         0.95466
LJ          0.989945       -0.934294        -6.08061
LJ          0.581709         1.69597        -2.30018
LJ          -2.44241        -1.14726        -2.82056
LJ           1.91028        -4.83905          2.5794
LJ         -0.983615        -4.62692        -1.54974
LJ          0.392787        -1.09812         0.40429
LJ           4.62353        -3.80871        0.513525
LJ         -0.566816        -2.03121        -4.83683
LJ           4.85558         -5.4638         2.36881
LJ            5.5986        -2.53908         5.55421
LJ           1.12472        -0.30478         3.32073
LJ          -5.78788         2.37481        0.356537
LJ          -3.16053          3.5794        0.710538
LJ           1.17471         4.12151        -2.38271
LJ           3.49747        -4.46225         0.63402
LJ          0.866266         1.05911        0.973498
LJ            3.4362        -5.30488         2.29185
LJ         -0.536302         3.54687          4.2739
LJ           2.36669        -5.83207         1.89681
LJ           4.76435         6.08643        -1.23546
LJ         -0.153819        -0.93561        -5.82204
LJ           3.27073         2.62477           -3.32
LJ           1.37667         4.99571        -4.49331
LJ           1.55411        -5.97598        -4.62863
LJ         -0.629045         5.65561        -5.56378
LJ          -5.34423        -6.30727         4.30909
LJ         0.0379899        -3.58976        -3.86588
LJ          -4.24825         4.97115         3.03086
LJ          -2.79938        -2.13645        -3.35666
LJ          -4.90642      -0.0126598         3.67323
LJ           3.32641        -5.84267        -3.13642
LJ           1.86077         1.79195       -0.691153
LJ           5.39248        -6.28816         1.61909
LJ          -5.89752         1.33476          4.0937
LJ            -1.274        -1.16026        -6.10758
LJ          -2.60423         1.73499         4.32462
LJ        -0.0184138        -4.83957         2.17489
LJ          -4.39254        0.748553        -4.86915
LJ           3.96319        -1.15787        -4.94026
LJ           4.33686        -4.28291         4.59547
LJ         -0.523217         -3.3378        -1.29048
LJ           2.59631         3.03969         2.89993
LJ           1.32495       -0.524191         -2.4804
LJ         -0.972468        -1.37032        -3.79043
LJ         -0.878447         2.46182        -4.84156
LJ          -1.81898        -1.31425          2.2737
LJ          -1.76596        -2.63369         3.55045
LJ           2.31307          1.6765          0.8293
LJ            1.4276      -0.0211143       -0.667507
LJ           4.31951        -4.81175          1.1851
LJ          -6.43444         2.20794        -4.34882
LJ           4.36669        -2.00689         1.64931
LJ          -2.75681        -5.39823        -4.17451
LJ          -1.48869        0.460575         5.04081
LJ          0.951735         2.49473        -5.90893
LJ           1.55197         3.45052        0.272611
LJ          -4.65434        -2.06716        -2.50186
LJ          -1.04471        -4.48104         1.18566
LJ            5.7555         4.41835          4.5788
LJ          0.192645           4.776        -5.14493
LJ          -4.91913         1.86934        -5.32495
LJ           4.86391         3.64221      -0.0139399
LJ          -2.59926        -2.07327          2.0883
LJ           1.47721         2.12078        -2.61376
LJ          -2.03869        -3.02007         -5.9164
LJ           0.69628         6.03862        -3.24825
LJ          -2.95896         3.19086          4.8837
LJ           3.29749        -5.62315         3.49399
LJ         -0.199501       -0.834109         3.12646
LJ          -2.36463       -0.558614        -5.71606
LJ          -4.00677        -3.87498        -4.26165
LJ          -1.17554         3.20523        0.724889
LJ           3.69216         1.45862        -2.46883
LJ          0.024874         2.88661        -4.71157
LJ          -3.43921        -4.67665        -5.28788
LJ          -5.14726         5.13177        -3.40385
LJ          -4.85478         0.25017         6.11053
LJ          -3.57664       -0.925686         1.73353
LJ           4.91753        0.607605         5.02417
LJ           2.88714        -5.22983         5.01927
LJ          -1.89077         5.16679         -1.3683
LJ         -0.771063         1.28126        0.533523
LJ          -1.36551        -3.73853        0.339471
LJ          -5.93721        -5.87363         3.04346
LJ            1.5327        -2.91702        -5.63185
