108
#Comment!
LJ          -4.64947         4.04472        -2.31788
LJ           4.95775        -2.84963        -2.92642
LJ           6.09945        0.236395        -2.25857
LJ          0.717439        -3.86154        0.846793
LJ           2.90452         4.22095        0.797479
LJ           1.26203        -5.08829        -2.93419
LJ           4.64148       -0.197511         2.10432
LJ           4.22573         3.35006         1.51923
LJ           4.89561         5.51813        -6.25183
LJ         -0.474024        -6.04544        -4.28781
LJ          -4.95405         2.60196         2.85891
LJ          -1.99676         5.40832        0.224234
LJ             1.553         5.78997       -0.303147
LJ           3.07119        -5.92644         1.67267
LJ        -0.0578812        0.646916        -4.44537
LJ           2.20849        0.171471         -2.9226
LJ          -6.46049        0.864414         5.86867
LJ           2.14849       -0.291905         1.34825
LJ           -1.5273         1.02699         5.51762
LJ         0.0678132         5.42177        -5.37631
LJ          -2.22213        -1.84942         3.67896
LJ          -5.89423          -5.226         6.01544
LJ          0.600142         2.11987         5.53177
LJ          -2.88248         3.53799      -0.0206133
LJ         -0.226876        -5.88728         2.37874
LJ          0.222688         4.42817        -6.27933
LJ          -2.92798         5.69994        -6.34579
LJ           6.34022         1.25425         3.59389
LJ          -2.75563         1.34472        -5.27095
LJ          -3.62762        -1.69871         4.42371
LJ          -2.82114         4.62841         3.15594
LJ          -3.46527        -4.15284        0.841737
LJ           1.11215         3.80736       -0.228939
LJ          -1.76306          2.1869        -4.41813
LJ          -1.12888        -1.39889       -0.210138
LJ         -0.146649         5.05081        -4.14564
LJ           2.17255         5.31376        -4.69342
LJ          -4.57696         3.04368        -1.85432
LJ           1.41504         2.18917         0.97439
LJ          -4.14014        -6.28974        -3.25393
LJ           4.44315         4.31255         3.82832
LJ         0.0260753        -2.98905         5.23711
LJ          -3.34202         -3.6622        -2.72092
LJ          -5.94823         3.13395        0.426449
LJ           2.96646         4.99341        -3.81807
LJ          -6.19235         2.05588        0.538881
LJ           3.13607         2.58677         2.91682
LJ           5.31835      -0.0128676         3.53388
LJ           3.86714        -4.07992        -3.10298
LJ           4.39334          1.3913        0.688847
LJ          0.309595        -1.33047        -6.35633
LJ            5.1325        -5.28491       -0.556185
LJ           2.68016         -2.3475        -4.30311
LJ           1.04787        -1.33835        -1.56864
LJ           5.29192        0.917912        -1.85798
LJ         -0.927345         6.32872        -2.28262
LJ          -1.99976        -1.37526         2.29067
LJ         -0.616879        -2.15539        -1.09703
LJ         -0.536161        -3.95277        0.153213
LJ           1.42953         2.34444        -4.89308
LJ           1.18004        -4.95107         3.79301
LJ          -2.54929        -1.81381        -3.71218
LJ           6.03794        -4.56749        -3.32549
LJ           1.86641        -5.16411        0.923388
LJ          -6.28707        -4.51319        -4.85042
LJ           6.18818        -5.58529        0.830281
LJ          -3.03907        -3.81756        -4.97425
LJ         -0.212015          3.1796         5.67435
LJ           1.87497         -2.2276         4.45418
LJ          -1.18062        -1.00887        -4.13725
LJ           4.29098        -1.37655         1.97873
LJ           1.56615           -5.79        -1.35506
LJ           1.52862         5.18487         4.56217
LJ          -5.43852        -2.32587       -0.146219
LJ          -3.27181        -1.56469         5.45191
LJ         -0.772174         5.32774        -6.43609
LJ          -4.06837         2.05256         5.45207
LJ           2.55914        -2.63553         3.19983
LJ          -5.61167         5.27926         -1.4715
LJ           5.03592        -2.62552         4.72124
LJ           4.54482         3.87918        -5.93839
LJ          -6.11205         2.93925        -4.63253
LJ          -5.39631         2.76271        -3.02919
LJ           3.68995       -0.975894         -1.7552
LJ            1.5838        -5.92252        0.192385
LJ          -5.09085        -2.47592         1.26312
LJ         -0.323069        -6.24026         -5.3382
LJ           -1.3647         5.61664       -0.623182
LJ           4.07662          -5.717         2.26667
LJ         -0.813305        -1.80209          1.6315
LJ          -3.33289         4.48413        -2.11797
LJ          0.447602         6.39142        0.106706
LJ          0.667093        0.147722        -5.13761
LJ          0.643723        -2.27941         1.90158
LJ          -4.19732        -1.47224        -2.36404
LJ          -2.07835        0.479499        -3.05391
LJ           4.83236         1.32896         -0.6548
LJ         -0.576416         4.21954       -0.502947
LJ          -4.12245         1.90516        -1.52623
LJ          -2.50471        -2.65711         5.82308
LJ           0.94121         3.82057        -4.29596
LJ         -0.417171         1.44842       -0.757917
LJ          -2.90638        0.890149         3.97566
LJ          -1.36692         1.95754       -0.766242
LJ           1.18558        -6.39712         -2.2177
LJ           6.11001         2.17984         5.29134
LJ          -1.65552         2.72973        -1.79547
LJ          -5.02157         4.41243        -1.48504
