108
#Comment!
LJ           1.77507         1.82982        0.519703
LJ           1.88805         2.41612        -2.12801
LJ          -4.25476          5.6113        -4.49998
LJ           -5.1025         1.33088        -6.15115
LJ          -4.43185         4.36097         4.24792
LJ          -4.28764        -2.32135         6.19975
LJ          -3.64316        -5.32733        -5.42181
LJ           1.03231          1.2682        -5.72532
LJ          -1.56889         3.93808        -5.28657
LJ            4.8573        -1.45084        -5.68743
LJ           1.06318       -0.359728         2.21236
LJ          -0.78921         1.09557        -2.26181
LJ          -4.93473        0.608047        -0.73224
LJ          -4.85367         4.61001        -4.98955
LJ           2.99294       -0.251709        -5.11782
LJ          0.263846         3.84597        -6.15418
LJ           4.39127        -3.21324         6.16293
LJ          -4.67553       -0.507142       0.0915117
LJ          -1.07824       -0.328671         1.12165
LJ          -1.11608       -0.930838         -1.5113
LJ          -2.97397        -3.50151         3.19427
LJ            -4.414         4.74486        0.522684
LJ          -1.27918        0.957478        -3.95979
LJ          -4.40418         -6.2884        -5.69327
LJ          -2.09297         -4.8031         3.92549
LJ           4.08519        -2.12658        -5.77533
LJ          -5.66982         1.00412         3.75731
LJ           1.38148        0.458994         3.31934
LJ           3.68902        -3.16264        -5.35362
LJ           4.85981         2.19582        -1.40016
LJ          -3.57432         3.29841          3.8174
LJ           5.60942        -1.39121        -4.33174
LJ           1.89457         2.76456         1.44474
LJ         -0.471505         2.37951        -4.81743
LJ           0.78437         2.74738         4.58545
LJ          -5.13349        -3.78597         2.41318
LJ          -4.79376         2.90981       -0.408714
LJ          -5.51548         5.02371         3.62799
LJ          -4.82356        -2.41537         4.04331
LJ           -3.0875         1.72496        -5.09569
LJ           4.59311        -1.72003      -0.0940138
LJ          -3.66266         2.70831         2.95979
LJ          -3.98917        -2.85974        -5.67748
LJ            4.3114        0.792415         4.84629
LJ          0.970025         1.50079         5.94907
LJ           1.78568         5.30871        -4.77752
LJ          -3.73337        -2.88359         4.20926
LJ          -5.68195        0.679409        0.303688
LJ         -0.443568         5.62836         1.92912
LJ          -5.51401        -4.91818        -6.00194
LJ          -3.28644        -2.73649        -1.90292
LJ          -1.70113         3.96865         2.21938
LJ            -1.447        -1.71786         -4.5248
LJ           6.39246          2.6289        -5.34084
LJ           5.88908         2.98956         3.32518
LJ          -6.42325         4.74954          4.6732
LJ           6.31559        -4.82602         -6.2627
LJ          -1.83382        -3.57096        -4.28456
LJ         -0.198734       -0.241187         0.54825
LJ         -0.348448         4.72193        -4.07324
LJ          -4.40299         4.18303        -3.23959
LJ          -2.53299        -5.28252         -2.4609
LJ           5.32711         -5.5028        0.936025
LJ           4.85069         4.70917       -0.129668
LJ           4.38021         3.36063        -3.11454
LJ          -1.66085        -3.69872        -6.38753
LJ          -4.71687         1.67563       -0.689737
LJ          -2.57278        -1.07211         1.89217
LJ           3.93074         2.02241        -6.16569
LJ          -4.01947         -1.9829          4.6706
LJ             5.009        -1.10085         5.89396
LJ          -5.69229         4.23209        -4.31303
LJ          -6.23445        -3.70547        -5.92268
LJ          -3.19416         6.36973       -0.508173
LJ          -4.52279        -5.73757        0.568314
LJ          0.257195         1.16304         2.77985
LJ           5.86429        -3.31954        -1.87085
LJ           2.31004         5.08739          2.2454
LJ           4.08894         4.10898        -3.85393
LJ          -4.78893        0.265921         2.76555
LJ          -3.74062        -3.51814         -4.7378
LJ           3.84482        0.271782       -0.622578
LJ         -0.156772        -5.00046         1.70453
LJ          -6.09872         2.72953         3.94599
LJ          -3.51853         5.50012        -5.15002
LJ           2.68979          3.6785         1.58012
LJ           5.31254         2.82736      -0.0925943
LJ          -4.02409         -1.0057         1.77236
LJ           -0.6626        -1.17565        -3.98438
LJ          -1.74222         6.31591         5.54692
LJ           4.95923        0.644551       0.0527604
LJ          -1.11098         2.96364         5.95992
LJ          -3.71282        -4.62619        -4.27211
LJ            4.7961         -4.4052        -4.62651
LJ          -4.14938        -2.96116         5.32298
LJ          -5.72085        -6.02674          2.9573
LJ           2.25725         3.17699         2.99298
LJ          -5.04223         6.21233         5.92265
LJ         -0.613325         3.80897         1.28732
LJ          -4.68919         5.42112         2.91811
LJ           -5.8288          4.2072       -0.480062
LJ          -3.19774        0.223305         2.48905
LJ          -3.29049         2.81836        -1.62726
LJ          -6.29548         0.88904        -4.24985
LJ          0.747622          1.5529        -1.68135
LJ          -5.28646         3.52504        -3.42807
LJ          0.558897        -2.36654        0.804788
LJ          -1.43236        -2.44811        -2.29774
