108
#Comment!
LJ          -2.19056         1.85476         3.79716
LJ            -1.291        -6.03496         2.59689
LJ          -2.97931        -4.62335         4.51551
LJ           6.25799         3.75265         -2.7083
LJ           4.52917         5.39254        -1.65836
LJ         -0.981081         -3.2472         4.44069
LJ           3.70493        -5.95952        -4.65342
LJ           3.48274        -3.72822        -4.35988
LJ          -3.66972         2.66748         4.96063
LJ          -5.69675         1.76131        -5.06855
LJ           3.32467        -3.05499        -5.75301
LJ           0.95199         -2.0256         -2.4864
LJ          -4.23153        -2.24313        -2.32156
LJ           2.73646        -6.42215         5.97604
LJ          -3.00368        -1.99334       -0.835709
LJ           -5.2514         3.58434        -3.52322
LJ           1.22274        -3.80139       -0.598042
LJ           5.64549        -5.60687          1.2548
LJ          -4.13975         3.55127       -0.549731
LJ           3.18685        -5.10223         -4.0378
LJ          -1.34662        0.618724         2.99993
LJ         -0.163787         2.65126        0.621676
LJ          -3.02071        -0.10749        -5.00018
LJ           -2.0091        0.895373         5.48651
LJ          -3.16841        -5.00502       0.0409051
LJ           4.43896        -3.65311         1.86173
LJ           3.17021         2.70976          1.5269
LJ           5.85081         -2.7776        -5.51186
LJ           3.02791        -2.27037        0.351655
LJ           2.23193         6.11686         5.08496
LJ          -4.64813         1.34424        -4.39547
LJ           5.97052         1.39098        -5.46387
LJ           3.25948        -2.83986         1.87143
LJ          -2.82983        -2.72338         -2.8106
LJ           5.62133       -0.324866         2.24592
LJ           3.13773         6.04864        -2.94178
LJ           -4.1339         6.03359        -4.75607
LJ           4.53039        -1.22934        -6.38018
LJ           3.85728        -2.12665       -0.477975
LJ          -3.83604        -1.42217        -2.96781
LJ           4.56392         2.60334        0.763146
LJ          -2.61911         0.15073        -2.19111
LJ          -2.59797       -0.928349        0.569905
LJ          -5.53859         3.43929        -5.58673
LJ           1.94609         -2.2746        -6.08004
LJ          0.348807         3.20163       -0.111076
LJ           4.52322           -4.84        -3.76122
LJ          -3.77807        -4.13391        -2.58254
LJ          -4.33953         3.30381        -1.61817
LJ          -2.58869        -2.08464        -3.70981
LJ           3.56838         1.95764       -0.346986
LJ          0.204139         1.39524          2.3845
LJ          -3.92788        0.701085        -4.66756
LJ           6.19143          -1.415        -5.03183
LJ           4.79893         5.71943         3.84756
LJ          -2.16138        -4.79507         5.61566
LJ          -5.33975       0.0778455         5.08899
LJ          -3.91158         5.64486        -6.13647
LJ          -4.56032        -3.59839        -4.85589
LJ           1.38571        -1.24839        -5.03987
LJ          0.103369         5.14627         6.16628
LJ          -2.66001         3.57625         2.09161
LJ          -1.23777         1.38669       -0.260247
LJ          -0.36491         4.37647         1.09543
LJ          -3.81429         1.28227       -0.165314
LJ           3.77255         4.84705        -4.61932
LJ          -5.23652         4.02506        -1.12311
LJ          -1.09759        -1.40513           -6.42
LJ          -4.05741          -1.133        -5.94084
LJ           3.08664        -3.62654         2.82176
LJ         -0.818635         1.51695         3.00456
LJ          -3.15939         4.72293         3.94934
LJ           2.95327         1.90619        -5.22912
LJ           2.94947         5.89212         2.68604
LJ          -3.82669         6.13687         5.23944
LJ         -0.607911         2.96209         1.50029
LJ          -5.21558        -4.28878        -2.81098
LJ          -3.48051        -5.62875         3.44129
LJ          -2.24252         3.22465        -4.65659
LJ          -1.58982        0.552442         1.71571
LJ          -3.81271         6.04545        -1.67175
LJ          -5.94719         1.51001      -0.0466929
LJ          -1.46565         5.19489         1.60148
LJ             1.347         4.71124        -6.29294
LJ          -2.80695         3.41877        -6.14882
LJ           3.28067         5.71544         5.66356
LJ           3.42767         6.41701        -1.50794
LJ          -5.01903        -2.04926          1.1222
LJ         -0.291972        -2.29507        -4.89238
LJ           2.27952         4.79606        -5.70043
LJ           1.42272        -1.14149        -2.31086
LJ          -4.11894       -0.361418        -2.49623
LJ           5.79589        -3.30925         5.08355
LJ           1.35446         4.88526        -3.64968
LJ           5.94325        -2.50136         4.36954
LJ           3.64399        -5.90102        -2.51832
LJ           2.62377         4.51751        -4.13846
LJ          -2.97626        -6.41025        -2.48242
LJ          -5.34743           5.067       -0.958059
LJ          0.412671         1.77832         5.94385
LJ          -2.49509         5.74864         3.21809
LJ           4.64715        -2.54545         3.54841
LJ          -2.24525        -1.83884         2.70713
LJ         -0.104353        0.110857        -5.66606
LJ          -2.34416         4.67242         1.92282
LJ           3.41684        0.398456        -5.50334
LJ           4.00286         3.18203         2.84732
LJ          -5.18523        -4.97242        -5.47675
