108
#Comment!
LJ           1.48121         1.57235        0.617484
LJ           1.63291         2.69111        -2.03394
LJ          -4.38671         5.83871        -4.54807
LJ          -4.63926          1.3866         -6.1206
LJ          -4.39199         4.77981         4.08483
LJ          -3.92829        -2.29138         5.99471
LJ          -3.97899        -5.47956        -5.81452
LJ           1.17947         0.99976         -5.6652
LJ          -1.75448         3.95865        -5.36554
LJ           5.11508        -1.26689        -5.62497
LJ           1.21376       -0.521295         2.37371
LJ         -0.669028         0.73927        -2.09266
LJ          -4.80176        0.433709        -1.06043
LJ          -4.80682         4.62571        -5.34673
LJ           3.29552      -0.0870328         -4.8686
LJ          0.923943         3.90853        -6.02223
LJ           4.19063        -3.14229         5.88986
LJ          -4.85036        -1.12053        0.122896
LJ          -1.29649       -0.761495         1.07923
LJ         -0.842788       -0.774288        -1.59736
LJ          -3.15802        -3.24484         3.23217
LJ          -4.28536         4.83537        0.492995
LJ          -1.42127          1.1636         -3.9867
LJ          -4.13713         6.37657        -5.98956
LJ          -2.00072        -4.52016         3.76602
LJ           4.13771        -2.27203        -6.20353
LJ          -5.25995         1.08634         4.21676
LJ            1.5492        0.153951         3.58187
LJ           3.60214         -3.1634        -5.05789
LJ           4.63079         2.33221       -0.946039
LJ          -3.92064         3.19748         3.85199
LJ           5.68793        -1.21071        -4.51088
LJ           2.06363          2.7312         1.49348
LJ         -0.466323         2.28146        -4.64133
LJ          0.700999         2.58428         4.38361
LJ          -5.12693        -4.04243         2.21898
LJ           -4.3728          2.9205       -0.660691
LJ          -5.85627         5.33676         3.80533
LJ          -4.81629         -2.3234         3.90743
LJ          -3.18568         1.50505        -5.10589
LJ           4.72256        -1.78857       -0.227157
LJ          -3.51374         2.58668         2.67468
LJ          -3.90267        -2.73953        -5.76524
LJ           4.44485        0.902325         4.90624
LJ           1.10152         1.32526         6.09598
LJ           2.06569         5.53067        -5.29442
LJ          -4.02882        -2.78944         4.67818
LJ          -5.50304        0.937666       -0.102696
LJ         -0.601644         5.72372          1.5725
LJ          -5.45652        -5.01104        -5.73272
LJ          -3.56989        -2.58759        -1.60212
LJ          -1.50321         3.90129         2.08746
LJ          -1.57404        -1.65026        -4.56381
LJ           6.06688         2.73428        -4.82888
LJ           5.96497         3.04434         3.38986
LJ          -6.19976         4.71667         5.01668
LJ           6.24397        -4.76094         6.18329
LJ          -1.91846        -3.71693        -4.15561
LJ         -0.345772       -0.287211         0.43488
LJ         -0.402482         4.41243        -3.95005
LJ          -4.07535         4.13664        -3.36182
LJ          -2.57841        -5.46361        -2.06939
LJ           5.19486        -5.33676         1.50532
LJ           5.25357         4.70143       0.0407692
LJ           4.54142         3.22059        -3.16565
LJ            -1.438        -3.98677         -6.3305
LJ          -4.87726         1.61538        -0.36223
LJ          -2.93561       -0.952551         1.61036
LJ           4.07049         1.83387        -6.05531
LJ          -4.35289        -1.40679         4.68853
LJ            4.6122        -0.92862         5.73824
LJ          -5.80144         4.22699        -4.59058
LJ           6.37594        -4.04836        -5.93573
LJ          -3.51956         6.28223       -0.370313
LJ          -4.50825        -5.80116         0.36827
LJ          0.785684         1.49804         2.82469
LJ           5.78605        -3.16185        -1.73142
LJ           2.03143         4.95729          2.3186
LJ           4.13033          3.9065        -3.97245
LJ          -4.56575        0.210076         2.67161
LJ          -3.47852        -3.46091        -4.49696
LJ           3.98074        0.384238       -0.795112
LJ          -0.16756        -5.08421         1.70927
LJ           -5.8652         3.01867         4.34044
LJ          -3.24173         5.54761        -5.36441
LJ           2.50819         3.73225         1.89136
LJ           5.34119         2.99721       -0.166153
LJ          -3.93659        -1.15708         1.55622
LJ          -0.69067        -1.14994         -4.0647
LJ          -1.88425         6.20959         5.43948
LJ           4.74474        0.521783        0.135628
LJ          -1.27016           2.682         6.24837
LJ          -3.98177        -4.60911        -4.42284
LJ           4.81991         -3.9302        -4.52113
LJ          -4.32024        -3.54898         5.50336
LJ          -6.07567        -5.79043         3.02577
LJ           2.31856         3.38905         3.21588
LJ          -4.95096        -6.46085         5.31816
LJ         -0.988336         3.91604         1.18796
LJ          -4.74529         5.40885         3.25699
LJ          -5.68057         4.30011       -0.443194
LJ          -3.41631        -0.35041         2.21335
LJ          -3.01642          2.6206        -1.37576
LJ          -6.22001         1.16457        -4.45782
LJ          0.340788         1.45076        -1.64328
LJ          -5.50056          4.0571        -3.54154
LJ          0.815574        -2.13848        0.839553
LJ          -1.65882        -2.75377        -2.32011
