108
#Comment!
LJ          -2.17187         1.65112         3.84328
LJ          -1.53655        -5.98008         1.62014
LJ          -3.43246        -5.10419         4.45765
LJ           5.26976         3.55429        -3.15811
LJ           5.16217         5.33391        -2.39996
LJ           -1.2299         -2.7983         4.47897
LJ           4.13031         -6.1837        -4.77944
LJ           3.21575        -3.40534        -4.63566
LJ          -3.67276         2.77567         5.22444
LJ           -5.7097         1.44141        -5.54949
LJ            3.8207        -3.08833        -6.40685
LJ          0.699626        -2.06209        -2.33895
LJ          -4.52557        -1.90759         -2.3874
LJ           1.90941         6.42831         6.22832
LJ          -3.47282        -1.39045       -0.676128
LJ          -5.44081         3.92146        -3.22099
LJ           1.44141        -3.74814      -0.0181181
LJ           6.04144        -5.44878         1.31268
LJ          -4.19613          4.4136       0.0132169
LJ           3.25473        -5.14495        -2.95907
LJ          -1.66549       -0.171186         3.52985
LJ         -0.564982         2.28305      -0.0711121
LJ          -2.86627        0.334769        -5.37797
LJ          -2.08956         1.21889         5.18278
LJ          -2.76185        -4.22876        0.379182
LJ           4.59441        -3.40341         2.03552
LJ           2.01603         2.43947        0.619475
LJ           5.34184        -2.77616        -5.40393
LJ           3.17393        -2.27027       -0.198393
LJ            2.2846         5.83679         4.42888
LJ          -4.65394         1.94723        -4.62901
LJ           5.72596         1.27409        -5.50519
LJ           2.97015        -2.26903         1.94923
LJ          -2.49218        -2.41644        -2.73234
LJ           4.84334      0.00827748         1.95048
LJ           3.42575         6.15995         -2.4229
LJ          -4.00618          5.6869        -4.42157
LJ           4.75642         -1.6572         6.16242
LJ           4.48085        -2.13072        0.152113
LJ          -3.79565        -1.23459        -3.19278
LJ            4.5023         1.90695         0.84461
LJ          -2.80069        0.201234        -1.73111
LJ           -2.7297        -1.21925        0.720458
LJ          -5.85474         3.22252         -5.9319
LJ           1.67303        -1.99885        -5.68053
LJ           1.09134          4.2878       -0.214336
LJ           4.27874        -4.14893        -3.90797
LJ          -4.26376        -3.81585        -2.55864
LJ          -3.57784         2.52969        -1.48977
LJ          -2.96407        -2.37297        -4.36405
LJ           3.93925         1.25282       -0.838164
LJ         -0.104576         1.57272         2.16125
LJ          -3.87877        0.303602        -4.56479
LJ           6.12503        -0.67856        -4.67241
LJ           4.98041         5.40244         3.74472
LJ          -2.97555        -4.92891         5.71495
LJ          -5.53291       -0.707761         5.04766
LJ          -3.32942         6.09157        -5.71895
LJ          -4.12381         -3.2807        -4.22417
LJ          0.870775       -0.867357        -4.93016
LJ         -0.152567         4.87112         6.06706
LJ          -2.36722         3.67499         2.40682
LJ         -0.405112        0.631919        -1.18672
LJ           -1.1275         4.53886         1.34734
LJ          -2.96169         1.78718      -0.0240877
LJ           3.36252         4.47518        -5.08478
LJ          -4.70959         4.06979        -1.27415
LJ        -0.0401148        -1.52574        -5.80728
LJ          -4.36151       -0.976698        -5.46965
LJ           3.59779        -4.59906         3.35423
LJ         -0.944743        0.909138         2.97896
LJ          -3.51867         4.67622         3.70689
LJ            3.1693            2.68        -5.35196
LJ           3.85562         6.13596         1.83487
LJ          -3.97168         6.03906         6.35983
LJ          0.796947         3.54928         1.95249
LJ          -5.66042        -4.19763        -2.64619
LJ          -3.03576         -6.2171         3.52649
LJ          -2.93473          3.1858        -4.84429
LJ          -1.39876        0.832832         1.94051
LJ          -3.68491         5.96053        -1.53869
LJ          -6.21385         1.38845       -0.119841
LJ          -0.98896         5.66853         1.74578
LJ          0.330165         4.64706        -5.84262
LJ          -2.73971         3.74111        -6.02711
LJ           2.88715         5.39443         5.71154
LJ           3.64423         5.86801        -1.15958
LJ          -5.38298        -2.92312        0.727223
LJ          -0.61806        -1.29512        -4.86438
LJ           2.00037         5.17254         6.26191
LJ           1.57968       -0.790583        -2.14816
LJ          -4.05012      -0.0149197        -2.94434
LJ           5.39269        -3.40024         5.59523
LJ           1.57291         3.95772        -3.58893
LJ           6.33064        -2.69947         4.47095
LJ           3.71695         -5.4719        -2.03765
LJ           2.59938         5.09446        -4.37429
LJ           -3.0435         -6.0085        -1.70262
LJ          -4.62987         5.15891        -1.21782
LJ             1.151        0.656578         5.47037
LJ           -2.6884         5.27509         2.56652
LJ           4.98205        -3.08588         3.71165
LJ          -1.71405        -1.64518         2.38108
LJ         -0.719213        0.109775        -5.23672
LJ          -2.68474         4.66845         1.51834
LJ              3.88       -0.273439        -5.26414
LJ           3.88859         2.78091         2.63821
LJ          -4.97842         -4.9472        -5.17801
