108
#Comment!
LJ          0.671091        0.926582         1.01781
LJ          0.826802         3.47652        -1.74052
LJ          -4.69175         6.36457        -5.04932
LJ          -3.25956         1.65027        -6.17954
LJ          -3.77305          5.1842         4.68181
LJ          -2.92976        -2.48259         5.65704
LJ          -5.11833        -5.70053        -6.45005
LJ           1.62773        0.155594        -5.41594
LJ          -2.29486         3.99972        -5.60999
LJ           5.52918       -0.838902        -6.03625
LJ           1.70758       -0.860463          3.0259
LJ         -0.294582         0.18791        -1.91187
LJ          -4.65495        0.150897        -1.64482
LJ          -4.86218          4.8003        -6.11017
LJ           4.22663        0.411931        -4.15167
LJ           2.90753          4.1161        -5.61779
LJ           3.53383        -3.20065         4.80799
LJ          -5.21028        -2.84233        0.325115
LJ          -2.08738        -1.99236        0.974235
LJ        -0.0678495        -1.37292        -1.63573
LJ          -3.78691        -2.44951         3.44569
LJ          -3.92696         4.78201        0.481964
LJ          -1.72064         1.92186        -4.15735
LJ          -3.57682         4.98134         6.14934
LJ          -1.77314        -3.62565         3.27391
LJ           4.42724          -2.333         5.86143
LJ          -4.01773         1.31569         5.57139
LJ           1.96076       -0.829869         4.15039
LJ           3.71072        -3.14691        -4.20942
LJ           4.15933         2.87815        0.534775
LJ          -5.10085         3.16217         4.25726
LJ           6.12417       -0.632961        -4.59836
LJ           2.12306          2.0106         1.56575
LJ         -0.596431         1.88472        -4.04866
LJ          0.522686         2.05096         3.68853
LJ          -5.10943        -4.82356         1.65497
LJ          -3.02923         2.75666        -1.46633
LJ          -6.43858         6.18615         4.42731
LJ          -4.77275        -2.30817           3.546
LJ          -3.45043        0.759132        -4.98434
LJ           5.13629        -2.00544       -0.665121
LJ          -3.09814         2.09524         1.63791
LJ          -3.61011        -2.35475        -6.41742
LJ           4.83656         1.20009         5.12585
LJ           1.48269        0.858866         6.46166
LJ           2.88989         6.16062         6.07954
LJ          -5.09951        -2.47788         5.98714
LJ           -6.1658       0.0264312       -0.864974
LJ          -1.09348         5.95026        0.502668
LJ          -5.19167         -5.2754        -5.13482
LJ          -4.42764        -2.13379       -0.659931
LJ           -1.2247         3.69599         2.27368
LJ          -1.88567        -1.43788        -4.63345
LJ           5.75432         3.00599        -3.89518
LJ             6.384         3.21745         3.74536
LJ          -5.42778         4.78668         5.86926
LJ           6.06706        -4.82972         4.70465
LJ          -2.00735        -4.25045        -3.69035
LJ         -0.791603       -0.509813       0.0753414
LJ          -0.58424         3.43509        -3.61902
LJ          -3.30958         4.00129        -3.80028
LJ          -2.73151        -6.01078       -0.883257
LJ           4.82205        -4.84436         3.25419
LJ          -6.42057         4.54114        0.495099
LJ           4.24995         2.93432        -2.88401
LJ         -0.787078        -4.84751        -6.14412
LJ           -3.7979         3.03851        -0.24536
LJ          -2.57749        -1.16816     -0.00252589
LJ           4.49306         1.24273        -5.72303
LJ          -5.06645        0.252446         4.99653
LJ           3.43629       -0.482442         5.39817
LJ           -5.8314         4.46602        -5.80385
LJ           5.66477        -4.95578        -5.83382
LJ          -4.42761         5.98113       -0.183966
LJ          -4.61128        -5.69195       -0.163012
LJ           2.40549         2.52253         2.97708
LJ           5.52584        -2.65093        -1.27602
LJ           1.00816         4.68137         2.55887
LJ           4.44779         3.16486         -4.1579
LJ          -4.01613        0.334323         2.52296
LJ          -3.07321        -3.39065        -3.95189
LJ           4.55158        0.744356        -1.01362
LJ         -0.210245         -5.3599         1.72087
LJ          -5.17208         3.81944         5.23648
LJ          -2.69782         5.80813        -5.98666
LJ           2.50273         4.29316         2.65687
LJ           5.23682         3.44719       -0.472645
LJ          -4.50988        -1.80694        0.736983
LJ         -0.864442        -1.10291        -4.32902
LJ          -2.34209         5.88552         5.13929
LJ           3.95666        0.169435       0.0775252
LJ          -1.75529         1.87154        -5.74196
LJ          -4.66049        -4.29772        -5.05786
LJ            4.6113        -2.41254        -4.32705
LJ          -4.69125        -4.61376         5.82478
LJ           5.81404        -5.12098         3.22007
LJ           2.44914         3.92385         4.10295
LJ          -4.72849        -5.82399          3.4822
LJ          -1.78379         4.31379        0.315834
LJ           -5.8737         6.23656         3.42359
LJ          -5.15665          4.5997       -0.245663
LJ          -4.56204         -1.6535         2.03249
LJ          -2.40728          2.0629       -0.516343
LJ          -6.03247         2.06868        -5.09172
LJ         -0.828146         1.72498        -1.41872
LJ          -5.86052         5.54735        -3.76917
LJ           1.57148        -1.42195        0.956981
LJ          -2.36685        -3.68201        -2.45957
