108
#Comment!
LJ          0.432461         5.90636        -4.83938
LJ          -3.64786        -5.26481        -4.57066
LJ          -4.01195        -1.93668        0.622224
LJ           3.33859        -3.27474        -4.13265
LJ          -1.11055         3.37739         4.11866
LJ          -5.05252        -1.70766         6.03262
LJ           1.32214        -2.83041          5.3714
LJ          -2.98507         1.80862       -0.962511
LJ          -2.14247        -5.41712         6.18767
LJ            3.8908        -2.36536       -0.370197
LJ         -0.354597         6.10545        -2.14457
LJ        -0.0106607        -1.82882        0.674688
LJ          -3.19573        -4.20282         2.31583
LJ           1.74861         3.99331        -4.72467
LJ          -5.29217        -4.38155         1.85189
LJ         -0.589291         3.60305        0.979463
LJ          0.531852       -0.532153        -2.36436
LJ          -3.42972       -0.433225        -1.11958
LJ           5.91505        -0.18062         3.60645
LJ          -5.45771        -2.58297         5.49818
LJ          -2.09812         4.21269         5.70384
LJ           6.05282         5.35959        -1.41667
LJ           1.58341         2.87598         2.53936
LJ          -2.94706        -3.38778        0.820506
LJ          0.201757        -3.22755       -0.255753
LJ         -0.791407        -2.85229         1.57644
LJ           4.61128        -3.07984         5.65295
LJ           2.00137         1.36036         5.31711
LJ          0.779909        -4.52387         4.10588
LJ          0.474392         1.58517         1.66152
LJ          -1.37002        0.340512        -6.35832
LJ          0.630423        -5.76597        -3.19892
LJ           1.14322         6.39555        -6.05321
LJ          0.990908        -3.90408         6.14913
LJ          -5.99176        -5.55329         6.26758
LJ           5.53194         3.98969         5.33853
LJ          -6.02069        -1.27102        -4.83736
LJ         -0.958538       -0.825221        0.839625
LJ          -3.87326        -5.78091        -1.67775
LJ          0.397551        -5.34199        -5.87541
LJ           4.16913        0.496773         3.18507
LJ           -1.1028        -5.95254         3.29392
LJ          -5.06791         3.64303        -2.85431
LJ            1.5741        -2.15363         2.44592
LJ          -2.61232         3.88288        -5.11963
LJ          -1.46316         1.56056        -3.86067
LJ          -4.58208         2.45306         4.86514
LJ           -6.3239        -2.86037         6.01308
LJ          -2.09464        -3.08073        -0.99956
LJ          -4.43766        -1.61884         2.44663
LJ          -5.87796        -5.18453        -5.23923
LJ          -2.07286         4.43349         3.65401
LJ          -1.45877         2.81676        -4.00184
LJ         -0.720992         5.84271        -3.38478
LJ         0.0427335        -1.61035         3.60718
LJ          -4.54001        -1.72639        -0.64466
LJ          -4.45208         5.93969        -5.64426
LJ          -1.12022        -1.08962        -4.50261
LJ           1.55139         1.15113         1.64608
LJ          -4.53696         -4.7159         2.60499
LJ           6.14778        -3.93969        0.940099
LJ           2.12488         2.14894       -0.714102
LJ           5.89181          2.5539        -3.42505
LJ         -0.999112         1.45776        -2.59131
LJ         -0.250397        -1.68616        -1.70475
LJ           4.99069         4.70549        -5.74204
LJ          -5.37895         1.76226        -3.93658
LJ           4.10616        -4.28493        -5.26681
LJ            1.1235        -3.60202         4.61622
LJ           1.53508        -5.61086         -6.3908
LJ          0.582909        -1.89356       -0.599017
LJ           -5.4493        -2.55556        -2.04204
LJ          -3.27703         6.21586        0.794235
LJ           2.48854        -5.73786       -0.611434
LJ          -3.56711        -3.72785         6.43426
LJ           3.04171        -5.79753        -2.86791
LJ          -4.25664        -6.37221        -2.70706
LJ          -6.38327        -2.09373        -2.10756
LJ           6.40406         4.47638        -2.06472
LJ           5.50934       -0.708976         4.36332
LJ          -2.30805        -5.94124         -3.8614
LJ           3.19134       -0.187927         6.18148
LJ          -4.37648        -4.72954        0.720716
LJ          -2.81211         -3.4612        -2.67257
LJ          -6.38536         5.01083        -5.81398
LJ           4.96641         5.48654        -4.64166
LJ           3.08786        0.952584         1.32588
LJ           3.79127         3.08435       -0.350498
LJ           2.77907         -3.2282        -1.62626
LJ         -0.810461        -1.85551         5.21927
LJ          -4.76845         2.56762        -2.30873
LJ          -2.97588        -6.02202        -5.59207
LJ         -0.966961        -1.80058         2.28965
LJ           3.08372        -4.02987         4.64355
LJ          0.749472        0.694371         6.12154
LJ          0.508849        -2.84477        -1.31563
LJ           1.64486        -3.44262         1.48734
LJ           1.45567         2.38962        -2.31233
LJ           2.77753         1.43056        -6.03986
LJ          -2.34905          3.3379         2.88312
LJ          -5.53727        -1.13293        -1.55368
LJ          -1.00548        -2.40854        -5.99636
LJ          -5.63047        -2.34383       -0.261304
LJ          0.177868         3.79129        -0.36592
LJ           5.50342         5.97805       -0.687751
LJ           1.51146        -4.83747        0.920183
LJ          -4.84356         -2.7695        0.206492
LJ            1.8661       -0.782172        -6.20615
