108
#Comment!
LJ          -2.15767         3.01623         6.00404
LJ          -4.89738        -4.74033        -2.81986
LJ           4.37053         -1.4002        -5.10836
LJ           1.45246          2.9656        0.793217
LJ         0.0674055         -6.2356         3.87982
LJ           3.24854        -4.09903       0.0885931
LJ           2.19868          4.3175       -0.966752
LJ           3.46859         4.42017        -5.39838
LJ          -6.30361         5.32251        0.304559
LJ          -2.26014        -2.49399        -4.13295
LJ         -0.844662       0.0923307         5.65444
LJ          0.664134         6.44352       -0.689634
LJ          0.135761         5.33304       -0.416326
LJ           5.01418        -2.72931         6.39987
LJ          -1.43966         6.13094        -5.63139
LJ            3.5737         -4.6752        -1.52691
LJ          -4.84222         5.87097        -2.61553
LJ          0.137705        -4.78087        -1.12828
LJ          -4.82154        -1.95445        -1.18052
LJ           -3.9886        -6.10921         5.17335
LJ          -1.43115         3.00219        0.351835
LJ         0.0762387        -2.86527        -3.28318
LJ           6.04324         3.46916        -3.60109
LJ          -3.25864         2.42178        -3.93105
LJ          0.510614         1.06893         6.07872
LJ           3.27766         5.24002        -2.31303
LJ           4.30975         4.56874        0.583745
LJ          -0.47897        -1.52386        -2.36103
LJ          -3.20258         0.85863        -1.37368
LJ          -5.39527        -1.82814         5.41696
LJ          -4.69917          2.8817        -1.84957
LJ           1.07013         3.65988        -1.85282
LJ          -4.54822        -6.04441        -1.77862
LJ          -0.74056         4.27085        -2.35653
LJ           4.45207        -2.08691         1.24991
LJ           3.13401         3.61249         -3.4778
LJ           5.57833        -1.90135        -5.23101
LJ          0.420407         2.90124        -4.02205
LJ         -0.220544        -6.13748         5.76484
LJ          -1.00535        -5.56253        -1.16658
LJ           4.17808         2.09309         4.00465
LJ          -3.24515        -1.22853        -5.04059
LJ          -2.58016        -1.64218        -1.29121
LJ          -4.18527         1.88164        -1.04521
LJ           5.23325        -3.24301        -5.37556
LJ          -3.73364         1.76731        0.112056
LJ           4.55912         4.01431        -4.87807
LJ          0.446544          3.5316        -0.56754
LJ           3.19552       -0.576891         2.62385
LJ          -4.40709         -1.2645         3.41867
LJ           1.93828       -0.425471         3.34325
LJ           5.41405         6.45177        -5.16148
LJ           5.14373        -4.97034        -4.34648
LJ          -5.75117        -1.29517        -3.98581
LJ           4.62852        -2.24666        -4.39808
LJ           1.00081         6.22788        -2.21202
LJ          -2.61748         2.76612         2.41226
LJ          0.112423        0.882037         2.72035
LJ          -1.98574        0.731195         3.48088
LJ          -5.33738         4.26705        -2.04324
LJ           2.33049        0.176971          2.4293
LJ          -1.15255         -5.7065       0.0134273
LJ          -5.95809        -5.38066        -6.31147
LJ          -5.13639         1.47986        -2.06734
LJ          0.814765        -1.96798        0.874724
LJ          -2.60731        -4.48586       0.0202344
LJ           1.79836        -5.16872        -2.56056
LJ            5.2085        -1.20259         5.47246
LJ           5.74112         2.40392       -0.813332
LJ          0.848066        0.727461       -0.340953
LJ           3.38265         2.77203        -2.08223
LJ         -0.740255         5.78564        0.428021
LJ           5.72659         2.56006         1.96171
LJ         -0.428061         0.33595        0.335622
LJ           6.12613        -4.45633         5.49507
LJ          -5.88536        -2.64544         6.26619
LJ          -3.17848          5.7911        -5.49326
LJ          -2.22339        -3.53092         4.08706
LJ           4.36829        -2.44938       -0.667773
LJ           3.48474        -5.67103         1.15966
LJ           5.44459        -4.94135        -5.65718
LJ          -1.46807         1.42849        -2.25131
LJ          -2.69509         0.74691        -2.43602
LJ           6.37107        -3.59413         4.32036
LJ          -1.53783         5.86431        -4.59118
LJ          -1.55819        -4.32891        -3.64985
LJ           6.06946        -5.05769        -3.85395
LJ         -0.104073         6.15009        -2.50095
LJ           4.25689        -2.20951         5.87339
LJ           -4.9656        0.239938         -2.0395
LJ          0.280158         1.30791        -2.91547
LJ          0.882415         5.37751        -1.35574
LJ           2.92991       -0.698709        -2.44048
LJ           6.19241       -0.400453         4.33088
LJ          -1.23026         3.14333        -1.47883
LJ           6.43269        -2.80423        -2.76544
LJ           5.87028        -1.48369          4.7043
LJ          -1.45073        0.753643         1.37944
LJ          0.344517        -1.65702         6.44498
LJ          -2.74667        -2.06047         6.32369
LJ          0.632466         4.92152        -2.44823
LJ        -0.0696591          1.5768        -0.24451
LJ          -4.25617        -5.82365        -4.91914
LJ           6.14989        0.118989         2.05112
LJ         -0.601131         4.16969        -3.83645
LJ           5.55971        0.927573         4.59003
LJ           4.87841        0.871077         2.75816
LJ          -5.56358         5.06281        -6.14347
