108
#Comment!
LJ          -1.79112         2.96913         5.03503
LJ          -4.13089        -5.65855         -2.8421
LJ           5.47827        -2.24692         6.35331
LJ           2.43472         3.42336         1.38052
LJ         -0.831695        -5.42476         4.63969
LJ           2.44954        -4.01647        0.941891
LJ           1.34482          5.2912        -2.13211
LJ           4.37165         4.60371        -4.77719
LJ          -5.81612         4.86177         2.00285
LJ          -3.22362         -2.0249        -4.88568
LJ          -0.43988       -0.540161        -6.44983
LJ           1.68208        -5.39367        -1.67271
LJ         -0.844146         6.03156       -0.168873
LJ           4.66736        -3.69471         6.16498
LJ          -1.63955        -5.56711        -6.38959
LJ           5.57611         -5.7511        -1.83274
LJ           -4.2089        -5.69073        -3.99891
LJ           1.14977        -4.68994       -0.392874
LJ          -5.40871        -2.89619         -3.0682
LJ          -3.17108         4.03206         5.09043
LJ          -1.82218          4.2171       -0.715303
LJ           1.10956        -1.32972        -1.88512
LJ          -5.56842         3.42516        -3.00895
LJ          -2.98558         1.49936        -4.49132
LJ          -0.09496          2.9905        -5.84591
LJ           3.88887         5.80786        -1.21776
LJ           2.88058         4.67853         2.46029
LJ          -2.06252        -2.61734        -3.29731
LJ          -2.79088        0.297391       -0.801624
LJ           -5.5179       -0.675954          6.0981
LJ          -5.75759         2.13756        -3.47334
LJ           3.50215         2.22649        -2.53536
LJ          -5.73512         4.74038        -2.28559
LJ          -1.70225         4.81499        -1.48278
LJ           2.43895        -1.78833         2.09131
LJ           2.28483         3.95697        -3.78354
LJ           6.12903        -2.64535        -1.96202
LJ           0.96433         3.20019        -3.87851
LJ         -0.508326        -4.85977        -6.03907
LJ          -1.18232        -5.71543        -1.55883
LJ           4.41621         2.36604         3.44209
LJ           -3.1562       -0.900059        -4.42983
LJ          -2.63713        -1.27224       -0.704033
LJ          -3.99925           2.235          -1.628
LJ           5.09246        -4.50854        -6.14133
LJ          -3.74157         1.96291       -0.623118
LJ           5.44397         4.18517        -4.89945
LJ         -0.197816         3.68593        -1.76372
LJ            2.2658        0.849556         3.76212
LJ          -3.68675        -1.35577         4.20105
LJ           2.92312        -1.74385         3.94437
LJ          -5.88721         5.57693        -6.26446
LJ           6.45011        -3.69965        -5.01831
LJ           -4.7408        -1.08187        -6.35257
LJ           5.41411        -3.21029         -5.3345
LJ          0.665041         5.85637        -2.77018
LJ          -2.31643         3.57089         2.71211
LJ           1.84632         2.54589         2.70613
LJ          -2.68536        -1.45005         4.04191
LJ            6.0824          4.7516        -2.48112
LJ           2.95451         1.63146         2.27978
LJ          -1.92648        -6.27553        0.337842
LJ          -6.27567        -4.91088        -5.93932
LJ          -2.63825         1.37657         -2.1751
LJ         -0.108755       -0.490843      -0.0920392
LJ          -1.24627        -4.27877       -0.267096
LJ           2.06585         6.29977        -5.66587
LJ           6.02105       -0.925319        -4.75513
LJ          -6.15295         2.83355        -2.41887
LJ          0.876499        0.800433         1.06057
LJ           3.23966         3.07026        -1.25599
LJ          -1.13734         5.47975         1.53123
LJ           3.53692         1.75558         1.13808
LJ          -1.72494         1.85148       -0.647385
LJ           4.26909        -5.55532         -5.0193
LJ          -6.06387        -1.65694        -6.44229
LJ          -2.29814        -5.73377        -5.30569
LJ          -3.27707         -3.7313         3.87807
LJ           3.93991       -0.827064       -0.643953
LJ           2.81765         5.47796        -1.02965
LJ           6.30097        -6.16759        -4.99683
LJ         -0.835412        0.681174        -1.63754
LJ          -1.44102        0.524663       -0.467834
LJ           6.11597        -3.63965         5.07845
LJ          -2.01446         4.88583        -5.36029
LJ         0.0882349        -5.06315        -1.81412
LJ           6.44502        -4.71998        -4.06752
LJ         -0.742848         5.28024          -1.326
LJ            3.3888         -2.6574         6.45988
LJ           6.41997        0.548995        -3.12151
LJ          0.705393        0.505916        -3.01369
LJ         -0.520552        -6.06484       -0.852032
LJ           3.81834        -1.73487        -1.59842
LJ           4.43328       -0.998796         4.49183
LJ          0.263295         1.09669         -0.6921
LJ           5.35823        -3.73926         -2.6808
LJ           5.80077       -0.862595         2.78682
LJ          -3.10524         2.77562       -0.223045
LJ           1.11372        -2.45779         4.96889
LJ          -3.11892        -2.15756         -5.9942
LJ          0.586275         5.97926        -4.23072
LJ           0.29558          1.6704         0.23811
LJ          -4.68012        -4.01661        -4.54737
LJ           4.73751       -0.501681         3.65424
LJ         0.0242511         3.48108        -3.95359
LJ           4.99831         1.32386         4.20923
LJ           3.86395          1.0816         2.85915
LJ          -5.52405         4.87654         5.60256
