108
#Comment!
LJ           3.31914         3.69568        0.524301
LJ           4.78009        0.549228        -3.32674
LJ          -4.76367         5.52417       -0.392021
LJ           4.26784         1.63583        -6.39213
LJ           -4.0079         2.45448         4.23013
LJ          -5.75528        -1.60638         5.83894
LJ          -2.01071        -4.75131        -6.21534
LJ          0.191821         3.03121         6.32561
LJ        -0.0146699         3.87498        -5.62047
LJ           5.38251        -1.88769        -6.33893
LJ         -0.347727        0.981573        0.995696
LJ          -1.57924         3.71428        -3.90315
LJ           5.30499         2.84808         1.49545
LJ          -5.89383          4.5991         -3.5544
LJ          0.762306        -1.62277         5.87409
LJ          -4.78665         3.08977        -5.60497
LJ          -5.66684        -3.71808        -5.38903
LJ          -2.68266         3.11865         1.09882
LJ         -0.827666         2.26743         3.13293
LJ          -2.75503        -2.62021        -1.69844
LJ          -1.41841         -6.0428         3.24393
LJ          -5.97156         3.77843        0.375199
LJ         0.0525002       -0.390084        -3.39879
LJ            6.1285        -6.02457        -4.16041
LJ          -2.85278          6.3001         4.89707
LJ           2.82195        -1.66434        -3.13741
LJ            5.8763       -0.428206      -0.0409075
LJ          -1.42538         2.90862         1.67481
LJ           2.88298        -4.10249         6.40205
LJ          -6.17962          1.3224        -4.49907
LJ           -2.2815          6.0075         5.94268
LJ           4.61889        -2.77048         -3.6069
LJ           1.08087         2.72282      -0.0386511
LJ           -1.4354         3.19118        -6.03288
LJ           1.74655         4.40124         6.13639
LJ          -5.03801        -1.61868         3.66415
LJ           3.90198         3.31681         1.23193
LJ          -2.95843          1.8185         2.83403
LJ          -4.91083        -4.65864         4.96618
LJ          -2.25303         3.68328        -5.41846
LJ           3.60459        -1.53635        0.893332
LJ          -4.07711         2.32935         2.29297
LJ          -4.07808        -4.77761         -4.4739
LJ           3.29299      -0.0526859         4.43695
LJ         -0.288463         3.04567         4.88513
LJ         -0.674578         3.61164       -0.879068
LJ          -2.37987        -3.44647         1.19479
LJ           6.40474       -0.938995         2.42109
LJ           1.39556         5.52201         3.55551
LJ          -5.28341         -3.5679         5.28784
LJ         -0.343747        -3.55467        -4.24323
LJ          -3.02522         4.21843         3.21004
LJ         -0.384973        -1.68407        -3.95886
LJ          -3.85521         1.48458         3.99394
LJ           4.64492         2.83553         2.28559
LJ           5.46092         4.84544          1.4956
LJ          -6.39548        -5.62186        -2.81369
LJ          -1.44174         -2.3548        -5.18948
LJ           1.75084        0.716852         1.22917
LJ          0.190287        -6.09034        -5.14276
LJ          -4.83208         3.55586        -1.20699
LJ          -1.06163        -4.64041        -3.17078
LJ           6.43745         6.00979        -3.30885
LJ           1.81227         4.48074        -1.21926
LJ           3.21293           4.483        -2.61746
LJ          -3.59618        -1.52097         6.36995
LJ          -4.01689         4.25013        -3.47239
LJ          0.749109        -2.13857         1.07499
LJ           2.78715         3.46209         5.88014
LJ           0.34468        0.107607         4.97444
LJ          -5.13192        -1.99386        -5.06796
LJ          -6.28314          3.5226         -3.8149
LJ          -5.28775        -4.34957         -4.3762
LJ         -0.778487        -5.83362        -1.51897
LJ          -4.55191        -5.42452         2.19146
LJ          -2.50797        -1.13858         1.51909
LJ           6.44861        -4.24648        -2.88223
LJ           4.43203         5.28602         1.22901
LJ           3.71375         5.54376        -2.90317
LJ           6.17212         0.16043         3.59465
LJ          -4.54516        -4.88049        -5.75974
LJ           3.77864        0.261156         1.12636
LJ         -0.262295        -4.15086         1.46074
LJ           5.26556        0.480306         1.59142
LJ          -4.32864         4.91554         -5.4642
LJ           4.59799         5.13578        0.100096
LJ           5.23916         1.72394        0.350748
LJ          -4.53332        0.182504         3.32606
LJ         -0.800151          -1.653        -2.86838
LJ         -0.754614        -5.74522         6.32167
LJ           6.06665        0.971502        -1.16541
LJ          -0.18413         4.09499          5.0407
LJ          -3.34643        -2.08744        -2.76021
LJ           4.85573         5.09056        -5.62046
LJ          -5.78546        -2.09658        -6.08197
LJ          -2.94488         5.51085           2.712
LJ           1.75144         1.92519        0.632283
LJ          -5.42465         5.35259        -2.51429
LJ           2.29315         2.05524         1.71751
LJ          -4.50527         3.81974         1.19296
LJ           -5.9136         3.38089       -0.794757
LJ          -1.89239          4.5781         4.50502
LJ          -5.67588         2.82832        -2.47619
LJ           6.00068         -1.1688        -2.70615
LJ            2.8442         2.05161        -1.49686
LJ          -3.33767        0.990002        -2.10528
LJ          -1.32853          -4.267        0.793562
LJ         -0.254763        0.309106        -2.31796
