108
#Comment!
LJ          -4.53569         3.16077        -4.42317
LJ          0.894517        0.878118       -0.485897
LJ           -3.4737          2.3478         2.40746
LJ           1.43913         4.27472        -2.05836
LJ           -1.4148       -0.475934        -3.18757
LJ            4.6593         2.23373         6.35943
LJ           6.37346        -3.73915        -5.65349
LJ         -0.571111       -0.185176        -2.60348
LJ          -2.01884        -2.61765         -3.4448
LJ            1.0195        0.303289         1.69889
LJ           2.32023         2.90925       -0.116113
LJ            -5.798        0.053196         2.53234
LJ          -4.13842         2.50919        0.726148
LJ          0.405636        -0.21985        0.715202
LJ           1.42108         4.85938        -1.09525
LJ           3.83983        -1.78827        -2.16931
LJ           2.03879         3.43498          2.7162
LJ            2.3544       -0.881188        0.015157
LJ          -5.35804         4.65789         4.05157
LJ          -3.99468         3.25745         2.21703
LJ          -2.99608        -1.99334        0.392294
LJ          -4.36481         5.20802         1.29991
LJ          -2.28883         -1.7767         1.31783
LJ         0.0138638         0.62368         4.93576
LJ          0.854812         2.44732         1.05022
LJ          -2.42321        -1.10718       -0.623488
LJ            3.6997        -5.14278         2.83833
LJ           -1.0755        -5.35036        0.605831
LJ           1.42161       -0.318082        0.995522
LJ           3.29535        -2.48004        0.576212
LJ         -0.901277         1.12682        -4.77673
LJ          -6.11272        -3.26957         2.01355
LJ            5.8753        -1.16251         4.69118
LJ          -0.13908        -4.30587         3.49924
LJ           6.43423        -1.00442        -3.25708
LJ          -1.88106         2.87446         2.53626
LJ           2.25152          3.2994        -1.63123
LJ           2.75123        -3.36571        0.214227
LJ          -1.18904         1.60322        -1.09404
LJ           3.02084        -5.89693         2.12384
LJ           1.16765        -5.36877        -4.33112
LJ           3.12711        -6.03312        0.502928
LJ           4.33266         5.39506         -1.4783
LJ          0.847272        -3.61916        -6.41183
LJ           3.47651         5.08007        -2.89756
LJ           1.05648         4.97956        -2.72531
LJ          0.741599        -4.63681        -5.92191
LJ           0.64165         3.10562        -5.36641
LJ          -3.24071         5.62913         3.23852
LJ           1.04309        -2.38621          5.2853
LJ          -5.05396         4.22736         1.70473
LJ          -3.11128        -2.50902        -3.50427
LJ           6.25224         1.93918         2.87383
LJ          0.398325         5.84497        -1.82189
LJ          -1.87083         4.14663        -1.67541
LJ           4.05361        -2.98459         1.74415
LJ          -1.82737        0.742607         3.40908
LJ         -0.935809        -4.09585         -5.9323
LJ          -4.19265         3.24408         5.28554
LJ           1.92415        -1.60995       -0.997583
LJ          -6.25841        0.973525        -2.70235
LJ           1.14611        -2.92568        -4.39448
LJ            1.2762        -3.37327          5.2367
LJ          -1.16332        -1.78777         1.94295
LJ           5.20196         4.29459         2.18109
LJ          0.104873        -1.11773        -1.51218
LJ          -1.36587        0.743428        -2.48407
LJ          0.169966         0.94491        -2.63587
LJ          -4.69495        0.944708         5.43625
LJ          -3.70249        0.710664          1.3522
LJ           3.02667        -2.89769        -0.59634
LJ         -0.289779        0.653272       -0.799054
LJ           4.18875        -3.41027        0.745275
LJ           5.36838         2.10244        -5.78164
LJ          -4.83605         -4.0732         1.42578
LJ          -4.37339        -3.77852        -5.03484
LJ          -2.71558           1.169         5.96595
LJ         -0.698807        -0.56913         6.11272
LJ           3.53187        0.362262         3.88508
LJ          -6.01157        -1.73882        -2.35834
LJ          0.456184         5.58521         1.35886
LJ           5.80524         4.19022         4.07137
LJ           1.44339         5.05204        -4.39631
LJ           -3.7848         3.91345           5.983
LJ           5.56089        -6.06736         2.47927
LJ            1.0135        -3.16804         3.34515
LJ           2.87237         2.68917        -2.34646
LJ          -3.59994        -5.29322         5.93613
LJ            2.7412         5.73119        -1.40588
LJ           -2.9714          3.8551         4.27647
LJ           2.24177        -5.79278         1.08245
LJ          -1.27673        -3.06354         2.83775
LJ          -2.87896        -1.58036        -4.23334
LJ          -4.35477        -2.46563         5.65972
LJ          -4.06108         6.16618        -0.99964
LJ           4.89412         1.33262        -1.06366
LJ           2.25291         5.18951        -2.95431
LJ          -5.17309         6.21325        -4.28856
LJ          -2.53577        -5.83435        -1.99275
LJ          -5.80431        0.864896         4.13082
LJ          -3.01031       -0.624737        0.231387
LJ           5.35676       -0.121529         6.14827
LJ           2.39836        -6.22376         5.94453
LJ            2.1331        -6.39712        -4.53865
LJ         -0.485373        0.657629        0.295974
LJ          -2.70072        -2.09079        -1.11787
LJ          -4.86901         6.37047        -6.19228
LJ           3.42937        -5.92389        -1.73618
