108
#Comment!
LJ           1.14005         6.20317        -3.99733
LJ           -3.5059        -4.38123        -4.82333
LJ          -5.00318       -0.343925        0.857128
LJ           2.91423        -3.72507        -4.01928
LJ          -1.76888          3.3597         3.64228
LJ          -4.64799       -0.866306         6.07797
LJ           2.11876        -2.60071         5.02868
LJ          -2.41534         1.93222        -2.02274
LJ          -3.05518        -5.63425         6.13205
LJ           4.51869        -2.33894        -1.76252
LJ          -1.07548         5.00597        -1.70258
LJ         -0.486145        -2.93283        -0.40585
LJ          -3.27831         -5.3996         1.40856
LJ           2.54234          4.2292        -4.34947
LJ          -4.74356        -5.29872         1.47006
LJ         0.0611778         2.74358        0.306039
LJ         -0.400397         -1.1175        -2.93663
LJ          -3.41605       -0.509975       0.0378274
LJ          -5.50594       -0.219435         2.90014
LJ          -6.19844        -2.30465         6.25028
LJ          -1.73429         3.91962         5.50578
LJ           5.34258            4.82        -1.25251
LJ           1.59689         2.40671         1.69514
LJ          -1.35418        -3.75538         1.95426
LJ          0.854539        -5.15388        0.131325
LJ          0.106594        -2.42799          1.6508
LJ           5.44684        -2.17769          6.2236
LJ          0.231023        0.903526         5.55734
LJ             1.213        -5.06263         4.29268
LJ         -0.528766         1.27309         2.54904
LJ         -0.973376        0.176479         6.22022
LJ           1.22362        -5.06815        -2.96106
LJ          0.760314         5.98749        -5.19354
LJ          0.478481        -4.56314         5.88939
LJ           5.72527        -4.94324         6.17938
LJ           5.95102          3.2451         5.32917
LJ           -4.9202      -0.0207797        -5.95352
LJ          -1.14495       -0.608208         1.05846
LJ          -4.02195        -6.13633        -2.28696
LJ          0.331733        -5.98714        -6.17634
LJ           3.48283       -0.347101         2.78475
LJ          -1.38803        -4.53882         3.32469
LJ          -4.81011         4.34028         -3.0295
LJ           1.64118        -1.98806         2.86486
LJ          -2.39145         3.07232        -5.45673
LJ          -2.14421         1.55308        -5.00101
LJ          -2.81855         3.77207         5.79038
LJ           5.25656        -3.84306         6.34078
LJ          -3.48132        -3.51653        -0.25272
LJ          -4.60298        -2.33933         2.36434
LJ          -5.51815         -4.9671        -5.91041
LJ          -2.53467         4.89575         4.25066
LJ         -0.587909         2.60842        -3.65518
LJ         -0.186166         5.39515        -2.46923
LJ          0.014423       -0.536561         3.32197
LJ          -4.78355       -0.506334       -0.941195
LJ          -3.92486        -6.23163         6.20336
LJ         -0.106545       -0.566816        -4.51899
LJ           1.43266         1.46303         1.28275
LJ          -3.57696        -4.56062         2.89342
LJ          -6.33025        -2.90519        0.268254
LJ           1.97818        0.122679        -1.91293
LJ           6.08415         3.67491        -3.27926
LJ          -1.07546         1.68325        -2.28571
LJ         0.0312392        -3.21039        -1.81928
LJ            5.3364         3.69514        -6.07835
LJ          -5.62743        0.296763        -3.08593
LJ           4.74325        -3.94668         -5.7502
LJ          0.719156        -4.07811         5.00967
LJ           1.80974        -4.21599        -6.43844
LJ          0.147834        -1.73422        -1.29139
LJ          -5.28931        -2.07676        -2.13378
LJ          -4.34192        -6.02482        0.783438
LJ           1.64964         -5.4453       -0.345038
LJ          -4.26547        -4.79397         6.29405
LJ           4.30805        -5.24983        -2.39668
LJ          -4.68486        -5.80267         -3.1345
LJ           5.85755        -3.04585        -1.61233
LJ           5.74156         4.67097        -2.63052
LJ           4.90844       -0.407582         4.44948
LJ          -2.25975         6.05054        -4.95309
LJ           3.88657       -0.650398         6.19462
LJ          -4.02202        -4.06753         1.64162
LJ          -1.84759        -3.13261         -2.2153
LJ          -6.09711         4.99913        -5.31783
LJ           5.36256         5.66099        -3.89854
LJ          0.917919        0.207029        0.653235
LJ           4.19656         4.64546        0.157856
LJ            2.0046        -3.50226        -2.22621
LJ          -1.04055        -2.10946          5.6247
LJ          -5.15022         2.10926        -2.83806
LJ          -3.26644        -6.09696        -5.25095
LJ          -1.55854       -0.847146         2.49821
LJ           3.64322         -3.3302         5.03644
LJ           1.83203        0.697498         6.44529
LJ         -0.141089        -3.99202       -0.563946
LJ           1.65636        -1.66061         1.14584
LJ            2.5527          2.5371        -1.99127
LJ           1.94475        0.770332        -5.25415
LJ          -2.32097         2.85025         2.60125
LJ          -5.71307       -0.334166        -1.90499
LJ          -1.01683          -3.793        -5.96205
LJ          -5.64966       -0.782583       0.0416358
LJ          -1.47243         5.01857       -0.352312
LJ            5.8691         5.21357       -0.114671
LJ           1.02088        -3.88508        0.873004
LJ          -3.75143        -2.96734        0.788599
LJ           2.12596       -0.623979        -5.69711
