108
#Comment!
LJ          0.783702        -6.30895          3.8759
LJ          -4.52209         5.41289        -2.71585
LJ          -2.83166         0.86082        -3.01556
LJ           5.54454        -2.27046        -3.40455
LJ           3.14534         4.56682         5.19476
LJ          -3.71161       -0.834416         6.45919
LJ          -2.98034        -5.66677         3.60994
LJ          -5.23031         1.40446        -3.86222
LJ         -0.801178        -4.33599         5.03556
LJ           1.57796        -1.74781        -4.69705
LJ          0.579205        -3.83802        -4.26569
LJ          -2.79012        -2.73348         2.80882
LJ          -6.37641         1.25244        -6.00785
LJ          -2.30583         -5.0286         6.11179
LJ          -3.54211        -6.35137       -0.948476
LJ          -1.63889        -4.28449        -5.88915
LJ           2.33731        -2.14564         2.71561
LJ           5.91609       -0.922183        -6.37052
LJ         -0.731464       -0.690839        0.655095
LJ           1.35438         6.03317         1.71277
LJ          -2.77178        -6.16279        -5.86402
LJ          -3.13682         5.50076        -3.20469
LJ          0.962881         6.11449         5.33145
LJ           4.45231        -4.97462        -1.63177
LJ         -0.437878         3.83349         -5.2085
LJ          -1.73441        -5.09307        -0.11675
LJ         -0.167231        -4.21053         3.85559
LJ          -2.87713         1.26479         1.49951
LJ       -0.00812814        -3.81773        -5.47704
LJ           4.12273         5.11735        -3.59728
LJ          -3.34673        0.737655        -1.93351
LJ           4.05271        0.710762        -3.46093
LJ            0.2322        0.603102         3.91241
LJ          0.560781         -3.2793        -6.40751
LJ           2.05696         3.10484        -5.34156
LJ           4.24964         3.99148         5.94649
LJ         -0.671066        -5.46816        -2.27276
LJ           1.65451         1.41912         3.19331
LJ          -4.06399         4.74306         1.16426
LJ           -3.1305        -4.18299        -4.31723
LJ           3.78082         5.42333         4.46026
LJ          0.619571         3.94419         2.82237
LJ          -3.08132         4.46436         6.34223
LJ           2.63964        -2.01036         3.85546
LJ          -2.70392        -5.09042        -4.01377
LJ           5.33006         5.18877        -6.46035
LJ           3.53214       -0.922254         5.56435
LJ           4.08458         1.42802         4.11586
LJ           5.94946         1.51364        -5.07022
LJ           -3.3729        0.769126        0.404191
LJ          -5.81703         3.94528        -4.68361
LJ           2.21902        -2.12541         5.81007
LJ          -3.10353         1.53381        -6.28312
LJ         -0.367233        -4.06828        -3.74418
LJ           1.70249        -3.95009          6.2152
LJ          -2.24356        -6.31085       -0.559635
LJ           3.43029         5.72728         1.57855
LJ          -5.76073        -1.73037         4.14126
LJ          -4.08943        -3.59773       -0.459914
LJ          -6.42315         -5.0469         3.01222
LJ          -3.93283        -5.17624       0.0389266
LJ           2.15684         3.09196         4.89068
LJ           3.29527        -3.03125        -3.74757
LJ           -3.9647         6.39958        0.625998
LJ           2.24851         5.24177        0.636579
LJ           2.71954        -3.58147         3.96807
LJ          -5.79502        -5.53007         2.05611
LJ         -0.055808        -3.56373        -2.61737
LJ           4.24816        -2.11176         1.52522
LJ           5.10346         -3.5146         6.23133
LJ           1.30088      -0.0299781          4.0294
LJ          -4.97023        -2.06913         1.96614
LJ           1.53801         4.15394        -2.21091
LJ          -5.44877         5.25123        -2.26113
LJ          0.124349         3.97148         -1.1185
LJ          -6.09457         4.92398         5.20943
LJ          -1.85195        -4.27761         2.50468
LJ          -3.18799       -0.368558         5.56703
LJ          -2.06081         3.89192        -1.82028
LJ           4.22583         4.64349        -4.75599
LJ           3.55309        -2.52049        -2.10299
LJ           5.82612         4.21204         5.84899
LJ          0.136601         3.02657        -2.69894
LJ           6.40551        -5.07607        -2.66418
LJ           5.14914         3.77675        -6.27095
LJ           2.90258        -5.64247         -3.5588
LJ          -1.91936         5.82317        -4.31189
LJ            4.6978        -2.28427        -5.68255
LJ          -3.87263        0.299859         1.94505
LJ           4.27203        -1.87008          5.1967
LJ           1.30142         1.10712         2.07418
LJ          -2.78251         5.62423         1.70038
LJ          0.271201        -3.17668         4.36569
LJ          0.120519        -5.79556         3.14483
LJ          -5.23234        0.458673         2.52096
LJ           3.09016          1.2448        -6.18953
LJ           1.13987         2.44424         3.74839
LJ          -2.43859         4.12572         -4.9982
LJ           6.05847         4.41602         4.76513
LJ          -4.13143         2.51306         2.47725
LJ          -3.28893        -4.25737       -0.886068
LJ          -2.47716         2.02005        -4.25185
LJ           3.19444         5.53535        -1.16463
LJ           6.01203         0.22411         1.18852
LJ           1.16268        -5.23498        -3.37299
LJ           2.90553       -0.068828        -2.50534
LJ          -3.80012         1.32037         3.04587
LJ          -4.41846         1.56799         4.26327
