108
#Comment!
LJ           1.60007         3.66171        -5.04588
LJ          0.611884        -2.61326        -4.90107
LJ           4.68816         2.62016       -0.397137
LJ          -6.24783         4.53555        -4.29183
LJ           3.31708        -2.78207        0.409086
LJ           4.95829       -0.205441        -4.64721
LJ          -4.09583        -3.00629         5.47788
LJ           1.51666        0.436493         4.91347
LJ          -4.23671         1.47611         5.56404
LJ          -1.52951         -1.5725        -3.38535
LJ           4.08606        -1.83987        -5.74462
LJ          -3.80138         2.90192        -6.30357
LJ           1.48303        -3.75131         2.33518
LJ           5.41648        -5.55467        -4.38965
LJ           2.75505           2.002        -2.00888
LJ          -3.89709         6.37851        -2.44724
LJ           3.17905         -3.4087         2.40289
LJ          -1.78507         1.06994        -6.28442
LJ           -2.9341        -4.55826         3.37414
LJ          -5.98555         2.36229         6.03283
LJ          -4.14406        -1.24972         4.43489
LJ          -6.29282        0.919761         1.41211
LJ          -4.43636         2.18635        -2.76182
LJ           4.77534        0.502444       -0.536662
LJ         -0.399442         1.91852         4.28157
LJ          -1.23121         2.34994        -5.96247
LJ           2.33443        -5.36682         3.20324
LJ            1.7414         3.55277         -3.8551
LJ          -1.45118        -1.10289         3.54857
LJ           1.18006         3.46874         1.07069
LJ          -1.78305          5.4882         -5.3849
LJ           2.26784         6.27868         3.32078
LJ            4.3907        -5.93384        -4.53674
LJ           0.35222         2.40229        0.595225
LJ          0.309684         -5.0883          5.6545
LJ          -4.76383         3.83211       -0.466442
LJ           -1.3049         2.89414          -4.509
LJ           4.20619         6.21806        0.473653
LJ           2.58674       -0.495471         5.08406
LJ           6.13275        -6.43557         4.88192
LJ         -0.728991        -2.21304        -4.02423
LJ          -6.45977         -3.8444          4.0532
LJ           6.31787        -5.81132        -1.45466
LJ           3.90089        0.977601         4.72802
LJ           3.62485       -0.107456        -4.12063
LJ           2.64509         3.66212         3.14054
LJ          -3.61863        -5.99744          6.0165
LJ          -1.75193         6.35666         5.48411
LJ            4.7875         6.12574         4.37823
LJ          0.760116        -5.60015        -1.41479
LJ          -2.27998        -4.50655         5.24815
LJ          -5.35602        -4.36544         6.41865
LJ         -0.546639       -0.649208        -5.25653
LJ          -3.93421        -5.20242        -4.96509
LJ           5.92119        -5.11187       -0.379401
LJ          -4.77504        -6.15857         2.03844
LJ          0.872802         5.05849         3.80644
LJ           2.81715         1.74131         6.01573
LJ          -2.24479         4.65935         2.79018
LJ          -3.88529         3.20038         5.31592
LJ         0.0835662        -5.44188        -4.74712
LJ          -5.83299         3.20488        -4.83086
LJ           6.35685          -4.523          1.2329
LJ           1.02796          6.1673        -1.35466
LJ         -0.718942        -6.46179         6.04521
LJ           2.20143        -2.07426        -5.57771
LJ            3.7425       -0.766924         5.66201
LJ           5.85337         2.55332         5.65843
LJ           1.23245       -0.409363        -4.66542
LJ          -2.42372        -4.88148        -6.38684
LJ          -1.45415        -4.02349         3.42296
LJ           3.09228        -1.56488        0.130094
LJ           1.28019         5.75785         2.86385
LJ          -4.29911         2.78564        -1.66126
LJ         -0.843637         3.95678          3.3685
LJ          -1.48611         -6.2961        -5.21797
LJ          -3.51258       -0.978395       -0.866825
LJ            2.3331        -4.58267         5.15287
LJ          -2.32514         2.94603        -4.81521
LJ          -3.73169        -1.72819       -0.117004
LJ          -2.83854        -6.23813         5.32758
LJ           5.98511         5.57124         5.21634
LJ           -2.7602         5.70442        -6.32639
LJ          -2.74228         2.56489        -5.76443
LJ           4.22413        -2.68296         6.03695
LJ          -5.02249        -2.06765        0.555006
LJ           3.28586        -5.47671        -3.75939
LJ          -1.48334        0.289321        -3.14739
LJ          -2.57577        -3.25122        -4.48612
LJ          -1.76968         4.02947         1.72181
LJ           5.40139        -5.89617         2.10111
LJ           2.04218        -2.44678       0.0949242
LJ          -2.42669        -1.73835        -5.79762
LJ          -3.49779        -5.54453       -0.848607
LJ          -2.60599         3.03029         4.82171
LJ           1.25435         1.72644        -2.66806
LJ           1.23047         3.09268        -5.90513
LJ          -1.11818       -0.902495        -4.09364
LJ            4.0649         1.79448         5.98485
LJ          -3.43587       -0.856142         -2.5155
LJ           3.63707         1.52612         1.25785
LJ           4.50207         2.84032          2.3835
LJ           5.30191        -4.31408         2.98936
LJ           3.79148        -6.06029          6.0996
LJ           1.24006        -1.81527      -0.0764309
LJ          -1.09067         -1.5713        -5.17453
LJ           3.75442         5.07884       -0.858055
LJ           2.83092        0.952176         4.49516
