108
#Comment!
LJ         -0.378825         5.96858         6.38784
LJ          -3.87616        -5.72016        -2.76003
LJ          -3.51653       -0.698864        -1.33838
LJ           4.47245         -3.0689        -4.76532
LJ         -0.165958         4.27351         4.99798
LJ          -4.06055        -1.29477        -6.39561
LJ        -0.0206471        -2.53391         5.20649
LJ          -4.03735         1.03929         2.46482
LJ         -0.174275        -5.43543         6.35745
LJ           2.14839        -2.54337         2.69951
LJ         -0.920927         -5.7185        -2.84356
LJ        -0.0743584         -1.9046         2.55942
LJ          -4.26404        -1.78943         4.03937
LJ         -0.217318         3.62075        -5.65597
LJ          -6.25121        -2.25055        0.975564
LJ          -1.80722         5.52257         2.97451
LJ           2.03906       -0.943261       0.0295161
LJ          -4.12466       -0.776892        -3.75382
LJ           5.47827        0.239274         1.70392
LJ           -3.2443        -3.81316          2.3525
LJ          -2.97451         4.91909         6.03694
LJ          -5.39097         5.77244        -1.97459
LJ           1.43574         3.59741         4.28151
LJ          -4.60192        -5.37898       -0.709034
LJ         -0.486598        0.941686        -1.61064
LJ           -2.7864         -4.8899       -0.133598
LJ            2.4388        -5.49274         4.04141
LJ           6.00585         1.44824         3.50522
LJ          0.627169        -2.95618         4.13165
LJ           1.34092         3.04075       -0.235516
LJ           -2.0355        0.408141        -5.54658
LJ          0.884491          5.1857        -5.45521
LJ          0.415088         4.49854         6.24037
LJ           1.92191        -3.53259          5.9774
LJ          -2.74438         5.46847        -5.43869
LJ           5.17437         5.17466         4.41935
LJ           4.07494        -3.85622        -2.48874
LJ         -0.432268       -0.349871         1.50544
LJ           -3.5843        -6.28761        -1.45985
LJ         -0.932373        -4.36682        -5.09247
LJ           4.84201         3.48112         4.05927
LJ         -0.466202         4.65839         2.95327
LJ          -6.39124         5.77402        -3.25942
LJ           1.43982        -1.77978          2.5352
LJ          -3.05291         5.74296         -4.3024
LJ          -2.29221           3.853        -4.85296
LJ           5.31212       0.0689639         3.86324
LJ           6.05738       -0.893717         5.56045
LJ           1.44681        -1.75294        -2.80653
LJ          -3.99146       0.0179386          2.3592
LJ           6.22691        -6.04296        -4.59431
LJ          0.541212         2.67309         3.99537
LJ          -2.79963         1.91967        -4.32751
LJ         -0.210354        -5.28188        -3.54701
LJ          0.688787        -3.42168         6.02763
LJ          -4.02805        -3.96732        0.139048
LJ          -6.27769         4.40596        -3.36454
LJ          -3.40854         -2.2495        -5.08799
LJ           2.82162      -0.0531236         1.53885
LJ          -5.40364        -4.81325         2.99382
LJ           5.77954        -6.19267         2.69075
LJ           2.25788         5.62841         2.70484
LJ           5.67229      -0.0202695        -3.69419
LJ          -1.19367          1.9134         -1.2545
LJ          0.888278         1.42228       -0.974408
LJ           3.97394         6.38918        -6.45465
LJ          -5.46977         3.93384         6.30685
LJ           2.60765        -4.23578        -3.79813
LJ           1.41522         -3.8932         3.70033
LJ           3.61121         -5.9308         5.25661
LJ          0.941476       -0.334666         1.51421
LJ          -5.17431        -2.41317        -0.49995
LJ          -1.06966         5.13004        0.181704
LJ           4.37094        -6.31052        -1.14136
LJ           -1.7476       -0.866999         -5.2496
LJ         -0.373232         5.96816        -4.11438
LJ          -2.99101        -6.38387       -0.533075
LJ          -6.28294       -0.409549        -4.09925
LJ          -5.06326         5.29673        -1.00857
LJ           4.98786         -3.2165         -6.1456
LJ           -4.1146        -3.59682        -2.17038
LJ           3.71504         2.58706          5.7394
LJ           5.46971         5.66833        -1.45327
LJ          -4.46063        -4.73108        -3.21666
LJ           5.63078         4.93013         5.78842
LJ            3.9798        -6.31364         -3.7075
LJ          -5.57917         2.78887         3.89213
LJ           2.74924       0.0037322        -1.55756
LJ           4.66335         -2.4673       0.0717868
LJ          0.783232        -2.07398         4.52988
LJ          -3.18072         1.77765      -0.0171137
LJ          -1.38673          -6.292         5.23793
LJ        0.00346858         -2.8377         2.03881
LJ           1.43632        -5.26838         4.13397
LJ          -1.49027        0.726109         4.69233
LJ           1.51538        -1.09657        -3.62348
LJ            1.3963         5.98937         2.16081
LJ         -0.607926         3.05234        -3.60144
LJ           4.65495         2.21595          6.2083
LJ          -3.20016         3.15489         2.48527
LJ          -3.53883        -3.00194        -1.43181
LJ         -0.788567         1.21975        -6.29262
LJ           5.11265        -5.12998        -2.27813
LJ           4.61705        0.547699        0.441945
LJ           5.52408        -6.05128         -2.7102
LJ            2.7038         4.87552       -0.178028
LJ           -4.1989        -5.94284          1.7814
LJ          -1.42143       -0.379822        -6.07514
