108
#Comment!
LJ           1.34506         3.59038         -5.0816
LJ           0.44239        -2.55679        -5.07979
LJ           4.33901         2.65452       -0.362447
LJ           6.44635            4.62        -4.27057
LJ           3.57997        -2.54271        0.132719
LJ           4.91748      -0.0489796        -4.62903
LJ          -4.16516        -3.01516          5.5079
LJ           1.39964        0.424994         4.52145
LJ          -4.13166         1.32204         5.25993
LJ          -1.34201        -1.43967        -3.04118
LJ           4.07428        -1.59165        -5.58511
LJ          -4.02465          2.8446         -6.2477
LJ           1.69807         -3.4792          2.2981
LJ           5.43869        -5.47006        -4.42668
LJ            2.8067         1.65538        -1.96002
LJ          -3.68464        -6.20229        -2.40024
LJ            3.0845        -3.55987         2.41667
LJ          -1.78491        0.798474         6.39709
LJ           -3.0281        -4.62997         3.31654
LJ          -5.80367         2.19551         5.99577
LJ          -4.14612        -1.19892         4.31359
LJ          -6.32315        0.651716         1.34722
LJ           -4.4798         1.97688        -3.33185
LJ           4.43433        0.307173       -0.611424
LJ         -0.381166         1.89049         4.58856
LJ           -1.3877         2.24203        -5.80119
LJ           2.26339         -5.3553         3.17192
LJ            1.6757         3.78266        -3.76886
LJ          -1.35461        -1.14297         3.34213
LJ           1.36099          3.7092         1.02724
LJ           -1.7378         5.61312        -5.41219
LJ           2.31638        -6.39234         3.26837
LJ           4.42129        -5.73438        -4.79978
LJ          0.344648         2.31025         0.64162
LJ         0.0619063        -5.33183         5.32584
LJ          -4.68477         3.85059       -0.405223
LJ          -1.15582         3.27534        -4.60922
LJ           4.19327         6.38589        0.426289
LJ           2.65168       -0.467839          4.8239
LJ           5.97841        -6.30995          4.6664
LJ         -0.855943        -1.99223        -3.78461
LJ           6.17393        -3.90205         4.11157
LJ           6.18542        -5.84894        -1.39341
LJ           3.66085         1.09518          4.8305
LJ           3.74762         0.15572         -4.1813
LJ           2.63853         3.84869         3.35518
LJ          -3.44892        -5.80351         6.32904
LJ          -1.64728         6.21238         5.55635
LJ           4.87918         6.03463         4.34521
LJ          0.717174        -5.62934         -1.3469
LJ          -2.47505        -4.57176         5.10998
LJ          -5.26317        -4.25206        -6.32714
LJ         -0.799276       -0.717824        -5.23401
LJ          -4.33205        -5.21759        -4.89756
LJ           5.88271        -4.71944       -0.286071
LJ          -4.92222         -6.1636         2.05255
LJ           1.04193         4.90033         3.71018
LJ           2.97613         1.71929         6.18546
LJ          -2.18087         4.38984         2.93648
LJ          -3.58194         3.39068         5.16052
LJ        0.00904626        -5.10406        -4.71728
LJ          -5.85444         3.01646        -4.92105
LJ            6.4092        -4.57734         1.38002
LJ          0.934998         6.26801        -1.60787
LJ          -0.43011         6.14838         5.85678
LJ           2.09922        -1.92761        -5.30973
LJ           3.39198        -0.89122         5.87615
LJ           6.08291         2.66217         5.61174
LJ           1.19715       -0.697497        -4.47908
LJ          -2.22612        -5.05828        -6.45096
LJ          -1.25077        -4.34497         3.26251
LJ           3.15904        -1.62928        0.114062
LJ           1.63194         5.48293         3.01131
LJ           -4.3954         2.75455        -1.77701
LJ         -0.626707         3.62876         3.31248
LJ          -1.59032          -6.319        -5.04537
LJ          -3.38732       -0.924484        -1.07997
LJ           2.22188        -4.85006         5.45824
LJ          -2.38689         3.22665        -4.61439
LJ          -3.72143         -1.7042       -0.358775
LJ          -2.62434        -6.35367         5.37201
LJ           5.91704         5.44166         5.14877
LJ          -2.64184         5.89699         6.40773
LJ          -2.66129         2.56093        -5.57154
LJ           4.33424        -2.49363           6.407
LJ          -4.92263        -2.10756         0.66874
LJ           3.13924        -5.70191        -3.73259
LJ          -1.46274        0.222115        -3.29616
LJ          -2.49965        -3.37409        -4.42399
LJ          -1.98083         3.93107         1.75039
LJ            5.2822          -5.748         2.15522
LJ           1.99485        -2.33276       0.0372393
LJ          -2.46694         -1.5076        -5.98675
LJ          -3.33989        -5.69465       -0.958802
LJ           -2.5567         3.09957         4.78985
LJ           1.31036         1.72376        -2.67227
LJ           1.27859         2.98704        -6.01341
LJ          -1.19115       -0.843374        -4.30042
LJ           3.95428         1.89115         6.23914
LJ          -3.45192       -0.847437        -2.03538
LJ           3.89243         1.42302         1.27007
LJ           4.53003         2.72639         2.53084
LJ           5.04651        -4.30522         2.91165
LJ            4.1596        -6.15025          5.9028
LJ           1.14714        -1.52502      -0.0278562
LJ         -0.794819        -1.84287         -4.7735
LJ           3.95606         5.15961       -0.780013
LJ            2.5723        0.801952         4.57879
