108
#Comment!
LJ          0.754106        -6.27103         3.97327
LJ          -4.54105         5.53776        -2.63248
LJ           -2.9193        0.856679        -3.11371
LJ           5.53278        -2.29806        -3.48275
LJ           3.08073         4.70718         5.03656
LJ           -3.6759       -0.894936        -6.40277
LJ          -2.86341        -5.52221         3.67093
LJ          -5.18861         1.42128        -4.13138
LJ          -0.78986        -4.41356         5.06434
LJ           1.62157        -1.84092        -4.98981
LJ          0.522916        -3.91598        -4.31681
LJ          -2.59314         -2.7064         2.81893
LJ          -6.28621         1.07629        -6.11601
LJ          -2.19665        -5.27026         6.13096
LJ          -3.50355        -6.15179       -0.870269
LJ          -1.71563        -4.46479          -6.077
LJ           2.29799        -2.13676         2.70784
LJ           6.06213       -0.924906         -6.3302
LJ         -0.998048       -0.639123        0.649643
LJ           1.17637          6.2422         1.48177
LJ          -2.85629        -6.23373        -5.88081
LJ          -3.21226         5.47181        -3.17882
LJ          0.997002          5.9976         5.40761
LJ           4.64821        -5.02344        -1.58137
LJ         -0.492642         3.79122        -5.01425
LJ          -1.94205         -5.1462       -0.215984
LJ        -0.0429839        -4.26335         3.88132
LJ          -2.87059          1.2765         1.49602
LJ         0.0158005        -3.85297         -5.6789
LJ            3.9935         5.02889        -3.42678
LJ          -3.22133        0.709989        -2.03242
LJ           3.92406        0.908836        -3.55181
LJ          0.199458        0.774519         3.95646
LJ          0.540552        -3.22755         6.45468
LJ           1.87918         3.21055        -5.34244
LJ           4.19353          4.1105          5.8655
LJ         -0.545007        -5.43545        -2.09176
LJ           1.46096         1.43047         3.19916
LJ          -4.05944         4.81017         1.09408
LJ          -3.01651         -4.1849        -4.34556
LJ           3.76935         5.23059         4.47994
LJ          0.653072         3.76841         2.90115
LJ          -3.23447         4.50901        -6.38564
LJ           2.56998        -1.90778         3.78835
LJ          -2.74858        -5.16546         -3.9895
LJ           5.53183         5.10886        -6.40545
LJ           3.62629       -0.823105         5.49204
LJ           4.19132         1.35739          4.1771
LJ           5.79394         1.37019        -4.97085
LJ          -3.41297        0.718082        0.538786
LJ          -5.88826         4.09801        -4.57401
LJ           2.20492        -1.94909         5.73625
LJ          -3.12234         1.48929         -6.0929
LJ         -0.369515        -4.08971        -3.57339
LJ           1.74364        -3.88135         6.25902
LJ          -2.43414         -6.3243       -0.532621
LJ           3.45418         5.61043         1.30282
LJ          -5.68784        -1.76481         4.32744
LJ          -3.79573         -3.3827       -0.354356
LJ          -6.35582        -5.04287          2.9781
LJ          -4.14073         -5.2548        0.235764
LJ           2.16874         3.16294         4.77536
LJ            3.4258        -2.92858        -3.65184
LJ          -3.81326         6.22566        0.548568
LJ           2.40469         5.21866        0.492811
LJ           2.76236        -3.70892         4.08528
LJ          -5.80633        -5.66099         2.28222
LJ         0.0648792        -3.59478        -2.68676
LJ           4.06863        -2.22888         1.59451
LJ           5.08547        -3.74087         6.18671
LJ           1.38799        0.112578         3.95349
LJ          -4.94151        -2.09727         1.86588
LJ           1.43944         4.21858        -2.10129
LJ           -5.5334         5.29594         -2.3218
LJ         0.0380366         3.72412        -1.23668
LJ          -5.99373         4.86777         5.41109
LJ          -1.87836        -4.43749         2.42099
LJ          -3.35976       -0.316451         5.65353
LJ          -2.17364         4.02583        -1.79419
LJ           4.25683         4.86669        -4.81779
LJ           3.72836        -2.55834        -2.16628
LJ           5.98774         4.23828         5.86661
LJ          0.225667         3.09966         -2.7985
LJ          -6.42808        -5.05784        -2.70151
LJ           5.23289         3.96842        -6.39289
LJ           3.01665        -5.60315        -3.51251
LJ          -1.93443         5.62678        -4.47172
LJ           4.56228        -2.16995        -5.49924
LJ           -4.1203        0.153385         1.93044
LJ           4.08223        -1.86299         5.20073
LJ          0.942632         1.12483         1.96637
LJ          -2.63214         5.78625          1.8285
LJ          0.241254         -3.2559         4.18936
LJ         0.0659399        -5.79477         3.15755
LJ          -5.05307        0.446761          2.6264
LJ           3.01035         1.15163        -6.09241
LJ           1.09231          2.5421         3.61415
LJ          -2.19229         4.04558        -4.92116
LJ            5.9113         4.33421         4.79569
LJ          -4.15487         2.58056         2.35695
LJ          -3.22972         -4.1929       -0.900039
LJ          -2.40547         2.14779        -4.38657
LJ           3.15832         5.54533        -1.05445
LJ           5.99432        0.187295         1.14167
LJ            1.3194        -5.35589        -3.40637
LJ           2.92059        0.123798        -2.38725
LJ          -3.75129         1.57383         3.09697
LJ           -4.3019         1.48898          4.3731
