108
#Comment!
LJ          0.736501        -6.25072         4.02097
LJ           -4.5085         5.60824        -2.60662
LJ          -2.96404         0.85507        -3.16064
LJ           5.52623        -2.31199          -3.522
LJ           3.02626         4.75768         4.97857
LJ          -3.66016        -0.92859        -6.36497
LJ          -2.80438        -5.44947          3.7009
LJ          -5.16808          1.4297        -4.26637
LJ         -0.780509        -4.45099         5.07374
LJ           1.64337        -1.88802        -5.13653
LJ          0.488835        -3.95588         -4.3424
LJ          -2.49434        -2.69375         2.82378
LJ           -6.2446        0.989141        -6.16508
LJ          -2.14029         -5.3891         6.14736
LJ          -3.48352           -6.05       -0.825007
LJ          -1.75605         -4.5595        -6.17513
LJ           2.27965          -2.132         2.70776
LJ           6.13476       -0.926173        -6.30991
LJ          -1.13143       -0.613171        0.646982
LJ            1.0882         6.34608         1.36596
LJ           -2.8961        -6.26626        -5.89109
LJ          -3.25377         5.45759        -3.16478
LJ           1.01371         5.94038         5.44277
LJ           4.74635        -5.04786        -1.55649
LJ         -0.521659         3.77034        -4.91683
LJ          -2.05084         -5.1793       -0.268404
LJ         0.0149034        -4.29744         3.89759
LJ          -2.87373         1.27751         1.48925
LJ          0.031035        -3.86921        -5.77781
LJ           3.92983          4.9837        -3.34765
LJ          -3.15754        0.696591        -2.08481
LJ           3.85873         1.00704        -3.59623
LJ          0.192111        0.858252         3.97694
LJ          0.534433        -3.20693         6.42418
LJ           1.79033         3.26336        -5.34298
LJ           4.17233         4.17237         5.82702
LJ         -0.481779         -5.4181        -2.00192
LJ           1.35651         1.43834         3.20168
LJ          -4.05566         4.84753         1.05824
LJ          -2.96738        -4.16204        -4.36858
LJ           3.78884         5.15021         4.47192
LJ          0.671176         3.67715         2.94255
LJ          -3.31035          4.5313        -6.28508
LJ           2.53459        -1.85833         3.75272
LJ          -2.76238         -5.2275        -3.96933
LJ           5.63407         5.05577        -6.38343
LJ           3.67549       -0.780608          5.4541
LJ           4.24451         1.32205         4.20785
LJ           5.71992         1.29717        -4.92585
LJ          -3.43017        0.695719        0.615073
LJ          -5.92404         4.17443        -4.51936
LJ           2.19922        -1.86095         5.69861
LJ          -3.13166         1.46685        -5.99739
LJ         -0.367722        -4.10152        -3.49296
LJ            1.7579         -3.8431         6.28198
LJ          -2.53012        -6.32412       -0.516953
LJ           3.46131         5.55035         1.16133
LJ          -5.65136        -1.78195         4.42048
LJ          -3.64879        -3.27659       -0.301487
LJ          -6.32624        -5.03572          2.9659
LJ          -4.24104        -5.29847        0.331312
LJ           2.17418         3.19877         4.71641
LJ           3.49189        -2.87635        -3.60126
LJ           -3.7361          6.1407        0.507083
LJ           2.48708         5.20975        0.423855
LJ            2.7833        -3.77062         4.14374
LJ          -5.80771         -5.7316          2.3903
LJ          0.126983        -3.61029         -2.7216
LJ           3.97845         -2.2874         1.62951
LJ           5.07612        -3.85314         6.16474
LJ           1.42543        0.190673         3.91338
LJ            -4.927        -2.11111         1.81589
LJ           1.38792         4.24973        -2.04599
LJ          -5.61255         5.31028        -2.33828
LJ       -0.00371625         3.60022         -1.2985
LJ          -5.95547         4.83306         5.51312
LJ          -1.89206        -4.51717            2.38
LJ          -3.44364       -0.286361         5.69137
LJ          -2.22994         4.09301        -1.78134
LJ           4.27193         4.97911        -4.84365
LJ           3.81563        -2.57801        -2.20109
LJ           6.09017         4.26714          5.8709
LJ           0.27082         3.13788        -2.84619
LJ          -6.38185        -5.04879        -2.71998
LJ           5.24932         4.06449        -6.44176
LJ           3.07204        -5.58325        -3.48915
LJ          -1.94366         5.52695        -4.55175
LJ           4.49486        -2.11301        -5.40819
LJ          -4.24726       0.0849697         1.92544
LJ           3.98324        -1.85352         5.20485
LJ          0.765793         1.13545         1.92007
LJ          -2.55885          5.8673         1.89101
LJ          0.226807        -3.29167         4.10337
LJ         0.0416278        -5.79475         3.16833
LJ          -4.95636        0.440478         2.67578
LJ           2.97049         1.10508        -6.04391
LJ           1.07123         2.58624         3.54324
LJ          -2.06799         4.00701        -4.88284
LJ           5.84085         4.29719         4.80362
LJ          -4.16391         2.60716         2.30099
LJ          -3.19994        -4.16324       -0.904942
LJ           -2.3701         2.21137         -4.4539
LJ           3.13955         5.55001       -0.998123
LJ            5.9857        0.168868         1.11842
LJ           1.39827        -5.41522        -3.42357
LJ           2.92926        0.220873        -2.32946
LJ          -3.73263          1.7045         3.12165
LJ          -4.24101         1.44938         4.42166
