108
#Comment!
LJ          -5.83784         4.11252        -3.08063
LJ           4.10894        -2.73933        -2.99126
LJ            6.2144        0.978528        -2.38074
LJ         -0.545846        -4.81116        0.115356
LJ           2.98596         4.16311       -0.726257
LJ            1.9848         -5.0794        -3.47687
LJ           5.54919       -0.919248          3.1168
LJ           5.21279          3.1029       -0.319173
LJ           5.63313        -5.53211         4.57226
LJ         -0.942605        -6.19749        -4.84798
LJ          -6.20664          3.2796          2.3346
LJ          -2.67136         5.06097         1.49686
LJ           1.28672         5.82116       -0.602062
LJ           2.51458        -6.25802        0.819337
LJ          0.429493        -1.30457         -3.8191
LJ           2.56505         1.08229        -3.62301
LJ           5.87445        0.142589        -5.21908
LJ           1.66106        0.370052          2.8178
LJ         -0.520694         1.41905        -6.16309
LJ           0.66797         3.65549        -5.01251
LJ          -3.21256        -2.61966         4.53374
LJ          -6.32523        -6.02322         4.81373
LJ         -0.827773          2.2182         4.21843
LJ           -2.4747         3.52196        0.656092
LJ         -0.494785         5.70937         1.96086
LJ           1.31183         3.55588         6.25154
LJ          -1.66275         6.28875         5.27531
LJ          -5.45261        0.796374         5.76527
LJ          -2.42091         1.85142        -6.32316
LJ           -2.3939       -0.575085          4.3293
LJ          -2.51964         4.93702         4.15695
LJ           -2.7861        -5.97969         1.46614
LJ           2.87141         5.86598       -0.252016
LJ          -2.69802         1.58349        -4.52587
LJ          0.777296      -0.0619757        0.141427
LJ         -0.790244         5.70507        -4.76928
LJ           1.87337        -6.16399        -2.83297
LJ          -5.79808         3.71682        -1.13342
LJ            1.8023         1.32712       -0.169235
LJ          -4.61307        -6.35196        -4.05343
LJ           4.03506         5.02882         3.74171
LJ         0.0706342        -2.97046           4.561
LJ          -3.69518        -4.39786        -2.39004
LJ          -6.07511         3.13257        0.538809
LJ            3.3306         5.92112        -3.89527
LJ           6.11401         2.51653         1.07403
LJ           2.69423         1.78836         1.82673
LJ          -6.32408       -0.717302         3.70438
LJ           4.23591        -4.41537        -4.60902
LJ           3.36635           3.083       -0.220878
LJ          0.106586        -2.06958         -5.5577
LJ           5.95754        -4.48174        0.724786
LJ            2.4576        -1.63377        -4.59051
LJ          0.556267       -0.758852        -2.22452
LJ           5.87062        0.607023        -1.30959
LJ          -1.57978          6.2897        -1.34955
LJ          -1.95665        -2.60575         2.68682
LJ         -0.149992         -1.4759        0.288655
LJ         0.0855509        -3.63881         0.69971
LJ           2.02406         2.91329        -6.14349
LJ          0.468829        -6.07236         5.23039
LJ           -3.4337       -0.416735        -4.51127
LJ           5.63126        -4.32171        -2.72761
LJ           1.50465         -4.9138         1.78952
LJ          -5.98218         -4.5141         -2.1186
LJ            5.2865        -5.60368         1.02817
LJ          -4.28135        -3.08426        -3.21168
LJ       -0.00948486         4.05385        -6.44593
LJ           1.48075        -3.83551         4.92246
LJ          -1.76994        -1.57962        -4.78612
LJ           4.63097        -1.90059         2.56262
LJ           1.67295        -5.51461        -1.03196
LJ           3.48753         5.71235         5.10132
LJ          -3.74149        -2.75723        -1.76262
LJ          -3.18752        -1.58379         5.52505
LJ         -0.427581         5.21778        -5.89197
LJ          -4.03227         1.48443         4.37006
LJ           3.51405        -2.18788         2.91296
LJ           -5.1778         4.63287        -1.94489
LJ           5.13169        -2.76552         4.35591
LJ            2.8381          5.5488         6.05236
LJ          -6.33529         3.41975        -4.84188
LJ          -5.99131         2.90406        -1.82477
LJ           2.22279        -1.48791      -0.0798374
LJ           1.71607        -5.56594        0.557736
LJ          -5.19106        -3.06585        0.606145
LJ          -2.10122        -6.25764        -5.45894
LJ          -1.55724         3.82336        -0.86053
LJ           3.91554        -6.16304        0.512698
LJ         -0.558154        -2.14034         1.99369
LJ          -4.16215         4.76502        -1.45564
LJ          0.728261        -4.96598       -0.193534
LJ        0.00303366       -0.586015        -5.60681
LJ           2.48396         -2.5485         1.46593
LJ          -4.64936       -0.280703        -3.07872
LJ          -1.00202         1.13344        -2.88023
LJ           4.08416          1.8583        -1.77537
LJ         -0.646321         2.21491       -0.792483
LJ          -5.39954         2.51303       -0.531355
LJ          -2.71775        -2.88751         5.55849
LJ          0.362079         2.42257        -4.83642
LJ          0.566935         1.43116       -0.161367
LJ          -3.07074       -0.631034         3.27358
LJ         -0.309823         3.08387        -2.31349
LJ           1.84542         -5.3088        -2.20273
LJ          -6.37252          1.8599          5.1396
LJ          -1.34281         3.50044        -2.13371
LJ          -4.76845         3.13362        0.108559
