108
#Comment!
LJ           2.33662         6.10131         -1.8336
LJ          -3.69903        -2.06343        -5.07018
LJ          -5.06885          3.7621         3.47519
LJ           2.21215        -6.09757         -4.5521
LJ           -2.4977         4.03905         4.32765
LJ          -4.51813       -0.330125         6.11139
LJ           1.46387        -2.91295          3.7882
LJ          -1.60766         2.35665        -4.81002
LJ          -1.06291         5.12548         6.13097
LJ           5.86011        -2.59187        -4.43288
LJ          -1.42542         3.11981       -0.783274
LJ          -1.80529        -5.67271        -2.82473
LJ          -5.21534         5.69629        -0.69449
LJ           4.42801         4.60913        -3.70396
LJ           -2.3096         -3.6699         3.17352
LJ           2.09477         2.09426        -2.44334
LJ          -2.36118        -2.68217         -3.9855
LJ          -3.64153        -2.80213        0.839855
LJ           -2.4947         1.59129         2.81247
LJ          -5.14106        -2.79269        -4.46122
LJ         0.0204202          3.1475         3.69489
LJ           4.71825         3.85252       -0.181635
LJ           1.36059         1.68385       -0.318465
LJ           2.18019        -4.58416         4.95425
LJ         -0.735048         5.41228         3.34802
LJ           1.77536        -1.42757        0.583322
LJ           5.35871        -1.07072        -4.32144
LJ          -1.40959         2.23115         4.93859
LJ           1.44398        -5.38985         5.35722
LJ          -3.01144        0.436309         4.52495
LJ          -2.54395        -2.36259        -5.49104
LJ           2.87825        -4.71423        -2.61034
LJ          0.376098         5.25042        -3.61814
LJ         -0.559847         6.18152          5.6788
LJ           4.21779        -6.45849         6.17974
LJ          -5.72094         1.45308         4.96526
LJ          -1.91861         3.18325         4.97612
LJ            -2.387        0.369231         1.70649
LJ          -4.72245        -5.85429        -4.72201
LJ         -0.651925         5.97218        -6.21268
LJ           2.45545        -2.04589         2.49443
LJ          -1.79183        -1.22902         2.69255
LJ          -4.68933         5.55511        -3.91733
LJ           1.98154        -1.11486           3.926
LJ          -1.59404         2.57635         6.24677
LJ           -3.3527         1.57442         4.88117
LJ         -0.617993        -6.28927        -3.73623
LJ           5.31388        -2.56627         4.58227
LJ           6.17311        -4.86805         2.23464
LJ          -4.95862         -3.2349         2.99083
LJ           4.29635        -4.58486         -5.5181
LJ          -3.06673         4.79053         4.66083
LJ          0.319741          1.3833         -2.6735
LJ         -0.468573         3.64497        0.543222
LJ          0.671012         2.34441         3.39905
LJ          -5.47667          2.1953       -0.438071
LJ           -5.1694         -6.2764         2.47515
LJ         -0.155573       -0.912926        -4.80096
LJ           1.16809         1.03763         1.07058
LJ          -1.12985        -4.62267         4.82531
LJ          -5.21286       -0.237798       -0.909287
LJ           1.34381        -3.85572        -3.30378
LJ          -5.63829         5.40321        -2.45004
LJ         -0.222048         2.57367        -2.00884
LJ          0.969645         -5.9526        -1.71885
LJ           6.06866         1.42173        -6.41552
LJ          -5.83572        -4.63149        -5.76856
LJ           4.37273        -3.69283        -3.11688
LJ          0.381932        -5.75612         5.67657
LJ            2.7354        -1.08876         5.73092
LJ           -1.3621        -2.33572         -3.7459
LJ          -5.45462        -0.18415        -2.65269
LJ          -5.12176         6.38786        -1.70048
LJ           2.41079         -5.4774        -1.78918
LJ          -4.53722        -5.18738          4.6986
LJ          -5.86197        -3.51397       -0.933152
LJ           -5.1611        -4.59052        -3.25351
LJ           4.37049         -5.1488       -0.985645
LJ           3.62029         5.78693         -2.4507
LJ           3.64769       -0.333377         5.23321
LJ          -3.49497         5.86981        -6.03393
LJ           4.88236       -0.290338         4.15718
LJ          -2.77519        -3.54667         1.13602
LJ            1.3151         -2.5798        -0.74355
LJ          -5.50564         4.85626        -4.54855
LJ           6.01582         -6.1637        -1.94122
LJ          -4.24002       -0.327549        0.636619
LJ           5.73921        -4.66251        0.979133
LJ         -0.106639        -2.57633        -2.92122
LJ          -1.24694        -3.27156         6.37625
LJ          -5.57631         1.77728        -2.54324
LJ          -1.70095         5.37203        -5.24016
LJ          -2.76006        0.280109         0.47472
LJ           4.86804       0.0819537         6.10199
LJ           3.81051       -0.166551         -6.4348
LJ           -1.0338         -6.4034         1.15736
LJ           1.68311        0.447441        0.291705
LJ           5.04553         3.55748        -1.81891
LJ           2.99197        0.889314        -2.07754
LJ          -3.04727         1.65029          1.2936
LJ          -5.82379         1.95845        -1.45281
LJ         -0.404433        -5.75444         6.37015
LJ           6.01207        0.869846       -0.580741
LJ          -5.57601        -5.24805        -1.10195
LJ           5.41157          3.0157       -0.443497
LJ         -0.780789        -1.89013       -0.179237
LJ          -2.08502        -4.29022         1.59247
LJ           1.50184        0.167263        -4.61331
