108
#Comment!
LJ           4.93931          3.9699        -2.05381
LJ           1.53152         1.79129       -0.692253
LJ          -3.43987         1.51003         2.23339
LJ           1.38156         3.45381        -1.87267
LJ          -3.02708         2.63568        -4.94554
LJ           2.40331         2.35112         5.33177
LJ           6.27878        -2.91992        -4.11809
LJ         -0.724873       -0.971073        -3.03329
LJ          -3.92072        -4.92349         5.42359
LJ          -1.03124        -1.34755         4.24491
LJ           1.33511         1.57936         3.93171
LJ           4.73058        -3.21427        0.447349
LJ          -6.42592          5.3687         1.66282
LJ           2.22122         3.02534        -3.71079
LJ            2.9524         3.87477         1.52805
LJ          -5.20927        -1.94475        -2.87428
LJ           3.46783        -1.25152         3.68011
LJ           4.47194         1.97457        -3.75706
LJ           5.95755         3.34796         4.60504
LJ          -4.96376         3.87749          2.2251
LJ          -3.94242        -2.55854        0.550517
LJ          -2.03732          4.5491        -3.14993
LJ          -1.72203        -5.04917         4.80114
LJ           1.09171         1.75573        -4.21103
LJ          0.195755         1.91966         2.95268
LJ          -4.28368        0.510379        -2.29915
LJ          0.660027        -2.01512         1.68446
LJ          0.818921         5.61539         4.34264
LJ           2.91406        -3.01769        0.503776
LJ           2.62213        -1.29283        0.482114
LJ          -1.82533         4.21894        -4.21302
LJ          -2.69598        -1.88225         1.61771
LJ             5.947         1.25884         3.99999
LJ         -0.426936        -5.35216          4.2674
LJ          -4.96525         5.68657        -6.28066
LJ          0.166678          4.3782           4.476
LJ          0.417997         4.78256        0.635973
LJ           1.86465        -2.11401         1.26683
LJ        0.00792407         1.48316        -2.00564
LJ          0.519631        -3.68271         1.99654
LJ           1.61601         1.56399        -2.08892
LJ           3.85835         6.18303        -2.54416
LJ           4.84222        -6.01378       -0.534778
LJ            2.0892        -1.99694         5.05366
LJ            4.4248        -3.17296        -2.60368
LJ           2.22974        -5.81527        -1.58805
LJ          -1.27028         2.28594        -2.94828
LJ           3.16287        -1.59731         5.77285
LJ          -1.34382         3.16438         1.51016
LJ           1.15419       -0.571354         3.10501
LJ          -6.04217         2.97122          1.9495
LJ          -4.91006        -2.36154        -1.29638
LJ           5.84881         3.33936         3.08422
LJ           -1.1319         2.71408        0.617728
LJ           5.33898        -6.00616        -2.27756
LJ           2.05691         1.21497         2.25161
LJ          0.839454        -1.65349        0.452688
LJ           1.53325        -6.41424         6.35796
LJ           5.18145         4.60066         4.34772
LJ           5.20373         2.70348        -4.20846
LJ           3.88053        0.387029         1.11832
LJ          -2.53948        -5.91827        -3.63293
LJ           1.57291        -2.78492        -4.16866
LJ          -3.10932        -5.39729         4.18232
LJ          -3.62412         4.33182         1.23724
LJ           2.19913        -1.32134       -0.827522
LJ           -2.9189         1.47754        -3.16811
LJ           1.00533        -2.78693        0.994413
LJ          -6.14804         3.00133        -6.01481
LJ           -5.7502          1.8332        -1.70966
LJ           3.54909         6.04579        -5.81551
LJ          0.516603         2.94894        -1.17799
LJ            2.8008        -1.67585         1.51026
LJ           2.88913         2.02849          4.2336
LJ          -1.43925         5.87622        0.572856
LJ          -4.86427        -3.61909        -5.32796
LJ          -4.31004         2.84492        -5.48012
LJ          -2.39138        -3.06453        -5.71781
LJ           4.71899        -1.71714        -4.48249
LJ           4.25645        -1.17477        -3.39999
LJ           3.69743         3.31087        0.831439
LJ          -6.31984         2.50923         3.62856
LJ           2.70715        -6.09671        -2.44357
LJ          -1.73695         5.43565         2.82625
LJ          -2.63449        -5.15765         3.02192
LJ           6.31688        -6.22087        -1.32628
LJ           2.44152         1.80356        -4.53273
LJ          -5.01353         5.07401         4.92588
LJ           1.64887         6.43219        -0.97237
LJ          -4.04837         5.21796         4.00018
LJ           2.82435         -5.3669        0.549905
LJ          -3.24133         5.89241        -0.73498
LJ          -4.28669        -3.39122       -0.882657
LJ          -4.42628        -1.88051         2.60883
LJ           5.35439         -2.3449         -3.7105
LJ          -4.34448       0.0301664         0.93164
LJ          0.959293        -5.60134       -0.708828
LJ          -6.08147         4.41974        -3.31706
LJ           1.01852        -3.24636       0.0415939
LJ           5.35649         4.33405         2.28857
LJ          -3.23323         -1.8358        -1.53558
LJ           5.43688        -2.37085        -5.54382
LJ           1.55405         5.82637        -5.64446
LJ           -5.0605         -4.0056         6.03903
LJ          -4.09276         6.12785         2.49168
LJ          -1.73997         2.39128         -5.0585
LJ          -3.35805         5.47053        -1.61545
LJ            6.4604        0.651275         0.36531
