108
#Comment!
LJ          -2.05176          1.3298         3.73806
LJ          -1.72005        -6.13216        0.675255
LJ          -3.75295        -5.66489         4.58441
LJ           4.29743         3.38315        -3.60495
LJ           5.73683         5.28524        -3.14044
LJ          -1.48315        -2.34217         4.51187
LJ           4.53098          -6.381        -4.85791
LJ            3.1139        -3.17797        -4.85182
LJ          -3.65054         2.88435         5.49556
LJ          -5.76261         1.18393        -5.91505
LJ           4.13273        -2.93704         5.95827
LJ          0.534991        -1.96336        -2.17382
LJ          -4.62794        -1.42615        -2.61564
LJ           1.12936         6.31536        -6.45146
LJ          -4.23404        -1.05901        -1.26124
LJ           -5.6363         4.26008        -2.89793
LJ            1.6697        -3.68624        0.560567
LJ           6.43072        -5.28694         1.37204
LJ          -4.36782         5.27789        0.207931
LJ           2.87975        -5.29863         -2.1714
LJ          -1.86641       -0.734647         3.90596
LJ          -1.06219         1.82698         -0.6466
LJ          -2.75302        0.697403        -5.69573
LJ          -2.19152         1.58633         4.95205
LJ          -2.35507        -3.45534        0.716905
LJ           4.71426        -3.12854         2.27607
LJ          0.864295         2.17704       -0.284369
LJ           4.76963        -2.76319        -5.36593
LJ           3.52533        -2.25528        -0.68347
LJ           2.43792         5.50992         4.04463
LJ          -4.73903         2.46207        -4.99158
LJ           5.67685         1.16577        -5.53594
LJ           2.72466        -1.73135         2.00978
LJ          -2.25931        -2.05296        -2.77896
LJ           4.06498        0.375005         1.62799
LJ           3.72823         6.31455        -1.76292
LJ          -3.81113         5.37969        -4.26026
LJ           4.95709        -2.25829         5.82903
LJ           4.88633        -2.16571        0.761634
LJ          -3.82843        -1.17129        -3.31441
LJ           4.41007         1.16839        0.928866
LJ          -3.05085         0.22978        -1.30148
LJ          -2.53675        -1.23034         1.59235
LJ          -6.15664         2.93813         -6.2498
LJ           1.88714        -1.72903        -5.23614
LJ           1.90163         5.44587       -0.378937
LJ           4.16366        -3.27934        -4.19392
LJ          -4.94953        -3.49569        -2.60929
LJ          -2.58614         1.56297        -1.35463
LJ          -3.46624        -2.72559        -4.83211
LJ           4.32519        0.565937        -1.28479
LJ         -0.444656         1.76296         2.12812
LJ          -3.89693      -0.0971999        -4.44137
LJ           6.04705       0.0630757        -4.33972
LJ           5.15049         5.08906         3.63622
LJ          -3.89315        -5.12183         5.53095
LJ          -5.73337        -1.50693         5.00903
LJ          -2.79428        -6.42293         -5.1223
LJ          -3.60468         -2.8924         -3.5536
LJ          0.317236       -0.346979         -4.7431
LJ         -0.278112         4.55617          6.1544
LJ          -2.11871          4.1525         2.50952
LJ          0.439015       -0.111869        -2.10006
LJ          -2.07766         4.92186         1.78544
LJ          -2.10732         2.30189       0.0429972
LJ           2.68375         4.27298        -5.36247
LJ          -4.37927         4.05567        -1.10339
LJ          0.367883        -1.69727        -5.13441
LJ          -4.59005       -0.705338        -4.90102
LJ           4.14341        -5.53442         3.85934
LJ         -0.992165        0.204579         3.16962
LJ          -3.75285         4.70322         3.31485
LJ            3.4191         3.47517        -5.46724
LJ           4.76987         6.38175        0.992025
LJ          -4.13332         5.94143        -5.46076
LJ           2.17694         4.13981         2.34771
LJ          -5.86679        -4.03155        -2.47872
LJ          -2.61004         6.16881         3.68393
LJ          -3.61651         2.98275        -4.56027
LJ          -1.47229         1.05479         1.95026
LJ          -3.25338         6.27074        -1.45162
LJ           6.44077         1.26897       -0.191896
LJ         -0.703753         5.98586         1.78244
LJ         -0.702508         4.65501        -5.59153
LJ          -2.73382         4.20751        -6.39446
LJ           2.82914         5.25749         5.39238
LJ           3.86295         5.38596        -1.08409
LJ          -5.74576          -3.798        0.330597
LJ         -0.604362       -0.818615        -4.93547
LJ           1.15323         5.40271         5.45783
LJ             1.632       -0.564101        -2.00439
LJ          -3.91902        0.236425        -3.45797
LJ           5.29029        -3.43251         5.98788
LJ           1.88765         3.07922        -3.59217
LJ           -6.3926        -2.98862         4.61335
LJ           4.01741        -5.17957        -1.20167
LJ             2.713         5.46569        -4.77528
LJ          -3.17445        -5.71065       -0.922129
LJ          -4.03984         5.16899         -1.3409
LJ           1.88481       -0.468852         5.00133
LJ          -2.90019         4.80422          2.3141
LJ           5.40512        -3.62006         3.90564
LJ          -1.21388        -1.40746         2.05084
LJ          -1.48217        0.545372        -4.88897
LJ          -2.76996         4.36417          1.0026
LJ           4.36052       -0.953071        -5.03234
LJ           3.77552         2.36973         2.40451
LJ          -4.75344        -4.91006        -4.86724
