108
#Comment!
LJ         -0.630091         3.37349         -4.5289
LJ          0.381388        -2.38833         5.09357
LJ           1.04135         2.91479       0.0118161
LJ            4.3095         5.32705        -4.11987
LJ           6.45327        -1.94088        -2.12433
LJ           5.22138         1.08344        -4.94515
LJ          -4.84539        -3.22456         5.94335
LJ           1.42019        0.395001         1.57012
LJ          -3.16829       -0.227853         2.45134
LJ         -0.592804         0.83883        0.455299
LJ           3.99589        0.629283        -4.07322
LJ           -5.3129         2.28436         6.29507
LJ           4.10568        -1.34473         2.01923
LJ           4.32343        -4.48223         -5.7362
LJ           3.02481        -1.38071        -1.74375
LJ          -1.53646        -3.30265        -1.27296
LJ           1.60276        -3.92678         1.48662
LJ          -1.42173        -1.62318         4.23574
LJ          -3.66278         -5.2115         3.11625
LJ          -5.05823         2.15127         4.60255
LJ          -4.12461        -0.53137         3.28156
LJ          -6.25151        -1.64825         0.99428
LJ          -4.73402       -0.128982         5.02198
LJ           1.50086        -1.10524        -2.14842
LJ         -0.108937         1.67875        -5.46915
LJ          -1.97434        0.921115        -4.22301
LJ           0.86347        -4.61682         3.32678
LJ          0.652478         5.78569        -3.76581
LJ         -0.559998        -1.42273         1.40547
LJ           3.00056         5.84749        0.641256
LJ          -1.30642        -5.55004        -5.54038
LJ           2.76709         6.29492         2.86804
LJ           5.30454        -3.92021         6.42811
LJ          0.397153         1.45229         1.11392
LJ          -2.67906         5.15731         2.76619
LJ          -3.92852         3.92372       0.0314016
LJ         0.0870147         5.02762        -4.21643
LJ           4.06258         -5.2615      -0.0735506
LJ           2.79124        0.508981         2.91905
LJ           4.38168        -5.70573          3.4142
LJ          -1.54047      -0.0129719      -0.0840445
LJ           3.30549        -4.82113         4.11279
LJ            4.9549        -6.17708       -0.903974
LJ          0.922662        0.205503         6.20079
LJ           3.78401          2.2753        -4.30337
LJ           1.87431          3.9079         5.96873
LJ         -0.270787        -5.35247        -4.42419
LJ         -0.471708         5.69273        -6.11985
LJ           5.37773         6.19484         3.90545
LJ           0.31282        -6.15964        -1.61091
LJ          -3.66602        -6.18999         4.18979
LJ          -4.28345        -3.30181        -4.63517
LJ          -2.62622       -0.846104         6.00335
LJ           5.51464        -5.35401        -4.24989
LJ           5.09168        -1.31347        0.195442
LJ          -6.31717        -6.38412         2.09071
LJ           3.57185         3.32385         3.54779
LJ           1.86662         1.18475         6.35852
LJ          -2.06067         2.10511         3.45604
LJ          -1.95646         5.48199         4.19037
LJ          -1.17347        -2.17324        -5.17678
LJ          -6.44758        0.776371        -5.39577
LJ            6.2523        -5.03535         2.96403
LJ          0.077476        -5.50333        -3.14407
LJ          0.785489         3.77578         4.11361
LJ           2.16283       -0.921957        -3.94615
LJ         -0.126697        -1.98695        -5.21753
LJ          -3.75386         2.93723         6.14388
LJ          0.144157        -2.61462        -1.44719
LJ         -0.837018        -4.76059          4.7221
LJ          0.481359         5.46698         2.00584
LJ           2.90445       -0.706398       -0.151464
LJ           4.32838         6.11359         2.83199
LJ          -5.31361          2.4964        -2.86879
LJ           1.29967        0.551778          2.7579
LJ          -2.39461        -6.25915        -4.43654
LJ           -1.3574       -0.489041         2.86996
LJ           1.18965         5.48958        -4.66431
LJ         -0.724445         5.84385        -2.07495
LJ          -3.88551         -1.9965        -1.61337
LJ          -1.57022        -5.08903         3.55971
LJ           5.77609         4.65882         4.97206
LJ          -1.66136         5.23731        -6.14662
LJ          -3.67299         2.22679        -5.21773
LJ           5.02552       -0.087567        -3.02561
LJ          -3.76448        -2.37556         1.45573
LJ           1.85752         5.02488        -3.63294
LJ          -1.18706       -0.587836        -4.42628
LJ          -1.52814        -4.58681        -4.00522
LJ          -3.03876         2.82747         3.88904
LJ           4.77169        -4.51859         2.76632
LJ           1.36658        -1.32945        0.627814
LJ          -2.59343        0.693423         5.82624
LJ          -2.70044        -6.07487        -2.53152
LJ          -1.04438         3.24579         3.22587
LJ           2.12974         1.62403        -2.58428
LJ           1.31143          2.9391        -6.44687
LJ          -1.82845        -2.33771         -4.1992
LJ           5.33587          3.1698        -4.72608
LJ           -4.2242        -0.35091        -4.25934
LJ           6.33372         0.53199         1.41866
LJ           4.73016         1.56569         3.79802
LJ           3.76657        -4.21952          2.9405
LJ          -5.20888         5.59176         2.93853
LJ          0.650983        0.828921        0.352217
LJ         -0.132979        -3.23775        -2.31031
LJ           5.82637         6.38528        0.347316
LJ          0.802525       -0.333514         5.11101
