108
#Comment!
LJ          -1.78043         2.18904         3.37723
LJ          -1.33861         6.23618         5.64959
LJ          -1.07538        -3.61149         4.88431
LJ          -5.16899          5.0533         -0.9902
LJ           2.19494         6.05711        0.387194
LJ         -0.114322        -3.99505         3.62195
LJ           3.22621         6.21188        -5.07621
LJ           3.97918        -5.42988        -4.08659
LJ           -3.4732         2.33285         4.27753
LJ          -6.10493         2.20736        -3.75875
LJ           1.40828        -2.83325        -3.99322
LJ           1.15613        -3.09189        -3.05239
LJ          -3.48921         -3.2782        -1.48303
LJ           4.27264        -4.95623         6.24153
LJ          -2.39322         -3.2125        -3.32253
LJ          -4.88944         2.54487        -3.91833
LJ          0.639154        -3.78145         -2.4848
LJ           4.35874        -6.06922         1.04064
LJ          -4.55965         1.23416        -1.82885
LJ           1.39344        -3.48584         -5.9835
LJ         -0.975185         2.83511         1.42633
LJ          0.849502         1.39746         2.23621
LJ          -3.67706       -0.495997        -4.20312
LJ          -1.83773       -0.112046         6.27026
LJ          -4.27738         5.63155        -1.13554
LJ           4.78084        -5.09887         1.72438
LJ          -6.01879         2.94282         2.77581
LJ           6.27771        -4.72675         6.19078
LJ           2.55836        -1.61534           1.452
LJ            2.8437         5.68042        -5.98697
LJ          -6.37627         1.02131        -4.02346
LJ          -5.25017         1.88558        -4.54782
LJ           4.30065        -3.81602        0.292762
LJ           -3.8381        -2.97364         -3.3621
LJ          -4.92383        -1.34938         3.11728
LJ           2.08099         5.98412        -4.28575
LJ          -4.61386        -6.01946         6.38547
LJ           3.77713       0.0686039        -5.19529
LJ           1.41237        -2.17759        -1.80225
LJ          -3.02624        -2.73636          -2.522
LJ           4.01956         4.39625        0.620336
LJ          -2.68047       -0.439389        -3.75951
LJ          -2.07983       -0.155382        0.818126
LJ            -4.545         3.93522        -4.43672
LJ           3.04494        -3.30821          6.1276
LJ          0.123921         2.33496        -1.73659
LJ           5.38847        -6.41495        -3.79343
LJ          -2.66107        -5.29171        -2.82741
LJ          -3.24805         3.08645        -4.02187
LJ          -2.64031        -1.57763        -1.05323
LJ           2.89778         4.37395         1.58296
LJ         -0.941492         1.29997         4.19105
LJ          -2.85824       -0.271812        -5.03093
LJ          -6.40205         -1.7547        -5.48594
LJ            4.0777        -6.13476         4.17075
LJ         -0.583844        -5.02115         5.43271
LJ          -4.65683         2.47793         5.20266
LJ          -5.73993         4.67338         5.93244
LJ          -4.66629        -3.81732        -6.33722
LJ           2.93809        -2.84699        -5.18836
LJ           1.83649          5.7723        -6.19865
LJ          -3.14327         4.43759         1.28997
LJ          -3.11758         3.73922         2.36332
LJ           1.40865         3.76337        0.637566
LJ           6.28242        0.310803       -0.456407
LJ           3.19819         5.93733        -2.86497
LJ           5.06273         3.49798      -0.0567812
LJ          -3.25995       -0.755099         4.11527
LJ          -3.88623        -1.51269         -6.2348
LJ            1.3301        -1.22168         2.25178
LJ           0.23906         2.28465         1.80861
LJ          -1.94628         5.42373         3.78783
LJ           1.38801         1.65949         -3.5786
LJ          0.297075         5.16302         5.35673
LJ          -2.39426          6.0119          2.2804
LJ           6.35825         1.83459         2.37629
LJ          -3.41795        -4.08863        -3.30002
LJ          -4.54852        -3.79738         3.56846
LJ         -0.210291         3.05589        -3.39905
LJ           -1.0547         1.17667         2.92573
LJ          -3.45089         6.32408        -3.10656
LJ          -4.74711         1.47011       -0.117482
LJ          -1.72257         3.82905        0.673471
LJ           3.67234         5.92655         5.58731
LJ          -3.07843         2.67652         5.50797
LJ           4.84144         5.89794         4.82187
LJ           3.04569        -5.61416        -2.99062
LJ          -3.94914        0.580841         2.33213
LJ          0.930857        -5.07255        -5.25584
LJ           2.90124         3.87671        -4.47789
LJ           1.57757        -1.25822        -2.54013
LJ          -3.51261        -1.93598        -1.58618
LJ          -6.06741        -3.19529         3.73973
LJ           1.92501        -5.57475        -4.11437
LJ           4.76104        -1.75888         3.80066
LJ           4.41659         -6.3261        -3.29754
LJ            3.4387         3.01447          -2.542
LJ           -3.7206         5.27018        -3.61746
LJ           5.49957        -6.26349       0.0431688
LJ          -1.84077          5.1147        -5.53703
LJ          -2.17883        -6.15256          4.9925
LJ            3.6915       -0.981956         3.00274
LJ          -3.84059        -2.37237         3.68226
LJ           1.80895       -0.027331         5.93169
LJ           -2.5092         4.02342         4.18634
LJ           3.00462        0.203124         5.47008
LJ           4.28144         4.62491         4.04376
LJ           -5.9385         -5.7935         6.44205
