108
#Comment!
LJ           3.70264         4.22417        -4.42063
LJ           1.24108        -3.04036        -3.64863
LJ          -6.11686         2.34486       -0.711587
LJ          -4.08946         5.90686        -3.15012
LJ           2.54509        -5.39238         4.87058
LJ           4.37745        -1.88091        -4.49162
LJ          -4.01765        -2.97643         5.49652
LJ           3.56301         1.31435        -4.43846
LJ          -5.57761         2.16455        -3.15004
LJ          -3.78731        -2.55199         6.36993
LJ           3.93415        -4.92312         4.37892
LJ          -3.51423         4.06208         4.87149
LJ           0.52639        -5.73481         2.09739
LJ           3.97791        -6.27499        -3.47911
LJ           1.93317         5.46339        -2.78636
LJ            -6.052         3.03732        -3.19268
LJ           3.92996        -2.16127        0.950298
LJ         -0.215441         3.23324        -5.64958
LJ          -1.51011        -2.59931         4.52649
LJ           3.96287         3.10178         6.11801
LJ          -4.09665        -1.90806          5.5844
LJ          -6.04568         3.57942          1.9368
LJ          -4.59814         2.69565       -0.281267
LJ          -4.64607         1.61261        0.635959
LJ         -0.155184         2.37315         1.18974
LJ         -0.526646         2.97454         5.61904
LJ           2.81728        -5.81027          3.5767
LJ           2.39326         1.27865        -4.96588
LJ          -2.31867       -0.269164         5.36484
LJ          0.295096         2.08281         2.67688
LJ          -1.80742         5.65753        -5.69156
LJ          0.284106         4.41642         3.53973
LJ           4.23026          -6.367        -2.17952
LJ         -0.662248         2.14834        -1.04829
LJ            2.2102        -2.53713        -3.92577
LJ          -4.34589         3.92269        -1.77117
LJ          -1.10854        -1.29135        -3.12804
LJ           4.47865          4.6216        0.827788
LJ           2.70125       -0.550929         -5.0894
LJ          -5.70427        -6.27139         6.25527
LJ           2.17092        -4.28999         5.91978
LJ          -3.77308        -3.36569         3.24233
LJ          -5.42154        -5.47864        -1.74465
LJ           5.37734         1.85623         2.82142
LJ           3.24959        -2.70444        -3.98392
LJ            3.4416         2.54995         1.67156
LJ           6.29286         5.01939         4.25331
LJ          -2.85919        -4.43129         5.52008
LJ           4.53136        -5.83909         5.05767
LJ           1.57368         6.23241        -1.30994
LJ          -1.35744        -3.67764         -5.5572
LJ          -5.98636        -4.40801         4.52425
LJ           1.64275        0.630463        -5.11702
LJ         -0.182853        -3.97281        -4.85659
LJ          -6.43005         3.95986        -1.41762
LJ          -3.36357        -6.19366         1.68518
LJ         -0.203197        -5.60313         3.59973
LJ           1.75357        0.938005         3.90412
LJ          -1.33203         6.15322         1.55127
LJ          -6.33661         2.66823         5.78239
LJ          0.143126         4.22436        -5.43273
LJ          -4.97948         2.31805        -4.84428
LJ           5.75023        -4.17801       -0.244974
LJ           1.64069        -6.43924        0.378596
LJ          -4.87323        -5.12692         5.47198
LJ           3.24564        -3.42179         4.44094
LJ          -6.26315        -1.30414         4.30677
LJ           4.74795          2.3888         -6.0113
LJ           1.60328         2.93511         -6.4388
LJ          -2.93834         -3.4625        -6.15551
LJ          -3.73183        -1.75117         4.12593
LJ           1.72032         -2.2242        0.285823
LJ          -2.37551         -5.9819          3.3578
LJ          -2.68917          5.3681         3.00358
LJ          -3.15519        -5.40314         2.91424
LJ          -1.03455         5.48795         6.38272
LJ           -4.0684       -0.502251        0.882555
LJ           3.22444        -2.41749         2.86143
LJ           -4.4238         2.96661        -4.16965
LJ          -5.64547          -2.338         1.97103
LJ          -2.48619        -5.13825         4.67073
LJ           6.15718         4.77711        -6.43087
LJ            -3.473         4.31483        -4.63613
LJ          -1.26461        0.433121         4.40378
LJ           3.02714        -3.82819         3.50322
LJ          -4.90302        -2.33065      -0.0366942
LJ           5.80841        -4.93272        -4.33027
LJ          -1.44844        0.524678        -2.53875
LJ          -4.60069        -3.89515        -3.07934
LJ         -0.740428         6.24997         2.72911
LJ          -6.32953         5.75259         1.50921
LJ             2.401        -2.99173       -0.119127
LJ          -1.36694        -2.12153        -5.32971
LJ          -5.15556        -4.08979        0.186059
LJ          -3.83775         2.31497         6.15511
LJ           1.05121         1.97737        -2.65877
LJ           1.35022         3.69781        -4.78024
LJ         -0.030342        -1.23603        -3.53708
LJ           5.76183         1.43708         3.85859
LJ          -2.99979        -1.78688         5.87487
LJ          0.564772         2.13411        0.437908
LJ           3.64357         3.59752        0.993137
LJ          -4.65045        -4.49082         4.01781
LJ          0.390951         -5.3504        -4.93536
LJ           1.47913        -3.67473       -0.592585
LJ          -3.71856       -0.334032         5.27224
LJ           1.73919         4.29478        -1.40043
LJ           4.56792         1.52164         3.71731
