108
#Comment!
LJ           1.69418         3.70247        -4.99701
LJ          0.666297        -2.62924        -4.84061
LJ           4.80423         2.60803       -0.408409
LJ          -6.16899         4.50327        -4.30064
LJ           3.22253         -2.8592         0.49899
LJ           4.96386       -0.257289         -4.6507
LJ          -4.07279        -3.00355          5.4679
LJ           1.56847        0.439137         5.04377
LJ          -4.27146          1.5307         5.66638
LJ          -1.61979        -1.60356         -3.4681
LJ           4.08961        -1.92624        -5.80485
LJ          -3.71931         2.91975        -6.32684
LJ           1.41514        -3.84218         2.34792
LJ           5.41748        -5.57997        -4.37538
LJ           2.73514         2.11722        -2.02637
LJ           -3.9676         6.26404        -2.46154
LJ           3.20732        -3.35904         2.39776
LJ          -1.78339         1.16709        -6.20042
LJ          -2.89899        -4.53333         3.39464
LJ          -6.05329         2.41993         6.04247
LJ          -4.14327        -1.26724         4.47573
LJ          -6.28286         1.00913         1.43366
LJ          -4.42105         2.26023        -2.56459
LJ           4.88877        0.568147         -0.5114
LJ         -0.405629         1.92817         4.17931
LJ          -1.18895         2.38439        -6.01109
LJ           2.35736        -5.37848         3.21446
LJ            1.7615         3.47594        -3.89463
LJ          -1.48343        -1.08957         3.61745
LJ            1.1164         3.38421         1.08354
LJ          -1.80247         5.45335        -5.38233
LJ           2.24276         6.19517         3.33393
LJ            4.3667        -6.00157         -4.4476
LJ          0.358176         2.43749         0.58169
LJ          0.391056        -5.00922         5.76469
LJ          -4.78943         3.82412       -0.489024
LJ           -1.3433         2.76342        -4.47642
LJ            4.2105         6.16125        0.488408
LJ           2.56997       -0.496634         5.17384
LJ           6.18825        -6.41063         4.92626
LJ          -0.66831         -2.2945        -4.13993
LJ           -6.3643        -3.82626         4.03173
LJ           6.35966        -5.79415        -1.46842
LJ           3.98684        0.940796         4.70162
LJ           3.59139       -0.196156        -4.10373
LJ           2.64709         3.60027         3.06881
LJ          -3.67924        -6.06104         5.92262
LJ          -1.77344         6.40226         5.47019
LJ           4.76695         6.15691         4.39467
LJ          0.775796        -5.59617        -1.43703
LJ          -2.21622        -4.48988         5.30191
LJ          -5.38602        -4.40319         6.35821
LJ         -0.446435       -0.581336         -5.2665
LJ          -3.80105        -5.19734        -4.98895
LJ           5.93677        -5.24692       -0.414947
LJ          -4.72616        -6.15669         2.03373
LJ           0.82018         5.11662         3.83103
LJ           2.75918         1.74515         5.95511
LJ          -2.26041         4.74315         2.73362
LJ          -3.97745         3.13176         5.37282
LJ          0.107118        -5.55514        -4.75773
LJ          -5.82691         3.27157        -4.79966
LJ           6.33777        -4.50654         1.18324
LJ           1.05767         6.13946        -1.27067
LJ         -0.825377        -6.35475         6.10457
LJ            2.2348        -2.12277        -5.66641
LJ           3.85099       -0.723452         5.58605
LJ           5.78456         2.51469         5.67713
LJ           1.24315       -0.314551        -4.72826
LJ          -2.49167        -4.82476        -6.37543
LJ          -1.52571        -3.91765         3.47707
LJ           3.06067        -1.54994        0.136128
LJ           1.16873         5.85048         2.82572
LJ          -4.26859         2.79387        -1.62798
LJ          -0.91835         4.06736         3.38573
LJ          -1.45245        -6.29283        -5.27858
LJ           -3.5429        -0.96274        -0.83206
LJ           2.36995         -4.4941         5.05068
LJ          -2.28533         2.89373        -4.80925
LJ          -3.75076        -1.77066     -0.00185705
LJ          -2.90622        -6.19923         5.30899
LJ           5.99308         5.54753         5.26132
LJ          -2.79213          5.6482        -6.26441
LJ          -2.79993         2.52573        -5.91355
LJ           4.18594        -2.74015         5.91981
LJ          -5.05131        -2.05306        0.514451
LJ           3.34009        -5.40341        -3.77209
LJ          -1.48918        0.306173        -3.10125
LJ          -2.60036        -3.20925        -4.50731
LJ          -1.70195         4.06696         1.72221
LJ           5.44151        -5.94294         2.08319
LJ           2.11279        -2.51408        0.123831
LJ          -2.40857        -1.81505        -5.73165
LJ          -3.55085        -5.49527       -0.813308
LJ           -2.6316         3.00856         4.83639
LJ           1.23855         1.72798        -2.66571
LJ           1.20698          3.1103        -5.89512
LJ          -1.08218       -0.923381        -4.04219
LJ           4.10698         1.76078         5.89586
LJ          -3.43011       -0.859513        -2.67155
LJ           3.55274         1.56138          1.2539
LJ           4.49185         2.87764         2.33384
LJ           5.38947        -4.31803         3.01574
LJ           3.66919        -6.03038         6.16461
LJ           1.23254        -1.87914       -0.099956
LJ          -1.20956        -1.52713        -5.28496
LJ           3.68763         5.05306       -0.882674
LJ           2.90263        0.994913          4.4716
