108
#Comment!
LJ          0.750215         6.29129         3.98143
LJ          -1.54258          5.0799        -4.42439
LJ          -2.83659        0.498549        -2.02794
LJ          -6.05123        -3.52234        -2.34438
LJ           4.17525         3.36223        -5.63415
LJ          -2.71141       -0.385779         4.93946
LJ           -5.0415          4.7598         2.51395
LJ          -5.61979         1.35998        0.822978
LJ         -0.741693        -2.49569         5.07243
LJ           1.41939       -0.900484        0.374812
LJ          0.167545        -3.27107        -3.44253
LJ           6.43168        -2.54065         2.94334
LJ          -5.65791         3.22886         5.29163
LJ          -3.78758        -0.77538         6.38899
LJ          -3.89045         3.36462        -1.71201
LJ          0.756731        -1.38699        -3.36165
LJ           3.40267        -2.20937         4.22212
LJ           3.39515        -2.28694          6.0471
LJ           3.92668        -1.58469         0.74484
LJ           4.73626         2.53538         4.61308
LJ          -1.08101        -4.40083        -5.02093
LJ          -2.68844         5.69583        -3.91803
LJ           0.55469        -4.79394         3.72829
LJ          0.956698        -4.08232        -2.66284
LJ          0.407489         4.56529         4.23272
LJ          0.389364         -4.9015         1.28433
LJ         -0.781226        -3.15646         4.17377
LJ          -1.90762         2.75417        -1.12451
LJ          0.585962        -2.85071        -4.51489
LJ           6.07871         5.46768         5.24003
LJ          -3.71316         1.49395        -1.51185
LJ           4.74469        -1.28224        -1.48247
LJ          0.457128        -2.04077         3.25178
LJ           0.29763        -4.95206        -5.41521
LJ            4.0251        0.512414        -6.09284
LJ           5.02095         2.79656        -6.40504
LJ         -0.218142        -4.20082        -4.45642
LJ           2.44026         1.88812         4.02867
LJ          -5.82809         2.39144         2.56521
LJ          -4.83393        -3.70345        -4.04434
LJ           4.41908        -4.40581         4.85243
LJ          -2.19325         6.02667         2.70654
LJ         -0.297847         3.68188         3.19272
LJ           3.98271        -1.34694         4.78923
LJ         -0.975944        -5.20497        -3.90935
LJ           2.33927         3.74033          5.1458
LJ           2.47541         -3.8115         6.24773
LJ           5.17778         2.74256         2.89922
LJ          -6.27155         5.42246        -3.16519
LJ          -2.78454         2.61166        0.208105
LJ           -5.1833         1.11965         6.08098
LJ           2.22077        -5.53159         6.43107
LJ          -2.79792         1.70198         2.91045
LJ          -2.66978        -2.71645        -3.86923
LJ          0.974656        -3.77895         6.29786
LJ          0.946442        -4.91142       -0.417407
LJ           1.48083        -5.79522          5.7581
LJ           5.99077       -0.973107        0.585301
LJ           4.48219         5.40758        -2.48752
LJ           5.80706        -5.27571         2.94423
LJ          -1.44036         5.08552       -0.648077
LJ           2.16869          1.5804         6.31544
LJ          0.868129        -4.60706         -4.5261
LJ          -6.05432        -3.23774         1.57194
LJ           2.47392         -5.5635         2.83722
LJ           1.38919        -3.72603         1.25293
LJ          -6.09692        -2.90996        -1.46456
LJ          -1.72899        -3.69542        -4.33082
LJ          -5.60108       0.0477484        0.664536
LJ          -6.36814        -3.77731         2.57195
LJ          0.906373        -2.64778         5.15735
LJ           -5.1277        -2.47072         3.62179
LJ              3.37         2.81346        -4.07548
LJ          -4.68446         4.37849       -0.718742
LJ            2.3699        -5.06092        0.408398
LJ          -5.16211        -5.05735          3.6836
LJ          -2.31948       -0.809852         3.79696
LJ          -1.94282        -1.16819          5.0742
LJ          -2.26953         2.50309        -2.12654
LJ           3.45195         1.94121        -3.31002
LJ           0.30777          -1.144        -1.30706
LJ           3.15963         4.53093         5.25551
LJ          0.763844        0.861207       -0.889855
LJ           5.09588         -5.8267        -1.72604
LJ           5.43658         1.02803        -3.57346
LJ           0.74289        -6.04092        -4.35513
LJ          -5.17255        -5.89569        -2.89834
LJ            5.5186        0.939093        -5.49032
LJ          -1.32785         1.18955         3.49646
LJ          -6.40723        -1.36049        -6.28923
LJ          -5.78297        0.701381         3.45342
LJ          -3.61244         4.41369        -1.18479
LJ          -0.43254         -3.1837        -5.79827
LJ           1.54842        -6.29467           2.127
LJ          -5.26061         1.44567         2.28855
LJ           4.71988         3.39043         5.67091
LJ           2.03228       0.0864356        -6.12355
LJ           6.24481         5.60439        -6.27743
LJ           4.65454          3.8626         3.94021
LJ          -2.48164        0.867538         3.62289
LJ           -4.0948         -1.9486        -3.27769
LJ          -3.63427       -0.225805       -0.904167
LJ           3.74852         5.34086        -3.14252
LJ           4.22701       0.0768437        0.589829
LJ         -0.218136        -3.15465        -1.86002
LJ           2.55914        -3.50553        -4.58973
LJ           -6.1004        -1.31733         2.64906
LJ           5.78938         1.67351         2.01527
