108
#Comment!
LJ        -0.0131689        0.377931         1.41967
LJ         0.0645003         4.17955        -1.47983
LJ          -4.89824         6.15568          -5.938
LJ          -1.72165         2.03265        -6.12657
LJ          -3.74271         5.14189         5.69898
LJ          -2.21052        -2.63658         5.44806
LJ          -6.25181         6.06656        -5.77949
LJ           2.03103       -0.557211        -5.28296
LJ          -2.88647         4.10006        -5.86029
LJ           5.85487       -0.436805        -6.40378
LJ           2.12704        -1.22647         3.46555
LJ         -0.051414       -0.226712        -1.92278
LJ          -4.67801       -0.100882        -2.05745
LJ          -3.56042         5.09507        -5.82115
LJ           5.12199        0.912552        -3.60701
LJ           4.74314          4.3175        -5.24271
LJ           3.05844         -3.2661         3.85747
LJ          -5.10508        -3.82082        0.600517
LJ          -2.85298        -2.96259        0.713385
LJ          0.573618        -2.38336        -1.53827
LJ          -3.55256        -1.84469         3.51818
LJ          -3.83987         3.97762        0.490539
LJ          -1.96535         2.51278        -4.52939
LJ          -3.33432         3.90468         5.51239
LJ          -1.59612        -2.78566         2.81927
LJ           4.61299        -2.34106         5.05459
LJ           -3.1472         1.32449        -6.20572
LJ           2.46604        -1.55828         4.89113
LJ            4.1558         -2.8863        -3.47481
LJ           3.92315         3.48275         1.79954
LJ           -5.7298         3.39001         5.45474
LJ           -6.4412       -0.108514         -4.7043
LJ           2.12357         1.36129         1.84521
LJ         -0.758348         1.36956        -3.60528
LJ          0.440967         1.55741         2.97497
LJ          -5.20026        -5.51623        0.822581
LJ          -2.01561         2.71197        -2.11877
LJ           6.06056        -5.81303         4.82229
LJ              -5.5        -2.13411         3.23761
LJ          -3.50166       0.0656279        -4.71139
LJ           5.04357        -1.37501       -0.315121
LJ          -2.73224         1.64522        0.649534
LJ          -3.37557        -2.06896          5.7499
LJ           5.18126         1.44437         5.37421
LJ           1.85551        0.365997        -6.04863
LJ           3.64393        -6.21242         4.65895
LJ          -5.89088        -2.24262        -5.73301
LJ           6.30445       -0.821741        -1.65935
LJ          -1.65335         6.07297       -0.481334
LJ          -5.32052        -5.23009        -4.97361
LJ          -5.30673        -1.82189       -0.792633
LJ         -0.972986         3.53774         2.37924
LJ          -2.14269        -1.24148         -4.6857
LJ           5.97538          3.1772        -4.00447
LJ           6.38131         3.43182         3.72535
LJ          -5.56151          5.5675         5.49154
LJ           6.16702        -4.86471         4.36651
LJ          -1.77778        -4.76303        -3.04097
LJ          -1.29948       -0.784519       -0.301347
LJ         -0.847436         2.66699        -3.31501
LJ          -2.59661         3.86534        -4.27504
LJ          -2.88392         6.36955         0.23593
LJ           3.82435        -4.17019         4.85469
LJ          -5.07085         4.29957        0.758456
LJ           3.01257         2.89175        -2.21613
LJ         -0.202507        -5.63696        -5.96813
LJ          -3.07031         4.01221       -0.230956
LJ          -2.17852        -1.47217        -1.29784
LJ           4.89694        0.642201        -5.35067
LJ          -5.64179         1.85718         5.31142
LJ            2.2936        -0.20349         5.03104
LJ          -6.00873         4.53216         6.24225
LJ           5.10048        -5.83345        -5.80107
LJ          -5.26579         6.17895       -0.417777
LJ          -4.77593        -5.66119       -0.528306
LJ           3.80908         3.60823          2.9569
LJ           5.77586        -2.97362        -1.61121
LJ          0.152607         4.46975         2.83119
LJ           5.25707         2.27511        -3.84304
LJ          -3.60593        0.517079         2.42305
LJ           -2.9784        -3.37327        -3.36271
LJ           4.93401        0.903456       -0.834448
LJ         -0.263788        -5.63436         1.72101
LJ          -4.37508         3.92146         5.45296
LJ           -2.3866         5.82099         6.14457
LJ           2.44122         4.63692          3.1633
LJ           4.97299         3.79922       -0.600499
LJ          -5.21536        -2.72632        0.682997
LJ          -1.07531        -1.06331        -4.57222
LJ          -2.33511         5.76908         4.98847
LJ           3.39728       0.0183768       -0.353813
LJ          -2.40571         1.29125        -4.75521
LJ          -5.05433        -3.82404        -5.63847
LJ            4.1021        -1.23667        -4.13919
LJ          -4.87796        -4.53046         5.53222
LJ           5.39772        -4.94699         2.54543
LJ           2.52486         4.29806         4.99771
LJ          -4.66856         -5.4935         2.03678
LJ          -2.11628         5.13001       -0.397569
LJ             6.043        -5.60321         3.71877
LJ          -4.39823         5.11307         0.22861
LJ          -5.56796        -3.10206         2.21407
LJ          -1.89885          1.7174       0.0673761
LJ          -5.91188         2.95068        -5.64042
LJ          -1.68624         2.21765       -0.762077
LJ          -6.12648        -5.99467        -4.14457
LJ           2.25612       -0.735063         1.09023
LJ          -3.11942        -4.49077        -2.95875
