108
#Comment!
LJ          0.109344        0.477113         1.34588
LJ          0.204818         4.05285        -1.52668
LJ          -4.84285         6.25535        -5.74538
LJ          -2.03356          1.9633        -6.20111
LJ          -3.65311          5.2088         5.48441
LJ          -2.30155        -2.62442         5.46598
LJ          -6.09464         6.27968        -5.92952
LJ           1.95062       -0.394479        -5.33956
LJ          -2.75922         4.06789        -5.80984
LJ           5.79507       -0.514401        -6.34762
LJ           2.04276        -1.15556         3.35315
LJ        -0.0940838       -0.147693        -1.92366
LJ          -4.66901       -0.052671        -1.98482
LJ          -3.82436         5.04662        -5.87266
LJ           4.95623        0.814047         -3.6932
LJ           4.40777         4.28217         -5.3119
LJ           3.13109        -3.24486          4.0233
LJ          -5.13602        -3.69298        0.534776
LJ          -2.71197         -2.7899        0.764354
LJ          0.458995         -2.2047        -1.55608
LJ          -3.57944        -1.95297         3.50659
LJ          -3.81563         4.10672        0.521152
LJ          -1.94071         2.43808        -4.44647
LJ          -3.35226         4.08429         5.61494
LJ           -1.6262        -2.93936         2.90212
LJ           4.58301         -2.3373         5.20429
LJ          -3.28573         1.33441        -6.39943
LJ           2.36691        -1.46417         4.77311
LJ           4.06533        -2.95804        -3.60075
LJ           3.96935         3.37211         1.55777
LJ           -5.7082         3.33013         5.16907
LJ           6.42796        -0.20463        -4.67641
LJ           2.12504          1.4789         1.79196
LJ         -0.711229         1.58859        -3.64431
LJ          0.454491         1.64733         3.10769
LJ          -5.11619        -5.42109         1.16981
LJ          -2.09949         2.64683        -1.89426
LJ           6.12769        -6.01473         4.80531
LJ          -5.38537        -2.15979         3.31482
LJ          -3.50173        0.184514        -4.75588
LJ           5.05579        -1.48739       -0.371917
LJ          -2.77109         1.72905        0.812587
LJ          -3.45322        -2.10448         5.90895
LJ           5.11757         1.40087          5.3266
LJ           1.79242        0.423985        -6.08847
LJ           3.50577        -6.31399         4.91778
LJ          -5.75173        -2.28199        -5.95333
LJ           6.38529       -0.665618         -1.5163
LJ          -1.52342         6.06013       -0.304723
LJ          -5.26993         -5.2985        -4.99418
LJ          -5.14596        -1.86843       -0.698663
LJ          -1.02487          3.5629          2.3589
LJ          -2.09795        -1.28062        -4.67811
LJ           5.95302         3.15296        -3.97746
LJ           6.43787         3.38822         3.76924
LJ          -5.53731         5.43044         5.59702
LJ           6.12075        -4.86355         4.30379
LJ          -1.82106         -4.6728        -3.14546
LJ          -1.19554        -0.72797       -0.222639
LJ         -0.776701         2.67868         -3.3939
LJ          -2.73144         3.89645         -4.1754
LJ          -2.86962        -6.44642       0.0345843
LJ           4.00139        -4.30239         4.56918
LJ          -5.30235          4.3696        0.691559
LJ            3.2334         2.89991        -2.33238
LJ         -0.308149        -5.49315        -6.00012
LJ          -3.00012         4.01046       -0.234588
LJ          -2.26452        -1.42151        -1.07457
LJ           4.81842         0.75609         -5.4268
LJ          -5.53756         1.55892         5.25279
LJ           2.51572       -0.219298         5.11213
LJ          -5.98667         4.52144         6.39312
LJ           5.19749        -5.67141        -5.80598
LJ          -5.11926         6.18281       -0.389832
LJ          -4.74896        -5.67108       -0.471653
LJ            3.5603          3.3974         2.97414
LJ           5.73229        -2.92231        -1.55544
LJ          0.309002         4.51321         2.78278
LJ           5.09371         2.44032        -3.90641
LJ          -3.68133        0.483272         2.44251
LJ          -3.01039         -3.3365        -3.50002
LJ           4.87477        0.884043       -0.875096
LJ         -0.253463        -5.58389         1.72148
LJ          -4.50343         3.89012         5.41398
LJ          -2.42589         5.83669         6.32414
LJ           2.44882          4.5905         3.06181
LJ           5.02231         3.73623       -0.579598
LJ           -5.0968        -2.53787         0.76196
LJ          -1.03232        -1.06931        -4.52626
LJ           -2.4243         5.75166          4.9861
LJ           3.48731       0.0395818       -0.267676
LJ          -2.27767          1.3538        -4.92843
LJ          -4.97525         -3.8869        -5.53303
LJ           4.20264         -1.4284        -4.18048
LJ           -4.8413        -4.54436         5.57924
LJ           5.49282        -4.94903         2.75044
LJ           2.51029         4.22898         4.84768
LJ          -4.74327        -5.52279         2.11414
LJ          -2.25344          4.7782       -0.277038
LJ           6.25214        -5.79685         3.64663
LJ          -4.60326         4.98546        0.155238
LJ          -5.36546        -2.82225         2.03415
LJ          -2.03156         1.76637      0.00887482
LJ          -5.93031         2.78625        -5.54242
LJ          -1.61677         2.20757         -1.0189
LJ           -6.0868         -6.2539        -4.06168
LJ           2.13136       -0.862188         1.06493
LJ          -2.96585        -4.38151        -2.85035
