108
#Comment!
LJ          -1.75972          2.6461         3.61769
LJ           -2.7668         6.14907        -4.27322
LJ           2.87613         -3.1157          5.2266
LJ           4.44301         4.35062         1.31048
LJ         -0.896755        -5.62033         3.36824
LJ           1.04395        -3.99908          2.1197
LJ           1.99529         5.36568        -3.11311
LJ           6.01616         5.26009         -3.6014
LJ          -4.66347         3.47231         4.00697
LJ           -4.5457        0.828055        -4.04719
LJ          0.230424        -1.63068        -5.05209
LJ           1.73991        -3.76693        -2.38055
LJ          -2.30412        -5.21789       -0.765216
LJ           5.26626        -4.12324          5.7013
LJ          -1.70681        -3.16369         -5.9613
LJ          -4.56695          4.3146         -2.3033
LJ          -1.93392        -5.26858        -3.93774
LJ           2.84166        -5.61535      0.00358965
LJ          -5.46372        -1.91789        -3.39853
LJ          -1.07831       -0.613991         4.71897
LJ           -1.4078         4.49656      -0.0632953
LJ            1.5321         1.38076         1.09775
LJ          -4.08789       -0.209208        -5.14868
LJ          -2.39647       -0.235529        -5.27442
LJ          -1.41354         5.65932        -3.20125
LJ           4.71317        -6.23672        0.574322
LJ         -0.496367          3.6553         4.29959
LJ          -4.76176        -4.34593        -5.20044
LJ          0.318891       -0.485762          1.3969
LJ           5.41198         2.48707         6.09681
LJ           6.01277         1.74934        -4.32075
LJ          -6.45508         1.08232        -3.14865
LJ           5.77875        -6.21684        -1.03925
LJ          -2.41873         -4.8045        -2.58798
LJ         -0.874707        -1.31139         3.71137
LJ           2.93154         5.98496        -3.92741
LJ          -6.02524         -4.1832          3.1399
LJ           2.18273         1.84077        -3.74364
LJ          -1.25252        -2.95001        -4.28402
LJ          -2.01301        -4.07928        -1.96304
LJ           3.19686         3.63385         1.31797
LJ          -1.84555         -1.9696        -3.98567
LJ          -2.10493        0.139959        0.275529
LJ          -3.74328         3.27313        -2.38236
LJ           4.86235        -5.06199         6.24397
LJ          -2.79348         2.64886        -1.94407
LJ          -6.25712          4.7388        -4.58186
LJ          -1.74123         4.63952        -3.77566
LJ         -0.185513         2.89588          5.3528
LJ          -3.45004        -1.51357         2.47336
LJ           2.80505        -4.99075         3.46371
LJ          -4.00056         2.98355         5.24136
LJ          -4.04445        -2.73822        -6.38346
LJ          -5.22672        -1.72517        -5.97234
LJ           3.87421        -4.48203         5.79989
LJ         -0.427478        -6.18958        -6.41129
LJ          -2.64412         4.05456         3.89852
LJ           4.66146         3.66246         4.53507
LJ          -2.69589        -3.87763         4.96849
LJ           4.60861        -5.82785        -4.40139
LJ           2.06438         3.86703         4.85944
LJ          -2.73924         5.63871        0.943171
LJ          -5.17302        -5.66635         5.55825
LJ          0.518357         2.61081       -0.761413
LJ            2.2762        -0.14989       -0.609047
LJ            0.8903        -5.23695        -1.27633
LJ            3.4781          4.2647         2.87806
LJ          -5.22862       -0.719081       -0.546195
LJ          -4.68763        -1.20186        -5.13479
LJ          0.423047         1.08793         1.89018
LJ           2.44217         1.75557        0.265978
LJ          -1.25122          5.7338         2.86313
LJ           2.01455         1.71161        -2.40715
LJ          -2.70475         3.78505        -3.98775
LJ           1.04035         6.13806        -1.29634
LJ          -1.67971        0.145631         5.58557
LJ          -2.02214        -4.03308        -3.86622
LJ          -4.95815        -3.88953         3.59019
LJ           2.61346         1.19247        -1.65822
LJ           0.89484          3.2817        -5.29586
LJ          -4.35451         5.64902        -4.55817
LJ            -2.818        0.614727         -1.0009
LJ          -1.89132         1.46823        0.475543
LJ           6.19435         -4.6697         5.31648
LJ          -2.82057         3.46643         6.27133
LJ           3.04542        -6.18526          1.9624
LJ           4.60738        -4.45587        -3.66532
LJ          -1.93895         2.88557         1.11699
LJ           2.18459        -4.72605        -5.96127
LJ           4.34461         1.80126        -4.17502
LJ           1.24508       -0.799712        -2.81311
LJ          -2.22597         -4.2015       -0.942006
LJ           5.53893        -2.50126        0.969876
LJ           2.89998        -2.83316        -5.99518
LJ           2.65875       -0.748775         1.99507
LJ           3.99477        -5.55007        -2.81489
LJ           4.77069         1.02969        0.212337
LJ           -5.7504         4.85929        -3.66411
LJ           2.91171        -3.74959         2.38847
LJ           -3.9309        -2.53981        -5.25431
LJ         -0.104229        -6.05211        -5.07875
LJ           1.40962        0.216355        0.934428
LJ          -4.33431        -1.09431        -6.07893
LJ           3.22428       -0.452223         4.92047
LJ          -1.87832         3.86856        -4.94741
LJ           4.26592        0.565523         3.85728
LJ           4.05976         3.13903         3.19806
LJ          -5.80308         5.38408         5.10656
