108
#Comment!
LJ           2.14941        -6.29374        -2.41294
LJ          -3.47531        -2.67116        -5.07609
LJ          -5.07602         2.75088          2.7863
LJ            2.1067        -4.72697        -3.98119
LJ            -2.342         3.86212         4.02579
LJ          -4.15231       0.0487046         6.09289
LJ            2.1105        -2.44445         3.73075
LJ          -1.81017         2.23714         -4.1046
LJ          -1.59406         5.92682        -6.36314
LJ           5.81016        -2.56026        -3.91785
LJ          -1.50325         3.54735        -1.05327
LJ          -1.51102        -5.03182        -2.23372
LJ           -4.5806         6.12277      -0.0944631
LJ           3.98127         4.68629        -3.64091
LJ          -2.82102        -4.11505         2.57441
LJ           1.23009         1.83636        -1.61839
LJ          -1.74267        -2.25251         -3.6596
LJ          -3.55055        -1.54153        0.870866
LJ          -3.16762        0.780291         2.50559
LJ          -5.35735        -2.53891        -5.14308
LJ         -0.375209         3.37857         4.20775
LJ           4.70874         4.21776       -0.463924
LJ           1.50667          2.0873        0.277873
LJ           1.21308        -4.40384         4.29958
LJ            -0.305         5.98611         2.54465
LJ           1.69787        -1.66959         1.27652
LJ            5.3172        -1.18307        -5.06492
LJ          -1.00613         1.74066         5.15466
LJ           1.50614        -5.45959         5.15654
LJ           -2.3548        0.627468         4.03584
LJ          -2.10544         -1.8397        -5.93373
LJ           2.42981        -5.08777         -2.6763
LJ           0.17481         5.66441        -4.13047
LJ         -0.303677        -6.01745          5.6363
LJ           4.57933        -6.11562         6.14619
LJ          -6.07538         1.93948         5.12601
LJ          -2.79273         2.47728         5.35041
LJ          -1.75547      -0.0739661         1.67211
LJ          -4.60377        -6.03566        -4.05273
LJ        -0.0496086         6.06007        -6.20156
LJ           2.28034        -1.93806         2.52579
LJ          -1.70042        -2.04748         2.89126
LJ           -4.8604         5.37342        -3.55468
LJ            1.8325        -1.40875         3.81438
LJ          -1.76765         2.63275        -6.25075
LJ          -3.46393         1.02723         5.81396
LJ         -0.812096         6.16948        -4.79549
LJ           5.13558        -2.86098         4.93012
LJ          -5.91197        -4.35287         1.78181
LJ          -4.89444        -3.22444         2.56664
LJ           5.23133        -4.66433        -5.67099
LJ           -3.0283         5.07741         5.13721
LJ           0.52075         1.87475        -2.64427
LJ         -0.238909         4.17774        -0.19369
LJ          0.549081         1.56912         3.36977
LJ          -5.22222         1.57483       -0.391366
LJ          -4.88438        -6.20311         3.44333
LJ         0.0813251       -0.659904        -4.67739
LJ           1.09366         1.15974        0.710286
LJ          -1.76758        -4.62367         4.35782
LJ          -5.45779       -0.920496        -1.05644
LJ           1.74255        -3.64249        -3.38953
LJ          -5.77234         5.13285        -3.16704
LJ         -0.474324         2.21215         -2.0368
LJ          0.631144        -5.26795        -1.67818
LJ           5.90551         1.99026        -6.39515
LJ          -6.19492        -3.42113         -4.7463
LJ           4.44373        -3.77811        -3.80055
LJ           0.45214         -5.1893         5.16844
LJ           2.44688        -1.93937          5.9874
LJ         -0.870634        -2.15678        -3.11576
LJ          -5.41332       -0.780871        -2.07287
LJ          -5.19761         6.41039        -1.18386
LJ           2.30132        -5.55222        -1.38026
LJ          -4.54781        -5.14203         5.16123
LJ           6.45307        -4.00501        -1.37898
LJ          -5.00752        -4.98685        -3.29133
LJ           4.65703         -4.5645        -1.05967
LJ           4.05637         5.31435        -2.79366
LJ           3.86269       -0.175106         5.07632
LJ          -3.22226         5.62407         6.43157
LJ            5.0476       -0.485051         4.72704
LJ           -3.3641        -3.56595         1.21809
LJ          0.469533        -2.72146        -1.12176
LJ          -5.70421         4.93834        -4.37484
LJ            5.9595         6.31439        -2.43974
LJ          -3.16547       -0.673786        0.518848
LJ           5.30467        -5.58992        0.779302
LJ          0.268058        -2.83479        -2.94282
LJ          -1.29262        -2.73358         6.29485
LJ          -5.38903         1.96286        -2.80646
LJ          -2.00917          5.8723        -5.37077
LJ           -2.7264         0.61527         1.22208
LJ           4.33161        -1.04692         5.84889
LJ           3.25403        0.141528         6.35252
LJ         -0.821245        -5.81602        0.730819
LJ           1.67973        0.107031        0.406086
LJ           4.38063         3.24877        -1.91486
LJ           2.45105        0.650245        -2.89836
LJ          -2.81094         1.69388         1.40657
LJ          -5.90752         1.30525        -1.65815
LJ         -0.934631        -6.02479        -6.01014
LJ           6.25418        0.431657       -0.379904
LJ          -4.34051        -5.79284       -0.806679
LJ           5.73534         3.47305       -0.268264
LJ         -0.349432        -2.40261        0.166668
LJ          -2.36084        -4.01329         1.66936
LJ            1.7203      -0.0265756        -4.90217
