108
#Comment!
LJ           1.19917         1.34225        0.738656
LJ           1.36724         2.95588         -1.9362
LJ          -4.49626         6.02811        -4.67594
LJ          -4.16204         1.44322        -6.07591
LJ          -4.20807         4.97215         4.20276
LJ          -3.58351        -2.34333         5.80149
LJ          -4.29038        -5.45306        -6.14305
LJ           1.32219         0.74654        -5.66021
LJ          -1.93362           3.974        -5.44557
LJ           5.33188        -1.10896        -5.61416
LJ           1.37575       -0.648979         2.58578
LJ         -0.509196        0.381376        -1.89972
LJ          -4.71872        0.324606        -1.29166
LJ          -4.79786         4.66465        -5.62398
LJ           3.60144       0.0770763        -4.62304
LJ           1.58277         3.97185        -5.88763
LJ           3.97581        -3.09491         5.59587
LJ          -5.01356        -1.71801        0.166947
LJ          -1.55625        -1.18733         1.05341
LJ         -0.566062       -0.587928        -1.69131
LJ          -3.35306        -2.98743          3.2937
LJ          -4.16533         4.93178        0.446474
LJ          -1.54424         1.38943        -4.02328
LJ           -3.9042         5.90368        -6.26326
LJ          -1.91841        -4.22697         3.60306
LJ           4.22441        -2.37736         6.36133
LJ          -4.84571         1.17057         4.66736
LJ           1.69026       -0.163349         3.78154
LJ            3.5691        -3.15294        -4.78442
LJ           4.44005          2.4987       -0.444524
LJ          -4.27887         3.16561         3.95936
LJ           5.76861        -1.02829        -4.67918
LJ           2.09976         2.49345         1.48856
LJ         -0.481703         2.16707        -4.45766
LJ          0.622984          2.4134         4.17382
LJ          -5.11963        -4.30059         2.02861
LJ          -3.94879          2.8627       -0.911444
LJ          -6.10172         5.62502         4.00125
LJ          -4.83605        -2.31249         3.75549
LJ          -3.29548         1.28543         -5.1268
LJ           4.85303        -1.85434       -0.362573
LJ          -3.37214         2.42052           2.324
LJ          -3.80788        -2.61705        -5.91193
LJ           4.57818         1.00785         4.97225
LJ           1.23512         1.14009         6.29617
LJ           2.34292         5.74797        -5.81238
LJ          -4.37323        -2.66013         5.14684
LJ          -5.76491        0.637175       -0.325989
LJ         -0.762753         5.80844         1.21536
LJ          -5.41708        -5.07928        -5.49174
LJ          -3.84795        -2.43836        -1.30282
LJ          -1.39874         3.82602         2.16068
LJ          -1.70181        -1.58986        -4.60197
LJ           5.75073         2.83608        -4.30836
LJ           6.08742          3.0982         3.49322
LJ          -5.94718         4.70051         5.29775
LJ           6.18011         -4.7955         5.65563
LJ          -2.03684        -3.85075        -4.03315
LJ         -0.474188       -0.344585        0.308466
LJ         -0.460473         4.09727        -3.83443
LJ           -3.8093         4.08787        -3.50297
LJ           -2.6257        -5.64482        -1.67699
LJ           5.06588        -5.17161         2.07683
LJ           5.66219         4.67231        0.206971
LJ           4.70885         3.06531         -3.2074
LJ           -1.2187        -4.27411        -6.26995
LJ          -4.51737         2.10585       -0.322013
LJ          -2.82679        -1.01449         1.06988
LJ           4.21109         1.64223        -5.94585
LJ          -4.59538       -0.842541         4.79491
LJ           4.21521       -0.772459         5.61604
LJ          -5.87219         4.28229        -4.99909
LJ           6.11869        -4.32902        -5.87292
LJ          -3.88111         6.21284       -0.204616
LJ          -4.46223        -5.89627        0.146348
LJ           1.32963         1.82233         2.88192
LJ           5.70641        -3.00206        -1.59033
LJ           1.76861         4.77152         2.38189
LJ           4.17162          3.7157        -4.10271
LJ          -4.31147        0.154056         2.57376
LJ          -3.22992         -3.4675        -4.28426
LJ           4.16917        0.510644       -0.910119
LJ         -0.179673        -5.17171         1.71413
LJ          -5.66564         3.32087         4.69883
LJ          -3.05892         5.63858         -5.5892
LJ           2.42136         3.98807         2.33258
LJ           5.33223         3.14789       -0.283647
LJ          -4.09998        -1.34829         1.32475
LJ         -0.721857        -1.12151        -4.14085
LJ          -2.02889         6.10372         5.33363
LJ           4.48131        0.392473        0.158374
LJ          -1.42838         2.40664        -6.37874
LJ          -4.22069        -4.52974        -4.61291
LJ           4.81355        -3.43405        -4.43593
LJ          -4.46958        -4.04148         5.67845
LJ          -6.42629         -5.5615         3.09508
LJ           2.38021         3.62339         3.35503
LJ          -4.85624        -6.21492         4.72203
LJ          -1.26706         4.04379        0.885376
LJ           -5.0595         5.60818         3.35521
LJ          -5.51819         4.38958       -0.396901
LJ           -3.8796       -0.697117         2.19959
LJ          -2.78111         2.43042        -1.10727
LJ          -6.15019         1.45549        -4.67081
LJ           -0.1012         1.32754        -1.62701
LJ          -5.62659         4.56007        -3.57304
LJ           1.06963        -1.90451        0.875871
LJ          -1.89051        -3.05706        -2.34668
