108
#Comment!
LJ             4.122         4.28234        -4.28328
LJ           1.48857        -3.09985        -3.55491
LJ          -6.35771         2.08707       -0.625633
LJ          -3.59516         6.24089        -2.75902
LJ           2.54998        -5.97824         5.90455
LJ           4.00068        -2.38767        -4.36234
LJ          -4.47831         -3.1051         4.90538
LJ            3.8517         1.54858        -3.76413
LJ          -5.89322         1.72296        -2.17124
LJ          -3.52982        -2.99676         6.34671
LJ           3.98571        -5.74948         3.65691
LJ          -3.49136         4.19793         4.47322
LJ          0.543767        -5.91523         1.70391
LJ           3.58819        -6.33822         -2.8929
LJ           1.71511         6.25783        -2.97412
LJ           6.08285          2.8812        -3.51563
LJ           4.19293        -1.85415        0.147835
LJ          0.135897         2.78217        -6.03344
LJ          -1.28136        -1.99182         4.89383
LJ           3.33293         2.89113         6.32403
LJ           -5.0111        -1.70643         4.81356
LJ          -6.00046         4.20337         2.02571
LJ           -4.4726         2.78987        0.320324
LJ          -3.82029         1.90135        0.794264
LJ         -0.246813         2.72757         1.16478
LJ         -0.357386         3.12074         5.48291
LJ           2.75873        -5.71766         3.79784
LJ           3.29734         1.13495         -5.1806
LJ          -2.16349        0.626244         5.06213
LJ        -0.0584741         1.75247         2.89361
LJ          -1.71088         5.76314         -5.8807
LJ          -0.28964          4.0563         3.58777
LJ           4.19922        -6.33186        -2.03065
LJ         -0.896174         2.03687        -1.42953
LJ           2.22113        -1.91081        -3.09799
LJ           -3.7331         4.19046        -2.25612
LJ          -0.80244        -2.25399          -2.734
LJ           4.72708         4.58855         0.81656
LJ           2.68561       -0.390662        -4.39835
LJ          -5.56822        -6.33801        -6.36578
LJ           3.06475        -4.91062         5.28056
LJ          -3.17096         -3.3118         3.18279
LJ          -5.15395        -5.41697        -1.78722
LJ           5.57378         2.23664         2.61472
LJ           3.47814        -3.21475        -4.06767
LJ           3.86644          2.5691         1.47926
LJ           5.64403         4.46816         3.82693
LJ          -3.31219        -3.84769         5.36677
LJ           4.34561        -5.44694         5.07853
LJ           1.81798         5.83529        -1.13262
LJ          -1.16751        -3.35445        -4.94347
LJ          -6.00841        -4.25256         4.23828
LJ           1.64565        0.413495        -5.16417
LJ          -0.27062        -2.70641        -4.69709
LJ          -6.23178         3.01145         -1.6752
LJ          -3.16047        -6.29321         1.29568
LJ         -0.585254        -5.32154         3.66371
LJ           1.55319        0.692288         3.40876
LJ         -0.887215        -6.45343         1.76784
LJ           6.04877         2.67727         5.84616
LJ        -0.0467199         4.62903        -5.56947
LJ          -4.67996         1.79882        -4.76694
LJ           5.63688        -4.10651       -0.586559
LJ           1.74715        -6.28597        0.583673
LJ          -5.84075        -5.01724         4.93177
LJ           3.54919        -3.70103          3.9867
LJ           -5.5732        -1.64137         4.08829
LJ           4.47921          2.7692        -5.81498
LJ            1.6553         3.77593         6.24346
LJ          -2.72509        -3.22056        -5.76236
LJ          -4.15885         -1.2745         4.24489
LJ           1.31466         -2.5966        0.262166
LJ          -3.39362         -6.1285         3.61865
LJ          -2.30225         6.18509         4.12439
LJ          -3.44444        -4.43823         3.07683
LJ          -1.06808          5.1051         6.25633
LJ          -4.05855       -0.261516         1.32821
LJ           3.24556        -2.27872         2.86043
LJ          -4.80634         3.36354        -3.84581
LJ          -6.17181        -2.41638         2.24664
LJ          -2.32363        -4.76106         4.77832
LJ           6.22781         4.62984        -6.18562
LJ          -3.62423         3.98165        -4.24369
LJ         -0.926334      -0.0663879         3.88298
LJ           2.76483        -4.00136         2.77916
LJ          -4.94991        -2.65703       0.0239613
LJ           6.43064         -5.0594        -4.43482
LJ          -1.36667        0.482578        -2.62419
LJ          -5.17347        -4.20892        -2.62331
LJ         -0.718863        -5.88709         2.80155
LJ          -6.05612         5.43574         1.36964
LJ           2.36879        -3.11793       -0.237755
LJ          -1.17984        -2.18287        -5.32952
LJ          -5.56182        -3.69076        0.406135
LJ          -4.14723         2.21505        -6.40722
LJ           1.01908         2.05646        -2.67617
LJ           1.74125         3.46512        -4.42104
LJ        -0.0980141         -1.2556         -3.3537
LJ           6.19643         1.45178         3.17471
LJ          -2.70312        -2.58785         5.74479
LJ         0.0914209         1.93849       -0.498709
LJ           3.11163           3.303        0.825273
LJ          -3.82824        -4.48523         4.18553
LJ          0.332124        -5.92104        -4.63126
LJ           1.72773        -3.88532       -0.570584
LJ          -4.08161       -0.490015         4.82285
LJ           1.27607         4.18455        -1.47775
LJ            4.9651         1.59295         3.34262
