108
#Comment!
LJ          0.922341         6.45081         3.68913
LJ          -4.14905         5.10205        -3.07788
LJ          -2.63241        0.890027        -2.64289
LJ           5.57436        -2.18876         -3.1713
LJ           3.43879         4.13768         5.67902
LJ          -3.76856       -0.630061         6.20723
LJ          -3.32707        -6.09686         3.42308
LJ          -5.35754          1.3551         -3.0597
LJ         -0.775541        -4.07263         4.88097
LJ           1.44891        -1.47705        -3.81919
LJ          0.767269        -3.61004        -4.18232
LJ          -3.37221        -2.82976         2.77472
LJ           -6.3501         1.61079        -6.24205
LJ           -2.5948        -4.29281         6.13354
LJ          -3.59902          6.0146         -1.1144
LJ          -1.41519          -3.784        -5.36386
LJ           2.49479        -2.18838          2.8796
LJ           5.46244       -0.930677         6.43518
LJ         0.0677098       -0.845229        0.672292
LJ           1.92474         5.37687         2.34889
LJ          -2.50029        -5.91298        -5.82527
LJ          -2.96037          5.5898        -3.28378
LJ          0.855513        -6.44385         5.03502
LJ           3.86648        -4.82836        -1.78741
LJ         -0.280558         3.96144         -5.7893
LJ          -1.16185        -5.01046        0.142553
LJ         -0.537463        -3.99318         3.88483
LJ          -2.82404         1.36075         1.26313
LJ        0.00965036        -3.65469        -4.94647
LJ           4.50848         5.31335        -4.21148
LJ          -3.65554        0.833487        -1.74401
LJ           4.41424        0.100528        -3.17352
LJ          0.297335         0.14758         3.73047
LJ          0.662344        -3.54291        -6.15221
LJ           2.59539          2.7854        -5.34405
LJ           4.40447         3.74403           6.097
LJ          -1.04429          -5.552        -2.82684
LJ           2.16054         1.51278         3.39917
LJ          -4.06246         4.56914         1.38462
LJ            -3.522        -4.01567         -4.2956
LJ           3.79053         5.94877         4.44501
LJ           0.52906          4.4669         2.59114
LJ          -2.61557         4.32812         5.77227
LJ           2.83769        -2.28132          3.9851
LJ          -2.50308          -5.044        -4.03685
LJ           4.75664         5.21725         6.22573
LJ           3.31122         -1.3203         5.74646
LJ           3.75724         1.64054         3.93314
LJ           6.12185         2.11732         -4.8063
LJ          -3.21632        0.959266        0.136897
LJ           -5.6072         3.48413         -5.0144
LJ           2.27191        -2.65928         6.02048
LJ          -3.04774         1.66231         6.07365
LJ         -0.408506        -4.01605        -4.10233
LJ           1.47604        -4.07531         6.11755
LJ          -1.72416        -6.18945       -0.626919
LJ           3.31495         6.06505         2.38572
LJ          -5.97629        -1.62681         3.57594
LJ          -4.89331        -4.30888       -0.776663
LJ           6.35114        -5.09019         3.03469
LJ          -3.39621        -5.30072       -0.310753
LJ           2.11267           2.876          5.2121
LJ           2.90435        -3.33172        -4.01762
LJ          -4.38913        -5.97528        0.816524
LJ           1.77928         5.35218         1.15182
LJ           2.56313        -3.21144         3.57292
LJ          -5.80516        -5.10805         1.45444
LJ         -0.429327        -3.52632        -2.52282
LJ           4.78379        -1.75978         1.32043
LJ           5.26271        -3.18328         6.00562
LJ           1.10199        -0.48124         4.28202
LJ          -5.05568         -1.9818         2.27514
LJ           1.81224         3.95314        -2.53131
LJ          -5.41804         5.07012         -1.9918
LJ          0.393308          4.7076       -0.786718
LJ          -5.94433         5.42723         4.93358
LJ          -1.77828        -3.78771         2.76875
LJ          -2.72386       -0.538946         5.36628
LJ           -1.7175         3.49155        -1.90126
LJ            4.1423         4.03772        -4.48984
LJ           3.02598        -2.41142        -1.93525
LJ           5.26752         4.24207         5.82866
LJ         -0.123981         2.82495        -2.38567
LJ           6.12276          -5.131        -2.54984
LJ           4.94926          3.2784        -5.90568
LJ           2.54465        -5.75502        -3.69399
LJ          -1.92001         6.40424        -3.81303
LJ           4.99737        -2.24752        -5.89521
LJ          -3.27522        0.617816         2.14723
LJ           4.76465        -1.82194         5.23946
LJ           2.37113         1.00382         2.27545
LJ          -3.26036         5.14285         1.28759
LJ          0.300093        -3.05479         4.86421
LJ          0.237959        -5.74302         3.07027
LJ          -5.71083        0.501011         2.18885
LJ           3.32827          1.5301         6.44561
LJ           1.36446         2.06462         4.10163
LJ          -3.17513         4.37789        -5.24598
LJ           5.95113          4.2835         4.44947
LJ          -4.04309         2.19544         2.88562
LJ          -3.43479        -4.13137        -1.07497
LJ          -2.69941         1.61283        -3.81889
LJ           3.29828         5.50403        -1.49221
LJ           6.07735        0.335071         1.33894
LJ          0.676889        -4.83361        -3.29448
LJ           2.88568       -0.635374        -2.87691
LJ          -4.04681        0.633189          2.9007
LJ          -4.72028         1.78672         3.83344
