108
#Comment!
LJ          0.769414        -6.29014         3.92434
LJ          -4.55489         5.47072        -2.66487
LJ          -2.87482        0.858658        -3.06622
LJ           5.53884        -2.28422        -3.44361
LJ             3.112          4.6377         5.11506
LJ          -3.69321       -0.864015        -6.43627
LJ          -2.92203        -5.59462         3.64057
LJ          -5.20936         1.41286        -3.99667
LJ         -0.796822        -4.37527         5.05178
LJ           1.59976        -1.79419        -4.84335
LJ          0.552439        -3.87676        -4.29036
LJ          -2.69175        -2.71963         2.81395
LJ          -6.32985         1.16388        -6.06409
LJ          -2.25223        -5.15034          6.1188
LJ          -3.52499        -6.25214       -0.911896
LJ          -1.67635        -4.37292        -5.98135
LJ           2.31703        -2.14138         2.70969
LJ           5.98927       -0.923511         -6.3504
LJ         -0.864731       -0.665007        0.652349
LJ             1.265         6.13797         1.59747
LJ          -2.81472        -6.19921        -5.87187
LJ          -3.17348         5.48624        -3.19197
LJ          0.980064         6.05564         5.37057
LJ           4.55021        -4.99903        -1.60647
LJ         -0.464903          3.8123        -5.11146
LJ          -1.83679        -5.11762       -0.165475
LJ          -0.10455        -4.23746         3.86621
LJ          -2.87158         1.27238         1.49938
LJ         0.0022546        -3.83625         -5.5782
LJ            4.0578         5.07371        -3.50959
LJ          -3.28476        0.723563        -1.98108
LJ           3.98877        0.810097        -3.50672
LJ          0.212772        0.689679         3.93474
LJ          0.549772        -3.25118        -6.44093
LJ           1.96804         3.15771        -5.34195
LJ           4.21936         4.05018         5.90527
LJ         -0.608119        -5.45213        -2.18205
LJ           1.56035         1.42396         3.19682
LJ          -4.06223         4.77553         1.12927
LJ          -3.06851        -4.19762        -4.32648
LJ           3.77503         5.32747         4.46966
LJ          0.636031         3.85698         2.86134
LJ          -3.15813         4.48672         6.44113
LJ           2.60519        -1.95819         3.82332
LJ          -2.73149        -5.11403        -4.00627
LJ           5.43051         5.15422        -6.43108
LJ           3.57816       -0.870045         5.52894
LJ           4.13802         1.39271         4.14644
LJ           5.87015         1.44248        -5.01849
LJ          -3.39385        0.742605        0.468443
LJ          -5.85259         4.02164        -4.62877
LJ           2.21158        -2.03723         5.77341
LJ          -3.11294         1.51163         -6.1881
LJ          -0.36979        -4.07984        -3.66019
LJ           1.72516        -3.91708         6.23671
LJ          -2.33671        -6.31994       -0.546175
LJ            3.4435         5.66929          1.4416
LJ           -5.7243        -1.74762         4.23438
LJ          -3.94227        -3.49007       -0.407512
LJ          -6.39019        -5.04429         2.99617
LJ          -4.03797         -5.2142         0.13837
LJ           2.16296         3.12737         4.83347
LJ           3.36035        -2.98017         -3.7004
LJ          -3.88954         6.31179        0.588289
LJ           2.32568         5.22941        0.563727
LJ           2.74112        -3.64607         4.02676
LJ          -5.80004        -5.59612         2.16819
LJ        0.00508226        -3.57792        -2.64957
LJ           4.15851        -2.17033         1.55977
LJ           5.09463        -3.62815         6.20883
LJ           1.34662       0.0391226         3.99212
LJ          -4.95591        -2.08327         1.91595
LJ           1.48942         4.18658         -2.1563
LJ          -5.46936         5.27812         -2.3002
LJ         0.0807948         3.84791        -1.17678
LJ          -6.04117         4.89758         5.30925
LJ            -1.865        -4.35769         2.46257
LJ          -3.27438       -0.343372         5.61144
LJ          -2.11728         3.95881        -1.80718
LJ           4.24147         4.75456        -4.78895
LJ            3.6408         -2.5392        -2.13381
LJ           5.90354         4.22049         5.85764
LJ           0.18091          3.0626        -2.74929
LJ           6.45211        -5.06694        -2.68291
LJ           5.19614         3.87094        -6.33346
LJ            2.9601         -5.6229        -3.53573
LJ          -1.92626         5.72534        -4.39187
LJ           4.62988        -2.22697        -5.59055
LJ          -3.99536        0.224714         1.93692
LJ           4.17877        -1.86874         5.19784
LJ           1.12114         1.11529         2.01743
LJ          -2.70657         5.70526           1.765
LJ          0.256956        -3.21452         4.27774
LJ         0.0926602        -5.79527         3.15025
LJ          -5.14532        0.452783         2.57474
LJ           3.05025         1.19819        -6.14095
LJ           1.11489         2.49508         3.68238
LJ          -2.31563         4.08524         -4.9595
LJ           5.98445         4.37434         4.78263
LJ          -4.14396         2.54923         2.41587
LJ          -3.25955        -4.22374       -0.893585
LJ          -2.44115         2.08411        -4.31933
LJ           3.17655         5.54041        -1.10979
LJ           6.00308        0.205708         1.16502
LJ           1.24099        -5.29588        -3.38947
LJ           2.91263       0.0272181        -2.44587
LJ          -3.77377         1.44575         3.07173
LJ          -4.36112         1.52867         4.32036
