108
#Comment!
LJ          -4.07121         4.07195        -2.76833
LJ           5.23887        -2.96767        -2.92215
LJ           5.93785       0.0312527        -2.10288
LJ          0.734328        -3.26607        0.857989
LJ           2.87877         4.18901         1.37263
LJ          0.986524        -5.22112        -2.61075
LJ           4.41878        0.177419         1.84166
LJ           3.77356         3.38641         2.19571
LJ           5.01074         5.55041        -5.72222
LJ         -0.273164        -6.09032        -4.06414
LJ          -4.49497         2.33845         3.04254
LJ          -2.05447         5.44461        0.190095
LJ             1.607         5.80595       -0.191413
LJ           3.18925        -5.75988         1.91323
LJ          -0.17244         1.32575        -4.83893
LJ           2.07154       -0.180359        -2.65549
LJ             -6.27         1.24832         5.12573
LJ           2.33753       -0.539933        0.795614
LJ          -1.91996        0.900433         5.03661
LJ         -0.391058         5.98072        -5.73097
LJ          -1.95272        -1.39207         3.36457
LJ          -5.73332        -4.93092        -6.43048
LJ            1.0054         2.23549         6.07274
LJ          -3.01426         3.57709       -0.302594
LJ         -0.112641        -5.37989          2.5263
LJ          0.415798         4.07001        -6.01087
LJ          -3.37555         5.47668        -5.84279
LJ           5.82975         1.44629          2.8221
LJ          -2.87429         1.14188        -4.98178
LJ          -3.97544        -2.22507          4.4627
LJ          -2.93318         4.51318         2.78084
LJ          -3.72163         -3.4642        0.607247
LJ          0.457495         3.11724       -0.193254
LJ          -1.38939          2.4019         -4.2678
LJ          -1.75461        -1.72018       -0.375176
LJ           0.18322         4.86314        -4.05066
LJ            2.4519         4.60954        -5.17212
LJ          -4.26422         2.90351        -2.06594
LJ           1.24696         2.52115         1.38486
LJ          -3.96403        -6.26932         -2.9479
LJ           4.58515         4.04104         3.86221
LJ         -0.143022        -2.94831         5.49246
LJ          -3.21305        -3.35711        -2.88332
LJ          -5.88684          3.1262        0.364303
LJ           2.60017         4.74279        -3.95623
LJ          -5.95301         1.91128         0.31751
LJ           3.32198         2.90102         3.28884
LJ           4.79649        0.288828         3.34994
LJ           3.78714        -3.89359        -2.51756
LJ           4.86568        0.796938        0.915404
LJ          0.386729        -1.00074         6.29455
LJ           4.87386        -5.62093       -0.947865
LJ           2.76582        -2.61687        -4.18862
LJ           1.21253        -1.55949        -1.31482
LJ           5.21264        0.948947        -2.16551
LJ         -0.666064         6.32181        -2.60625
LJ          -2.12734       -0.970268         2.31804
LJ          -0.87179        -2.03037        -1.77876
LJ         -0.624702         -4.7026        0.247908
LJ           1.12656         2.20445        -4.38329
LJ           1.44257        -4.52885         3.24598
LJ          -2.14199        -2.31899        -3.41933
LJ           6.23139        -4.63878        -3.65353
LJ           2.44597        -5.63706        0.689223
LJ          -6.45902        -4.52364        -5.79306
LJ           6.44465        -5.55083        0.672216
LJ          -2.56862         -4.0971        -5.59807
LJ        -0.0370273           2.832         5.44478
LJ           2.21605        -1.71038         4.18315
LJ          -1.03132       -0.783071        -3.86667
LJ           4.18171        -1.22486         1.74164
LJ           1.43879        -5.99795        -1.38413
LJ          0.810431         4.98441         4.35029
LJ          -6.04545        -2.10461      -0.0862303
LJ          -3.16497        -1.71542         5.31518
LJ          -1.35845         5.73767         6.33294
LJ          -4.08543         2.25215         5.85106
LJ           2.09532        -2.76956          3.4108
LJ          -5.82361         5.77851        -1.22793
LJ           4.99613         -2.5677         4.85083
LJ           4.76544         2.52741        -5.32618
LJ          -6.00794         2.75554        -4.50803
LJ          -5.06393         2.70318        -3.26983
LJ           4.23538       -0.775888        -2.38908
LJ           1.37078        -5.95181       0.0139327
LJ          -5.07648         -2.3211         2.04815
LJ           0.27133        -6.05687        -5.15588
LJ         -0.908624         6.25476        -1.02655
LJ           4.13631        -5.54444         2.90449
LJ          -0.74912        -1.68577         1.42585
LJ          -3.10086         4.33016        -2.30794
LJ          0.582351         5.88877        0.174425
LJ          0.810425        0.417525        -4.81681
LJ         -0.105417        -2.17869         2.04653
LJ          -4.00929         -1.9284        -2.11034
LJ          -2.47011         0.23777        -3.14211
LJ           5.04651         1.16102      -0.0715524
LJ         -0.603371         4.99992       -0.488996
LJ           -3.5896         1.52644        -1.80324
LJ          -2.55025        -2.36946          5.8292
LJ           1.16311         4.41882        -4.18521
LJ         -0.633614         1.40403       -0.970072
LJ          -2.82216          1.4022         4.32127
LJ          -2.02106         1.87276       -0.342481
LJ          0.962075         6.29084        -2.19914
LJ           6.02492         2.11079          5.3385
LJ          -1.64188         2.24613        -1.40108
LJ          -5.17698         4.66116        -1.81694
