108
#Comment!
LJ           6.20745         4.10698         -3.8905
LJ           3.36154        -2.73484        -3.09005
LJ           6.11644         1.59108        -1.89053
LJ          -1.41542        -5.22701       -0.823137
LJ           2.89638         4.86491        -2.57118
LJ           2.60299        -4.18632        -3.89456
LJ           6.26643        -1.82481         4.14662
LJ           5.25764          2.7655        -1.55775
LJ           5.93411        -3.21493         2.45794
LJ          -1.77541        -5.32829        -5.50014
LJ            5.7664         4.12916          1.9758
LJ          -3.20361         4.81167         2.53169
LJ           1.36525         6.28105       -0.521542
LJ           2.37997         6.37921      -0.0913161
LJ           0.84419        -2.95982         -3.5406
LJ           2.86763         1.88297        -4.22062
LJ           5.36954       -0.461423        -3.63154
LJ           1.25836         0.97768         4.06583
LJ         -0.420617        0.818366        -6.23041
LJ           1.58688         2.77139        -5.06679
LJ          -4.32526         -2.4482         5.11638
LJ          -6.10309           6.092         3.84375
LJ          -2.11955         2.34022         3.15071
LJ          -2.08003         3.70201          1.2132
LJ         -0.773699         4.55952         1.57147
LJ          0.843689         3.31261         5.74229
LJ         -0.474905        -6.18159         4.21749
LJ          -5.07599        0.735241        -5.56292
LJ          -2.14767         2.17574         5.59551
LJ          -1.65435        0.137781         3.91571
LJ          -2.20766         5.26318         5.05537
LJ          -2.20587         5.09901         2.03792
LJ           2.96381        -6.30611        -1.25422
LJ          -3.24202         1.15679        -4.39836
LJ           2.02731        0.405937         0.19819
LJ          -1.13948         5.25908        -4.95299
LJ           1.47602        -5.85153        -1.60798
LJ           6.02159         3.91491        0.213698
LJ           2.05632        0.730593        -1.50314
LJ          -5.01326        -6.40208        -4.74094
LJ           3.66744         5.79771         3.95437
LJ         -0.493365         -2.9066         4.00812
LJ          -4.08436        -4.75365        -2.21975
LJ          -5.99201         3.23602         1.23846
LJ           3.42111        -6.04545         -3.9559
LJ           5.69008         2.91551        0.922384
LJ           2.81067         1.71179         1.53984
LJ          -5.45631        -1.37926         3.63931
LJ           4.59058        -4.66413         -5.8571
LJ           2.87589         3.94727       -0.501618
LJ         -0.106324          -2.167        -4.72771
LJ          -6.35523        -3.97711         1.94329
LJ           2.22189        -1.01416        -4.81731
LJ          0.103703       -0.278963        -2.89018
LJ           -6.3895         0.56983        -1.42446
LJ          -2.12639         6.24732       -0.496337
LJ           -1.9379        -3.54983          3.1214
LJ           0.28816       -0.550922         1.13944
LJ          0.612835        -4.86989         1.52179
LJ           3.28016         2.85704         6.39715
LJ        -0.0736132         5.97723         6.34188
LJ          -3.93276        0.729601        -5.01151
LJ           5.53644        -4.11408        -2.14585
LJ           1.56762        -5.28144         1.74579
LJ           -5.9851        -4.43391        0.221459
LJ           4.56521        -5.25373         1.54824
LJ          -5.03533        -2.57472        -1.32789
LJ           1.41849         3.93554        -5.82884
LJ           1.71364        -5.30776         5.26639
LJ          -2.28292        -2.01439        -5.36016
LJ           6.16741        -1.82675         2.87217
LJ           1.38256        -4.92227       -0.549513
LJ           5.29128         6.12726         4.89711
LJ           -2.5571        -3.25526        -3.74435
LJ          -3.10121        -2.13439         4.81529
LJ         -0.671315         5.27957        -5.83241
LJ          -4.04043        0.945235         3.44713
LJ            3.3584        -2.16849         2.96314
LJ          -5.10918          4.5878        -2.60165
LJ           5.26122        -2.78214         3.86957
LJ          0.902101         6.39602         5.81362
LJ           6.43449         3.88767        -4.86449
LJ          -5.76607         2.92529        -1.86762
LJ          0.849685        -1.90848         1.44402
LJ           1.52114        -4.77459        0.506819
LJ           -5.3327        -3.68161        0.360324
LJ          -3.46106         -5.8733        -5.16298
LJ          -1.47195         2.16275        -1.64437
LJ           4.98363        -5.73744       -0.238628
LJ         -0.290138        -2.53731         2.18799
LJ          -4.71228          4.9492        -0.54305
LJ            1.2555        -3.89936       -0.126382
LJ         -0.638194        -1.75482        -5.73476
LJ           4.10459        -2.72109         1.16072
LJ          -4.95394        0.758793        -3.82414
LJ        -0.0453246         1.75105        -2.67972
LJ           3.47791         2.33179        -2.60615
LJ         -0.658452        0.449678        -1.46427
LJ          -6.18108         2.50507        0.434314
LJ           -2.5805        -2.93984         5.88141
LJ          0.076709         1.71638        -4.37751
LJ           1.28242          1.9461        0.185847
LJ          -2.89609        -2.14198         3.30877
LJ           0.10967         4.29072        -3.18928
LJ           2.22028        -4.58579        -1.29612
LJ          -5.71132         1.21432         5.03981
LJ         -0.711043         3.86673        -1.84754
LJ          -5.53117         2.09129         1.12396
