108
#Comment!
LJ         -0.337545         5.84213        -5.92616
LJ          -3.84277        -5.68288        -3.62718
LJ          -3.47571        -1.57717       -0.185041
LJ           3.90057        -2.98373        -4.41407
LJ         -0.682679         3.81998         4.67464
LJ           -4.2812        -1.76986         6.42617
LJ          0.575428        -2.03531         6.04381
LJ          -3.64757         1.63822         0.24536
LJ         -0.871488        -5.72079          -6.322
LJ           3.13086        -2.45902         1.13706
LJ         -0.367521        -6.14248         -2.3432
LJ          0.126917        -1.23208         2.08501
LJ          -3.55849        -2.82192         3.07267
LJ          0.809472         3.75585        -5.15941
LJ          -5.88296        -3.25495         1.50912
LJ          -1.26725         4.68424         1.55169
LJ           1.16429        -0.16779        -1.50342
LJ          -3.72183       -0.531773        -2.42542
LJ           5.29891        0.344754         3.05626
LJ          -4.47605        -3.39498          4.0675
LJ          -2.54563         4.52608         5.84388
LJ          -6.11892         5.71208         -1.5553
LJ           1.48391         3.17413         3.37647
LJ          -4.16904        -4.75233       -0.278148
LJ           -0.3937       -0.993417        -0.46671
LJ          -1.75876        -3.79682        0.813044
LJ           3.77466        -4.27373         5.01131
LJ           3.95168         1.44895         4.86485
LJ          0.298484        -4.09145         3.83914
LJ          0.789336         2.27903        0.794152
LJ          -1.75788        0.484372        -5.94841
LJ          0.339559        -6.33369        -4.64775
LJ          0.926959         5.50391        -6.27732
LJ           1.58899        -3.69359         6.17761
LJ           -4.4335        -6.42891         -6.1106
LJ           5.10677         4.83864         5.36057
LJ           5.67592        -2.74153        -3.58405
LJ         -0.713032        -1.30248         1.01305
LJ          -3.95098        -5.55738        -1.50885
LJ         -0.233705        -4.65823        -5.40072
LJ           4.65608         1.82081          3.6785
LJ         -0.781288         5.31416         3.26103
LJ           -5.7567         4.69356        -3.09111
LJ           1.33696        -2.23833         2.36584
LJ          -2.80978         4.76859        -4.72274
LJ           -1.1122         2.61417         -3.8197
LJ           6.34611        0.947472         3.79005
LJ            6.4538        -1.79227         5.82642
LJ         -0.497146        -2.53559        -1.82545
LJ          -4.22974       -0.824599         2.41402
LJ          -6.29862        -5.56324        -4.90253
LJ         -0.832717         4.10016         3.52241
LJ          -2.40959          2.3571        -4.26255
LJ         -0.840786        -6.23032         -3.7307
LJ          0.651668        -2.81666         4.61361
LJ          -4.37904        -2.90957       -0.183542
LJ          -5.25496         5.09044        -4.71716
LJ          -2.24949        -1.71342        -4.57611
LJ           2.96825        0.571082         1.83633
LJ          -4.98162        -4.86632         2.87312
LJ           5.88409        -5.07568         1.77444
LJ           2.31572         3.90055          1.0596
LJ           5.78881         1.32033        -3.56496
LJ         -0.598094        0.949329        -1.84598
LJ         0.0481304        0.242673        -1.57985
LJ           4.79113         5.32221         6.37425
LJ          -5.40847         2.79008         -5.2525
LJ           3.33117        -4.44465        -4.59774
LJ            1.3609        -3.47258          4.2352
LJ           2.52095        -5.78017         5.86313
LJ           1.01512         -1.1408        0.397927
LJ           -5.5005        -2.61226        -1.37956
LJ          -2.05337         5.50754        0.853008
LJ           3.39538        -6.00943       -0.880325
LJ          -3.26877        -2.17515        -6.21785
LJ           1.52551        -6.41778         -3.4117
LJ          -3.48763         6.14285        -1.71418
LJ          -6.29846        -1.13002        -3.00628
LJ          -5.78414         4.65642         -1.4088
LJ           5.41332        -1.88972         5.55984
LJ          -2.74217        -4.77791        -2.85445
LJ           3.23678        0.907267          5.7695
LJ           -5.3176        -5.57096       -0.332187
LJ          -3.89089        -3.87988         -3.0985
LJ           6.05065         4.96583        -6.33646
LJ           4.47506         5.93746        -4.32332
LJ            5.2569         1.95207         2.33227
LJ           3.15175         1.29213       -0.901353
LJ           3.68797        -2.86954       -0.842469
LJ         -0.319627        -1.68286          4.7179
LJ          -3.84535         2.00723       -0.751767
LJ          -1.87826        -6.37074        -6.43939
LJ         -0.507463         -2.1243         1.63121
LJ           2.29166        -4.71458         4.26465
LJ         -0.324698        0.755527         5.36611
LJ           1.11734        -1.99184        -2.57427
LJ           1.49989        -5.24572         1.74872
LJ         0.0546279         2.75694         -3.1868
LJ            3.7899         2.03789        -6.44355
LJ          -2.75382          3.3321          2.7553
LJ          -4.52937        -1.95902        -1.74891
LJ         -0.977823       -0.712585        -6.09232
LJ           6.01489        -3.64472        -1.29265
LJ           2.22675          2.2753      -0.0589078
LJ           5.31869         -6.3431         -1.6416
LJ           2.06475        -6.27352        0.463836
LJ          -4.47001        -4.08426         1.06874
LJ          0.505056        -1.12221        -6.40289
