108
#Comment!
LJ          -3.74148         3.27181         -4.2983
LJ       -0.00784823       -0.377018        0.205651
LJ          -2.89528         2.15769         2.25666
LJ           1.66318         4.20055        -2.81168
LJ         -0.918839        -1.35997        -3.21913
LJ           5.60067          2.0726        -6.20777
LJ          -6.23219        -3.65533        -5.93536
LJ          0.651389        0.338468        -2.57565
LJ          -1.73598        -2.28737        -2.21612
LJ          0.741251         1.22884         1.57494
LJ           2.83848         3.98175        -1.31447
LJ          -5.19825         1.21538         3.32879
LJ          -4.12975         2.42647         1.27118
LJ           1.08012        -1.22872         2.05685
LJ           1.57938        -6.46299        -1.06536
LJ           2.74763        -1.61717        -2.03404
LJ           1.54539         4.82369         2.33823
LJ           1.37936        -1.78689         1.14609
LJ          -5.05012         5.21599           3.667
LJ          -4.45353         3.02257          2.1166
LJ          -3.83895        -1.57317         1.04478
LJ          -4.51841        -6.08426         1.38217
LJ           -1.8302        -1.34717        0.921002
LJ         0.0337454       -0.444514         4.83602
LJ          0.905179         1.61832       0.0583626
LJ          -2.44602         -1.4699        -1.38505
LJ           3.51155        -5.07996          2.7733
LJ           -1.1279        -4.58137       -0.324535
LJ           1.37236       -0.461306        0.668832
LJ           3.85819        -2.85041        0.619322
LJ         -0.584948       0.0669649        -4.72942
LJ           5.95687        -4.10114         2.28628
LJ           5.76591        -1.75838         5.02812
LJ           0.51801         -2.9314         3.67326
LJ            5.7633         0.69574        -1.95346
LJ          -3.06351          2.9982         1.21962
LJ           2.00264         3.25612        -2.12201
LJ           3.40896        -3.82567        0.796918
LJ         -0.665977          1.5747       -0.215164
LJ           3.59243         -6.0573         2.05254
LJ          0.478198         5.88785        -6.21467
LJ           2.88158        -6.03488        0.917291
LJ           4.58506          5.7063        -1.36415
LJ         -0.712725        -2.25767        -5.46369
LJ            3.2569         3.71057         -2.6188
LJ           1.04174         5.18849        -2.98475
LJ           1.08746        -5.03739        -5.46889
LJ         0.0579578         4.67269        -4.76526
LJ          -3.87892         6.23543         3.74949
LJ          0.362514        -2.45254        -6.09909
LJ          -4.64656         4.46823         2.16985
LJ          -2.01935        -2.23863        -4.47964
LJ          -6.43365         1.07863          3.0824
LJ           1.72475        -6.41857         -2.3852
LJ         -0.383142         3.29486        -1.27748
LJ            4.1736        -4.49809         1.55867
LJ          -3.15843        0.950587         4.34803
LJ          -1.27229        -3.42106        -5.67723
LJ          -3.30125         2.59637         4.89024
LJ           1.12731        -2.99311        0.355733
LJ          -5.51129         1.01949        -3.67099
LJ           2.32273        -2.18691        -4.61516
LJ           2.41157        -3.74104         5.25671
LJ         -0.824095        -1.78637        0.393863
LJ           4.13524         3.77619         2.48214
LJ         -0.112352       -0.819019        -2.25593
LJ          -1.02334       -0.429041        -2.77295
LJ          -0.26237         1.69742        -3.59698
LJ          -3.78041      -0.0978796         4.12604
LJ          -2.87203        -0.76516         2.29236
LJ            2.9243       -0.955562       -0.049904
LJ         0.0110859         0.28349        -1.39925
LJ           4.63038        -3.89324        0.488913
LJ           5.85185         2.17326        -4.99463
LJ          -6.26681        -3.19286          1.2555
LJ          -3.58326        -4.40134        -4.53983
LJ          -2.51234         1.02241          5.1672
LJ       -0.00912038        0.712461        -6.42066
LJ           2.73771         1.64588         2.40549
LJ          -5.44713        -1.89684        -2.40665
LJ          -0.21637         -6.2064         1.28492
LJ           5.76894         4.27966         4.29846
LJ           1.08248         4.94413        -5.01953
LJ          -4.38267         2.99742        -6.16957
LJ           4.62158         5.99923         1.66763
LJ          -0.57478        -2.62248         2.45452
LJ           2.88763         2.52458        -2.26679
LJ          -2.94112        -4.40814         6.30834
LJ           2.51227         4.86458        -1.75651
LJ          -2.99084          3.5412         4.57593
LJ           2.08675        -5.88338          2.3704
LJ         -0.617816        -1.53195         3.87443
LJ          -2.71538        -1.12897        -4.80045
LJ          -4.24205         -2.9631        -6.02536
LJ          -2.96909         4.92169       -0.262662
LJ           4.53715         1.53098        -1.81033
LJ           1.30026         4.22547        -3.80577
LJ           -4.5829        -5.99258        -4.80098
LJ          -3.60845          6.2886        -2.57487
LJ          -5.26404        0.624459         4.98197
LJ          -2.89704       -0.720741         1.19859
LJ           5.15039        0.185353         5.69379
LJ           2.59403         -5.8714         5.58332
LJ          0.248142         5.34098         -3.9506
LJ         -0.947975       0.0709777        0.811257
LJ          -2.35445         -2.9515       -0.453296
LJ          -5.41508        -6.22096         5.28275
LJ           2.67263        -4.65546        -3.33922
