108
#Comment!
LJ          0.232539        0.576801         1.27261
LJ          0.344347         3.92569        -1.57365
LJ          -4.80866         6.35422        -5.55589
LJ          -2.36195         1.88233        -6.26094
LJ          -3.54953         5.26292          5.2783
LJ          -2.41042        -2.60424          5.4902
LJ          -5.91333        -6.43513        -6.07721
LJ           1.87171       -0.237766        -5.39025
LJ          -2.64494         4.04622        -5.76192
LJ           5.73495       -0.589541        -6.28683
LJ           1.96167        -1.08657         3.25313
LJ         -0.137624       -0.069723        -1.92357
LJ          -4.66157     -0.00560195        -1.91146
LJ          -4.07963         4.99394        -5.93778
LJ           4.79185        0.721507        -3.78563
LJ           4.07335         4.24619        -5.38062
LJ           3.21128        -3.23021         4.19478
LJ          -5.16621        -3.54987         0.47677
LJ          -2.57158        -2.61677        0.815238
LJ          0.343738        -2.02477         -1.5739
LJ          -3.60915        -2.06211         3.49481
LJ          -3.82381         4.25557        0.553225
LJ          -1.91569         2.34608        -4.36733
LJ          -3.38072         4.27843         5.72491
LJ          -1.65727         -3.0927         2.98491
LJ           4.55147        -2.33478         5.35299
LJ          -3.40822         1.35109         6.34079
LJ           2.26869        -1.34779         4.64904
LJ           3.97574        -3.02336        -3.72889
LJ           4.01201         3.26199         1.32888
LJ          -5.67388         3.27939         4.88471
LJ           6.36668       -0.299977        -4.65169
LJ           2.12535         1.59612         1.73921
LJ         -0.667486         1.76535          -3.697
LJ          0.468649         1.73688         3.23863
LJ          -5.09151        -5.29899         1.34715
LJ          -2.24644         2.62925        -1.74397
LJ           6.19727        -6.19793         4.76501
LJ          -5.26713        -2.19189         3.37985
LJ          -3.49639        0.307044        -4.80224
LJ           5.06975        -1.59923       -0.431311
LJ          -2.85427         1.81003         1.01378
LJ          -3.51383        -2.14803         6.06113
LJ            5.0548         1.35703         5.27995
LJ           1.72897        0.487204        -6.13625
LJ           3.36833        -6.41455         5.17635
LJ          -5.61139        -2.32353        -6.17314
LJ          -6.46002       -0.510982        -1.37152
LJ          -1.41257         6.03955       -0.124376
LJ          -5.22187        -5.37248        -5.01846
LJ          -4.98637        -1.91754       -0.598235
LJ          -1.07226         3.59097         2.33984
LJ          -2.07128        -1.32173        -4.67282
LJ            5.9313         3.12778        -3.95277
LJ           -6.4276         3.34422         3.82119
LJ           -5.5174         5.27784         5.72159
LJ            6.0748        -4.84527         4.26982
LJ          -1.88413        -4.57572        -3.24662
LJ          -1.09775         -0.6753       -0.150315
LJ          -0.71641         2.73381        -3.46603
LJ          -2.86348         3.92271         -4.0837
LJ          -2.84435        -6.34347       -0.170957
LJ            4.1729        -4.42662         4.27924
LJ          -5.54901         4.41774        0.642712
LJ           3.45489         2.90791        -2.44877
LJ         -0.414072        -5.34949        -6.03216
LJ          -3.06132         3.87766       -0.250104
LJ          -2.34353        -1.36648       -0.845306
LJ           4.74336        0.867793        -5.49936
LJ          -5.43426         1.26556         5.19457
LJ           2.73431       -0.256275         5.18805
LJ          -5.95244         4.52391         -6.3994
LJ           5.29746        -5.51085        -5.81133
LJ           -4.9641         6.17845       -0.354134
LJ           -4.7244        -5.68547       -0.407575
LJ           3.30987         3.19125         2.97924
LJ           5.68853        -2.86872         -1.4984
LJ          0.462074         4.55336         2.73306
LJ           4.92959         2.59875        -3.96966
LJ          -3.75637        0.449641         2.46141
LJ          -3.03925        -3.32174         -3.6246
LJ           4.81227        0.861533       -0.914415
LJ         -0.243342         -5.5336          1.7218
LJ           -4.6384         3.86506         5.37738
LJ           -2.4753         5.84354        -6.44405
LJ           2.46034         4.53813         2.96295
LJ           5.07138         3.67294        -0.55841
LJ          -4.98212        -2.36611        0.845806
LJ         -0.972866        -1.07167        -4.47795
LJ          -2.52796         5.72784         5.00967
LJ           3.58095       0.0619817       -0.182406
LJ            -2.146         1.43963        -5.10741
LJ          -4.89918        -3.95707        -5.42698
LJ           4.30299        -1.62546        -4.21969
LJ          -4.80568         -4.5581         5.62854
LJ           5.59759        -4.95871         2.97061
LJ           2.49603         4.16055         4.69369
LJ          -4.75778         -5.5776         2.35286
LJ          -2.24933         4.57135       -0.151338
LJ           6.44962        -6.01871         3.55628
LJ          -4.76909         4.87517       0.0620544
LJ          -5.15893        -2.53496         1.84765
LJ          -2.11673          1.8201      -0.0942016
LJ          -5.95008         2.62394        -5.44458
LJ          -1.48628         2.14961        -1.19663
LJ          -6.04166         6.41844        -3.98814
LJ             2.007       -0.988153         1.03963
LJ          -2.79573        -4.25673        -2.75825
