108
#Comment!
LJ         -0.179322         6.07601          6.0508
LJ          -3.75908        -5.83048        -2.78229
LJ          -3.55898       -0.307165        -1.94146
LJ           4.72496        -3.01675         -4.7717
LJ          0.167831         4.53277         4.89567
LJ          -3.95208        -1.08116        -6.28617
LJ        -0.0890292        -3.06704         4.62188
LJ          -4.26559         1.18889         3.64345
LJ         -0.205726        -5.25289         5.92045
LJ           1.57454        -2.72257         3.57195
LJ          -1.12995        -5.48837        -3.31134
LJ          0.113761        -2.21661         2.74654
LJ          -4.63575        -1.35873         4.51986
LJ         -0.649505         3.70559        -6.04492
LJ          -6.41905         -1.7598          0.6555
LJ          -2.09884         5.89937         3.66748
LJ           2.15557        -1.59423         1.09362
LJ          -4.33353       -0.920807        -4.43193
LJ          -6.41919        0.258088         1.29987
LJ          -2.64519        -3.95636         1.46647
LJ          -3.15098         5.16434         6.27261
LJ          -4.98092         5.58812        -2.21809
LJ           1.63822         3.93931         4.81338
LJ          -4.64475        -5.66244         -0.8442
LJ         -0.354094         1.51712        -2.11451
LJ          -3.51931        -5.45674       -0.630269
LJ           1.99192        -5.48363         3.59482
LJ          -5.89534         1.30978         2.80409
LJ          0.894009        -3.08015         4.10101
LJ           1.61243          3.3583       -0.773255
LJ          -2.21861        0.511522        -5.00929
LJ           1.44982         4.43064        -5.10957
LJ        -0.0107608         3.64347         6.02248
LJ           1.71285        -3.39373         5.77041
LJ          -1.82826          4.9634        -5.37825
LJ           5.27056         5.25905         4.17682
LJ           3.03943         -4.1144        -2.26433
LJ         -0.207826       0.0425214         1.81381
LJ          -3.49902         6.24835       -0.989427
LJ            -1.243        -4.32388        -4.95433
LJ           5.01058         4.30865         4.29239
LJ         -0.214073         4.40611         2.90764
LJ          -6.07147         5.69993        -3.55011
LJ           1.57293        -1.23592         2.76487
LJ          -3.16209         6.21343        -3.91904
LJ          -3.08804         4.39059        -5.43983
LJ           4.94095      -0.0726047         4.04048
LJ            5.8365       -0.462253           5.421
LJ           2.47074        -1.39834        -3.23111
LJ          -3.83645      0.00690334         2.23526
LJ           6.01483        -6.35834        -4.28528
LJ           0.90226         1.82729         4.31874
LJ          -2.91878         1.74057        -4.38127
LJ         0.0916462         -4.9529          -3.364
LJ          0.874286        -3.48176        -6.38975
LJ          -3.77529        -4.63588        0.144621
LJ           6.06049         4.42725         -2.5075
LJ          -3.96288        -2.36369         -5.5172
LJ           1.69348       -0.472872          1.0541
LJ          -5.57646        -4.78718         3.00979
LJ           5.73976          6.1743         3.16633
LJ           2.26464         5.97705         3.33621
LJ           5.28035        -0.48262        -3.65209
LJ          -1.60573         2.69443       -0.933655
LJ           1.21962         2.18983       -0.733289
LJ           3.57873        -5.95149         6.27463
LJ          -5.51513         4.51915         5.61685
LJ           2.30447        -4.10624        -3.37158
LJ           1.26969        -3.92104         3.47328
LJ           4.17198        -6.19884         5.27859
LJ          0.971333      -0.0279686         2.12083
LJ          -4.90499         -2.3464      -0.0504768
LJ          -0.63055         4.99677       -0.215127
LJ           4.99318         6.37148        -1.41233
LJ          -1.24148       -0.281041        -4.34461
LJ          -1.40493         5.82738        -4.47594
LJ          -2.72999        -6.09433        0.187612
LJ          -5.91822       -0.266419        -4.75034
LJ          -4.77131         5.85568        -1.03044
LJ           4.80856        -3.97808        -5.69017
LJ           -5.0774        -3.37269         -2.1889
LJ            4.1533         3.44339         5.80166
LJ           4.31051         5.08608        -1.98893
LJ          -4.77842        -4.86613        -3.16243
LJ           5.29607         4.93949         5.15059
LJ           3.79581        -5.95062        -3.35913
LJ          -4.60277         3.16753         4.70541
LJ           2.90278       -0.300552        -2.05316
LJ            5.1773        -2.25826        0.535385
LJ           1.42909        -1.73465         4.86658
LJ          -2.84178         1.64904        0.385491
LJ          -1.25856        -6.11492         4.58564
LJ         -0.134528        -3.34097           2.063
LJ          0.750049        -5.46026         4.11076
LJ          -2.06593         0.69818         4.41547
LJ           1.67022       -0.598198         -4.1971
LJ           1.33714          5.1161          2.3654
LJ         -0.852837         3.21116        -3.77904
LJ           4.91785         2.30715         5.94622
LJ          -3.42392         3.05685         2.34834
LJ          -3.04497        -3.32392       -0.963677
LJ         -0.850476         2.05843        -6.35541
LJ           4.55071        -5.37812        -2.15617
LJ           5.68943       -0.443978        0.605133
LJ           5.40783         6.44786        -3.39295
LJ           3.01485         3.97996       -0.491404
LJ          -4.08238         6.09297         2.14282
LJ          -1.97426      -0.0202747         6.31125
