108
#Comment!
LJ          0.638266         5.97607        -4.58113
LJ          -3.52714        -5.17379        -4.80482
LJ          -4.32819        -1.42562        0.712337
LJ           3.20357        -3.40816        -4.09424
LJ          -1.31504         3.32353         3.92524
LJ          -4.93094        -1.48761         6.00635
LJ            1.5656        -2.77073          5.2231
LJ          -2.81838         1.84974        -1.28339
LJ          -2.51874        -5.36505         6.15284
LJ           4.08097        -2.35308       -0.794868
LJ          -0.58252           5.774        -1.94983
LJ           -0.1036        -2.08598        0.249038
LJ          -3.17792        -4.58808         2.09555
LJ           1.99473         4.06326        -4.60922
LJ          -5.17926        -4.70584         1.79603
LJ         -0.393253         3.32062        0.798356
LJ          0.249958       -0.698926        -2.54494
LJ          -3.37782       -0.430318       -0.762031
LJ           6.36836        -0.21224         3.41642
LJ          -5.63198        -2.43657          5.7409
LJ          -1.97303         4.12597         5.65695
LJ           5.82581         5.16083        -1.40675
LJ           1.60047           2.775         2.30076
LJ          -2.44411        -3.48779         1.16251
LJ          0.392338        -3.82421       -0.222422
LJ         -0.520254        -2.75344         1.61594
LJ           4.82801        -2.76914          5.8197
LJ           1.45905         1.25753         5.31679
LJ          0.921639        -4.66336         4.16923
LJ          0.251988         1.45223         1.92719
LJ           -1.2524         0.29118         6.45945
LJ          0.815424        -5.54314        -3.12187
LJ          0.995768         6.33823        -5.80795
LJ          0.848774        -4.10614         6.13043
LJ          -6.40892        -5.30657         6.20743
LJ           5.66384         3.75637         5.32403
LJ           -5.6879       -0.876905        -5.16463
LJ          -1.02689       -0.734997        0.892955
LJ          -3.87352         -5.8746        -1.78022
LJ          0.537553        -5.62146        -5.99455
LJ           3.95419        0.239427         3.05866
LJ          -1.19018        -5.52001         3.30489
LJ          -4.95329         3.67131        -2.84317
LJ           1.60825         -2.1575         2.44463
LJ          -2.54917         3.63742        -5.22286
LJ           -1.6936         1.51284        -4.23082
LJ          -4.05246         2.85352         5.15014
LJ           6.21874        -3.28471         6.11997
LJ          -2.51371        -3.21891       -0.775238
LJ          -4.48993        -1.83977         2.43896
LJ          -5.75296        -5.11209        -5.40529
LJ          -2.23339         4.62049         3.83463
LJ          -1.17043         2.80223        -3.89139
LJ         -0.557098         5.69725         -3.1627
LJ         -0.156292        -1.31046         3.36531
LJ          -4.60434         -1.3327       -0.814812
LJ          -4.23028         6.19185        -5.89242
LJ         -0.809771       -0.929382          -4.512
LJ           1.37643         1.28061         1.55194
LJ          -4.28176        -4.63034         2.55487
LJ           6.27759        -3.62264        0.733889
LJ           2.04653         1.67885        -1.24317
LJ           5.94167         2.88379        -3.39184
LJ          -1.01005         1.51791        -2.48114
LJ         -0.134202        -2.23268        -1.68441
LJ           5.07555         4.38304        -5.84807
LJ          -5.38249         1.50575        -3.56316
LJ           4.29769        -4.18745        -5.41071
LJ          0.993464        -3.73644         4.70487
LJ           1.48401        -5.17947        -6.36384
LJ          0.375761        -1.98257       -0.779635
LJ          -5.34982        -2.44079        -2.10807
LJ          -3.60284         6.40727        0.779911
LJ            2.2397        -5.65862       -0.533443
LJ          -3.66067        -4.13795         6.35774
LJ           3.43326        -5.63055        -2.72305
LJ          -4.43663        -6.21388        -2.91964
LJ           6.27764        -2.40363        -1.95973
LJ           6.19946         4.55788        -2.23985
LJ           5.33945       -0.596036         4.36503
LJ          -2.25879        -6.24606        -4.16881
LJ           3.11768       -0.418279         6.32643
LJ          -4.23057        -4.53114         1.06174
LJ          -2.51642        -3.36102        -2.54619
LJ          -6.27608         5.01204        -5.66198
LJ           5.08238         5.55121        -4.40339
LJ            2.4638        0.683108         1.09114
LJ           3.91339         3.56303       -0.191764
LJ           2.54112        -3.31279        -1.81212
LJ         -0.884119         -1.9287         5.33732
LJ          -4.97974         2.41435        -2.65035
LJ          -3.25079        -5.90286        -5.39948
LJ         -0.970191        -1.45867         2.54341
LJ           3.26508        -3.82082         4.75938
LJ           1.06584        0.678896         6.31231
LJ          0.284617        -3.07451        -1.06705
LJ           1.65613        -2.82792         1.51832
LJ           1.82746         2.28168        -2.05559
LJ           2.52434         1.24745        -5.81657
LJ          -2.32117         3.19429          2.8268
LJ          -5.59516        -1.01925        -1.34555
LJ          -1.01245        -2.83937        -5.97519
LJ          -5.67461        -1.68754       -0.403115
LJ         -0.329381         4.18494       -0.378573
LJ           5.62331          5.7733       -0.454625
LJ           1.38858        -4.55223        0.951576
LJ          -4.51417        -2.86088         0.38439
LJ           2.24906       -0.682314        -6.18738
