108
#Comment!
LJ           5.12799         3.92653        -2.25438
LJ           1.54164         1.82978       -0.672264
LJ          -3.43363         1.53424         2.24613
LJ           1.42725         3.42316        -1.90527
LJ          -3.03919         2.63908        -4.80658
LJ           2.45179         2.37291         5.42034
LJ           6.25089        -3.00469        -4.22203
LJ         -0.744253       -0.931148        -2.96631
LJ          -3.91017        -4.86376         5.63119
LJ         -0.948523        -1.28271         4.15128
LJ           1.29565         1.56097         3.73548
LJ            4.8371        -3.07928        0.536566
LJ          -6.33122         5.25592         1.55589
LJ           2.14717         2.91638        -3.49554
LJ            2.7567         3.79652         1.50616
LJ          -5.37982        -1.93608        -2.83795
LJ           3.42042         -1.0491         3.64695
LJ           4.34846         1.80644        -3.53984
LJ           6.05135         3.31196          4.6172
LJ          -5.00685         3.81512         2.29706
LJ          -3.91111        -2.62803        0.518791
LJ           -2.1626         4.58637        -2.89205
LJ          -1.69821         -4.7755         4.75116
LJ           0.98044         1.76964        -4.46593
LJ           0.25269         1.99759         2.88858
LJ          -4.14644        0.462336         -2.2163
LJ           0.76255        -2.20542          1.8413
LJ           0.65484         5.64788         4.12329
LJ           2.84902        -2.83334        0.407072
LJ           2.57563        -1.25993         0.52058
LJ          -1.80922         4.12523        -4.29988
LJ          -2.78293        -1.85587         1.56792
LJ           5.94514           1.142         4.02814
LJ         -0.634273        -5.41687         4.07954
LJ          -4.93636         5.97233        -6.16419
LJ          0.115366         4.23458         4.48868
LJ          0.541015         4.75421        0.559773
LJ           1.75844        -2.11744         1.28102
LJ        -0.0690062         1.46938        -1.98665
LJ          0.647438        -3.60784         1.74859
LJ           1.65785         1.25987        -2.05054
LJ           3.78274         6.24096        -2.47317
LJ           4.75804        -6.17714        -0.55714
LJ           2.13089        -1.95256         5.19075
LJ            4.2715        -3.44769        -2.58512
LJ           2.28422        -5.81334        -1.62826
LJ          -1.21199         2.42781        -3.15429
LJ            2.9547        -1.47358         5.77813
LJ          -1.43562         3.26449         1.62186
LJ           1.26057       -0.719298         3.00389
LJ          -5.97407         2.99972         1.93914
LJ          -4.88877        -2.34382        -1.37048
LJ           5.88232         3.24486         3.05114
LJ          -1.17598         2.86233        0.455209
LJ           5.65833        -6.10707        -2.19762
LJ           2.09623        0.996887         2.04263
LJ          0.999093        -1.78493        0.670452
LJ           1.39875        -6.26755         6.34229
LJ           5.38289         4.67179         4.43466
LJ           5.11836          2.5613        -4.13836
LJ            4.0022        0.412374         0.94747
LJ          -2.38532        -5.78668        -3.66651
LJ           1.57078        -2.85186        -4.35637
LJ          -3.04921         -5.2524         4.13777
LJ          -3.76925         4.40078         1.27624
LJ            2.0678        -1.19691       -0.755575
LJ          -2.92326          1.4116        -3.31521
LJ          0.952326        -2.69514        0.908118
LJ          -6.10877         2.96481        -5.97811
LJ          -5.66688         1.81995        -1.58824
LJ           3.54214         6.22646        -5.61088
LJ          0.421652         2.86029        -1.15525
LJ           2.78757         -1.7827         1.62645
LJ           3.04673         2.01151         4.31724
LJ          -1.50306         6.03189        0.729038
LJ          -5.06286        -3.54995        -5.39744
LJ          -4.21885         2.67138        -5.49265
LJ          -2.33668        -3.04142        -5.94749
LJ           4.74634         -1.6868        -4.43092
LJ           4.41741        -1.24826        -3.54511
LJ           3.63239         3.43386        0.772728
LJ          -6.24587         2.67396         3.66281
LJ           2.73639         -6.2291         -2.5514
LJ          -1.84457         5.51308         2.94762
LJ          -2.63831        -5.27805         3.12383
LJ           6.07714         -6.0656        -1.25331
LJ            2.4671         1.85617        -4.48442
LJ          -5.03756         5.14078         4.98461
LJ           1.77035        -6.44933        -0.95063
LJ           -3.9814         5.12513         4.00543
LJ           2.82068        -5.38241        0.507814
LJ          -3.13888         5.98152       -0.517865
LJ          -4.17647        -3.37843        -1.04179
LJ           -4.4854        -1.70757         2.52617
LJ           5.52261         -2.5747        -3.56417
LJ           -4.4553       -0.107359         1.07985
LJ           0.94933        -5.70912       -0.729407
LJ          -6.08296         4.44557        -3.35428
LJ          0.864332        -3.32628       0.0105935
LJ           5.31873         4.15004         2.16246
LJ          -3.23286        -1.78218        -1.37235
LJ           5.47572         -2.2001        -5.68799
LJ           1.60791         5.81086        -5.66555
LJ          -5.28434        -4.02972         6.20814
LJ          -3.85611         6.09683          2.3412
LJ          -1.65241         2.28564        -4.74624
LJ          -3.33973         5.42297        -1.78097
LJ           6.32341        0.934575         0.40257
