108
#Comment!
LJ          0.735061        0.976893        0.981723
LJ          0.894947         3.41186        -1.76478
LJ          -4.66504         6.32022        -4.99779
LJ          -3.36365         1.62021        -6.14964
LJ          -3.82524         5.15703         4.61773
LJ          -3.01167         -2.4627         5.68483
LJ           -4.9933        -5.58752         6.44392
LJ           1.59106        0.221526         -5.4338
LJ          -2.24851         3.99572        -5.58925
LJ           5.50121       -0.873381        -5.99422
LJ           1.67525       -0.829087         3.01036
LJ         -0.317677        0.221973        -1.90772
LJ          -4.65762        0.172384        -1.60465
LJ          -4.87386         4.77226        -6.03309
LJ           4.14732        0.369106        -4.20836
LJ           2.74151         4.09727        -5.65138
LJ           3.58363        -3.19463         4.89827
LJ          -5.20101        -2.71406          0.3031
LJ          -2.02161        -1.89603        0.988787
LJ         -0.128177        -1.27413        -1.64452
LJ          -3.76292        -2.51282         3.43078
LJ          -3.95567         4.85671        0.453893
LJ          -1.67745         1.85604        -4.13726
LJ           -3.6143         5.09411         6.20687
LJ          -1.79044        -3.70135         3.31513
LJ           4.40677        -2.33411         5.93136
LJ          -4.12033          1.3018          5.4564
LJ           1.91746       -0.751715         4.06534
LJ           3.68529        -3.14931        -4.28179
LJ           4.18318         2.82465        0.418211
LJ          -4.98812          3.1536         4.20628
LJ           6.08549       -0.681063        -4.59697
LJ           2.12293         2.07159         1.54604
LJ         -0.602192         1.91519        -4.10045
LJ          0.531427         2.09621         3.75198
LJ          -5.11057         -4.7577         1.70159
LJ          -3.13661         2.76883        -1.40882
LJ          -6.38904         6.11484         4.36015
LJ          -4.75124        -2.31478         3.56912
LJ          -3.44101        0.828555        -5.01582
LJ           5.10588        -1.99586       -0.635454
LJ          -3.13217         2.13601         1.72406
LJ          -3.62281        -2.38773        -6.35872
LJ           4.80502         1.17709          5.1052
LJ           1.44999        0.901898         6.42838
LJ           2.82168         6.11011         6.20858
LJ          -5.02009         -2.5005         5.87867
LJ          -6.12095        0.103182       -0.794063
LJ          -1.05126         5.93469        0.591664
LJ          -5.20495        -5.21177        -5.15853
LJ          -4.35018        -2.17141       -0.749821
LJ          -1.24603         3.71133         2.26357
LJ          -1.85013        -1.45202        -4.62558
LJ           5.70804         2.98645        -3.89156
LJ           6.34314         3.20193         3.71166
LJ          -5.48413         4.71742         5.75612
LJ           6.08078         -4.8244         4.82461
LJ          -2.03611        -4.19162        -3.74555
LJ         -0.750508       -0.487643         0.10553
LJ         -0.568125          3.5222        -3.64472
LJ          -3.37201         4.01193        -3.76221
LJ           -2.7169        -5.96461       -0.983424
LJ           4.89348        -4.89673         3.10817
LJ           6.39608         4.56078        0.463977
LJ           4.36877         2.93942        -2.95973
LJ         -0.840668        -4.77586        -6.16003
LJ          -3.89762         2.92368       -0.245196
LJ          -2.60569        -1.14533         0.12669
LJ           4.45782         1.29424        -5.75192
LJ          -5.01053        0.110594         4.97013
LJ           3.53259       -0.518021         5.42482
LJ          -5.82333         4.44653        -5.70552
LJ           5.71904        -4.87689        -5.83743
LJ          -4.35291         5.95306       -0.155571
LJ          -4.59207         -5.7106       -0.126719
LJ           2.27297         2.43173         2.97261
LJ           5.54316        -2.68624        -1.30727
LJ           1.09214         4.69755         2.53468
LJ           4.39627         3.24458         -4.1694
LJ          -4.05303        0.317781         2.53121
LJ          -3.06628        -3.41161        -3.98884
LJ           4.50744        0.720951        -1.01734
LJ         -0.205933        -5.33558         1.72038
LJ           -5.2555         3.82115         5.21503
LJ          -2.73612         5.79433        -5.93082
LJ           2.50311         4.25179         2.62163
LJ           5.25804         3.41374       -0.456413
LJ           -4.4526        -1.74332        0.806675
LJ         -0.858647        -1.10977        -4.30983
LJ          -2.29934         5.91435         5.16137
LJ           4.01805        0.191026        0.104173
LJ           -1.7121         1.93821        -5.82559
LJ          -4.62892         -4.3574        -5.00622
LJ           4.64364         -2.5393        -4.33917
LJ           -4.6787        -4.62866         5.85953
LJ           5.85623        -5.16331         3.19948
LJ           2.44252         3.89008         4.00776
LJ          -4.73466        -5.86264         3.64058
LJ          -1.71996          4.2785        0.382987
LJ          -5.79003         6.14919         3.42267
LJ          -5.20575         4.56851         -0.2722
LJ           -4.4774         -1.5336         2.06447
LJ          -2.45228           2.107       -0.588687
LJ          -6.04598         1.99088        -5.03984
LJ         -0.741499         1.66389        -1.44773
LJ          -5.83253         5.42417         -3.7411
LJ           1.50906        -1.48307        0.946157
LJ          -2.30675        -3.60091        -2.43587
