108
#Comment!
LJ           1.10114         6.18669         3.46035
LJ          -3.08611         4.70323         -3.7664
LJ          -2.59715         1.07179        -1.70721
LJ            5.6049        -1.98987        -2.70794
LJ           3.51376         3.69842         6.37006
LJ          -3.49843       -0.201316         5.42295
LJ          -4.02258         5.97061         3.04089
LJ          -5.56183         1.25049        -1.44672
LJ         -0.654584        -3.38477         5.04625
LJ           1.32637       -0.964448        -2.04182
LJ          0.853705        -3.46803        -3.89633
LJ          -4.58491         -2.9743          2.6974
LJ          -6.12588         2.28112         5.96221
LJ          -3.11213         -2.8475         6.25143
LJ          -3.70227         4.96304         -1.4121
LJ          -0.48928        -2.96891        -4.13318
LJ           2.88521        -2.16473         3.38139
LJ           4.46336        -1.31244          6.1349
LJ            1.6668        -1.15353         0.71026
LJ           3.02288         4.16577         3.26226
LJ          -1.94687        -5.33355        -5.68765
LJ           -2.7856         5.80144        -3.47203
LJ          0.636532        -5.66717         4.07535
LJ           2.69391         -4.5355         -2.1158
LJ         0.0271511         4.21782          5.9716
LJ         -0.154442        -5.07557        0.481824
LJ         -0.838224        -3.58224         3.65767
LJ          -2.25463         2.12317        0.377682
LJ          0.234643        -2.93218        -5.06831
LJ           5.20503         5.42297        -5.55712
LJ          -3.88207          1.0695        -1.64677
LJ           5.06857        -1.20119        -2.58691
LJ          0.299475       -0.667099         3.39779
LJ          0.976626        -4.19759        -5.62622
LJ           3.82054         2.15388        -5.49017
LJ           4.69315         2.83617        -6.32244
LJ         -0.942057        -4.96925        -3.68626
LJ           2.42214         1.71591         3.78492
LJ          -4.92133         3.61643          1.8712
LJ          -4.10541         -3.8741        -4.21333
LJ           3.86104        -5.95645         4.43475
LJ         -0.169631         5.29979         2.38784
LJ          -1.68545         4.05059         4.67763
LJ           3.35868         -1.9028         4.44453
LJ          -1.99754        -5.07826        -3.97203
LJ           3.43231         4.92748         5.72307
LJ           2.95892        -2.30888         6.02356
LJ           4.02926         2.19647         3.59134
LJ           6.34204         3.48289        -4.07546
LJ          -2.95746         1.28524        -0.41269
LJ           -5.3048         2.49075        -5.65932
LJ           2.21696        -3.82348         6.40039
LJ          -2.94386         1.89914         4.92233
LJ          -1.36049        -3.89239        -3.93915
LJ          0.936716        -3.95473         6.01972
LJ         -0.678321        -5.71008        -0.60093
LJ            2.8504        -6.32763         4.00064
LJ          -6.39813        -1.40863         2.32866
LJ          -6.24963         -5.8159        -1.41878
LJ           6.10087        -5.18995         2.98327
LJ          -2.59022        -6.31877       -0.441859
LJ           2.02612         2.27957          5.6773
LJ           2.00498        -3.92115        -4.53457
LJ          -5.17899        -4.84165         1.19633
LJ            1.5409         5.88096         2.40439
LJ           2.03739          -3.469         2.54172
LJ          -5.84426         -4.2562        0.236504
LJ          -1.03126         -3.7008        -2.75886
LJ            5.8687         -1.0209        0.930024
LJ            5.8491        -3.38718          4.5076
LJ          0.886055        -1.46207         4.74292
LJ          -5.14149        -1.84937          3.0075
LJ           2.34984          3.5545        -3.16197
LJ          -5.19109          4.7345        -1.53207
LJ          0.934553         6.17786       -0.131573
LJ          -5.60884         6.43931         4.44249
LJ          -1.84573        -2.64147         3.24099
LJ          -2.17979       -0.872661         5.23886
LJ          -1.55055         2.93662        -2.07443
LJ           4.08614         3.00633        -4.02568
LJ           1.95879        -2.14796        -1.67425
LJ           4.73613         4.49424         5.51832
LJ         -0.120193         2.18886         -1.7453
LJ           5.56592        -5.24016        -2.30106
LJ            4.6495         2.35353        -4.96032
LJ           1.80988        -5.94997        -3.95365
LJ          -3.11909        -6.01678        -3.19375
LJ           5.29013        -0.92413        -5.54733
LJ            -2.453        0.732416         2.68524
LJ           5.66928        -1.67875         5.68189
LJ           4.42832        0.822136         2.63725
LJ          -3.36798         4.82571        0.389585
LJ          0.162626         -3.2203         5.86755
LJ          0.605823        -5.78082         3.06865
LJ          -5.78175        0.707028         2.09973
LJ           3.78044         2.27422         5.96282
LJ           1.78921         1.28453         5.11716
LJ          -4.64559         4.89051        -5.74907
LJ           5.53295         3.99421         4.04455
LJ           -3.4351         1.33755         3.41769
LJ          -3.70857        -3.20478        -1.96818
LJ          -3.19843        0.669944        -2.78862
LJ           3.49504         5.43894        -2.15708
LJ           5.43248        0.397923         1.13148
LJ         0.0401268        -3.74202        -3.03658
LJ           2.81583        -1.79673        -3.61568
LJ          -4.84502       -0.385395         2.92902
LJ          -5.63801         2.04477         3.09764
