108
#Comment!
LJ           1.01136          6.3399         3.59173
LJ          -3.56299         4.83352        -3.48179
LJ          -2.56543        0.998772        -2.19158
LJ           5.60153        -2.08847        -2.90076
LJ           3.45323          3.8373          6.1018
LJ          -3.66639       -0.369343         5.77492
LJ          -3.73118         6.32893         3.20074
LJ          -5.49474         1.29711        -2.12247
LJ         -0.725031        -3.69492         5.04159
LJ           1.34126        -1.16625        -2.78461
LJ          0.907994        -3.47259        -3.98545
LJ          -4.05351        -2.94275         2.72878
LJ          -6.22215         1.99086         6.24767
LJ          -2.90065        -3.44782         6.20036
LJ          -3.64943         5.39904        -1.28711
LJ         -0.983142        -3.24241        -4.68069
LJ           2.73775        -2.17833         3.20053
LJ           4.87177        -1.10981         6.26877
LJ           1.00023        -1.02487        0.693988
LJ           2.58298         4.64331         2.90063
LJ           -2.1774        -5.58338        -5.76258
LJ          -2.85077         5.70279        -3.39117
LJ          0.739469        -6.01749         4.47138
LJ           3.18347        -4.65793         -1.9762
LJ        -0.0999319         4.11118         6.45897
LJ         -0.553497        -5.01426        0.376154
LJ         -0.882827        -3.65735          3.5923
LJ          -2.50614          1.7931        0.692957
LJ          0.197983        -3.19682        -5.14465
LJ            4.9197         5.39005        -4.99223
LJ          -3.85784        0.963528        -1.65507
LJ           4.79483        -0.64001        -2.82958
LJ          0.268209        -0.30004         3.49938
LJ          0.825268        -3.94291        -5.79751
LJ           3.26281         2.40491        -5.38483
LJ           4.60997         3.17819         6.45854
LJ          -1.13444         -5.3218         -3.3916
LJ           2.44385         1.67208          3.7889
LJ          -4.58007         4.00195         1.67773
LJ          -3.87646        -3.92339        -4.24943
LJ           3.79065        -6.39237         4.42285
LJ          0.464494         5.10936         2.31485
LJ          -2.07375         4.16729          5.1317
LJ           3.14753         -2.0484         4.23099
LJ          -2.27635        -5.00429        -4.05866
LJ           3.98733         5.11088         5.92275
LJ           3.10391        -1.87675         5.92421
LJ           3.63848         1.93405         3.72368
LJ           6.24207         2.90855        -4.35386
LJ          -3.04012         1.17218       -0.117741
LJ           -5.4024         2.91467        -5.39298
LJ           2.29897        -3.31841         6.25004
LJ          -2.98515         1.80363         5.40606
LJ         -0.767131        -4.14224        -3.84926
LJ           1.14709        -4.07439         6.03197
LJ          -1.12177        -5.94229       -0.647574
LJ           3.10196         6.40829         3.34299
LJ          -6.17188        -1.52245         2.84766
LJ           -5.6818         -5.1899        -1.15221
LJ           6.20306        -5.14837         3.00679
LJ          -2.93212        -5.88843       -0.382612
LJ           2.05398         2.57492         5.52261
LJ           2.42163        -3.67921        -4.32371
LJ          -4.90149        -5.27538         1.00337
LJ           1.27279         5.49011         1.98775
LJ           2.23893        -3.37353         2.93734
LJ          -5.77911        -4.64814        0.786213
LJ         -0.831721        -3.56374        -2.55538
LJ           5.41128        -1.34357         1.08561
LJ           5.61261        -3.33289         5.12868
LJ           1.00122        -1.07737          4.5872
LJ          -5.18613        -1.86774         2.70823
LJ           2.12322         3.71952        -2.89869
LJ          -5.30412         4.86912        -1.72488
LJ           0.71091         5.56314       -0.406411
LJ          -5.74608         6.02025          4.6493
LJ          -1.65636        -3.21458         3.13312
LJ          -2.35152       -0.747455         5.26885
LJ          -1.31354         3.02531        -2.00909
LJ           4.09582         3.45217        -4.17682
LJ           2.40957        -2.27233        -1.76553
LJ           4.98512         4.43292         5.64745
LJ         -0.425509         2.59858        -2.00514
LJ           5.79071          -5.194        -2.41201
LJ           4.78475         2.75275        -5.44232
LJ           2.11673        -5.87452        -3.84643
LJ          -2.42116        -6.11375        -3.34185
LJ           5.17665        -1.48457        -5.64857
LJ          -2.75802        0.663702         2.44805
LJ           5.30266        -1.73943          5.4514
LJ             3.577        0.874731         2.45181
LJ          -3.30599         4.96644        0.759553
LJ          0.206885        -3.09212          5.4233
LJ          0.445696        -5.76229         3.06527
LJ            -5.915        0.602915         2.02183
LJ           3.59234         1.91201         6.12423
LJ           1.73757         1.57644         4.52043
LJ          -4.03249         4.67821         -5.5443
LJ           5.71919         4.10784         4.18642
LJ          -3.72392         1.71283         3.24208
LJ          -3.59255        -3.58477        -1.59739
LJ          -2.95815          1.0571        -3.17782
LJ           3.41465          5.4666        -1.87829
LJ           5.85038        0.409808         1.31787
LJ           0.14626        -4.22507        -3.23174
LJ           2.86801        -1.30619        -3.32083
LJ          -4.51706       0.0175927         2.93198
LJ          -5.23604         1.96356         3.38005
