108
#Comment!
LJ          -1.86011         2.16817         3.44846
LJ          -1.26986         6.33459          5.2586
LJ          -1.38892        -3.68876         4.85645
LJ          -5.12529         4.91496        -1.23547
LJ           2.48891         5.96697        0.137964
LJ         -0.231309         -3.9875          3.7953
LJ           3.24573         6.27205        -5.12068
LJ           3.94078        -5.28606        -4.05079
LJ          -3.50638         2.37024         4.31919
LJ          -6.08253         2.11756        -3.85077
LJ           1.65574        -2.86255        -4.15599
LJ           1.11161        -2.94776        -3.02138
LJ          -3.54875        -3.11622        -1.64577
LJ           4.09899         -5.1009         6.20949
LJ          -2.42963        -3.30749        -3.09134
LJ          -4.85815         2.66366        -3.90759
LJ          0.689854        -3.83798        -2.20141
LJ           4.54676        -5.89025         1.15286
LJ          -4.48422         1.51858        -1.68904
LJ           1.61747        -3.74355        -5.79058
LJ         -0.999979         2.56742         1.54428
LJ          0.692786         1.41402          2.1553
LJ          -3.68461        -0.56251        -4.26315
LJ           -1.8449       0.0271603         6.17171
LJ          -4.24953         5.83864       -0.963116
LJ           4.68801        -5.03461         1.67774
LJ           6.44242         2.89331         2.65843
LJ           6.38413        -4.40387          6.3892
LJ           2.66745        -1.73962         1.31657
LJ            2.7144         5.88478        -6.04564
LJ          -6.17128         1.08707        -3.96768
LJ          -5.41863         1.87262         -4.7904
LJ            4.1603        -3.66476        0.459474
LJ          -3.72455        -2.93099        -3.34399
LJ          -5.23493        -1.22094         3.01124
LJ            2.1924         5.75216        -4.19437
LJ          -4.49514        -6.14209        -6.29897
LJ           3.88562       -0.102807        -5.33158
LJ           1.74201        -2.19551        -1.60072
LJ          -3.25411        -2.51481        -2.39186
LJ           4.09709         4.18323          0.6226
LJ          -2.60405        -0.32794        -3.51025
LJ          -2.09514       -0.190906        0.858608
LJ          -4.68494         3.88979        -4.57263
LJ           2.89927        -3.12772          6.2171
LJ          0.154266         2.44161        -1.53964
LJ           5.31755        -6.21722        -3.75332
LJ           -2.7189        -5.01962        -2.74756
LJ          -3.58479         3.13208          -3.731
LJ          -2.54779        -1.59273        -1.37474
LJ           2.96526         4.06524         1.35172
LJ         -0.678584          1.2823         3.91388
LJ          -2.94838      -0.0325071        -5.08027
LJ          -6.45113        -1.75916        -5.44482
LJ           4.15945        -6.31321         4.17406
LJ          -0.68395        -4.92584         5.37636
LJ          -4.77853          2.1654         5.20353
LJ          -5.51785         4.78049         6.02226
LJ          -4.84592        -3.81468        -6.20075
LJ           2.78797        -2.62993         -5.2503
LJ           1.66633         5.68701        -6.23543
LJ          -3.13217         4.29684         1.38454
LJ          -2.93326         3.44787         2.04369
LJ           1.19116         3.84635        0.691126
LJ          -6.29846        0.361535       -0.442432
LJ           3.45916         5.89376        -3.09217
LJ           5.39418         3.56114       -0.185497
LJ          -3.12723       -0.862227         4.53305
LJ          -3.77908        -1.45657        -6.32852
LJ           1.51693        -1.51228         2.34614
LJ          0.120209         2.37485         2.02539
LJ          -2.04617         5.35068         3.86447
LJ           1.60587         1.63454        -3.81503
LJ          0.625351         5.25085          5.0102
LJ          -2.67248         6.07346         2.59308
LJ          -5.80844         2.02077         2.23779
LJ           -3.7175        -4.20813        -3.27093
LJ           -4.4194        -4.03175         3.54508
LJ          -0.46483         3.07759          -3.555
LJ          -1.21408        0.941651         2.64683
LJ          -3.53685         6.29047        -2.87749
LJ          -4.90842         1.53409      -0.0585638
LJ           -1.6541         4.02749        0.753479
LJ            3.5481         5.71527         5.56262
LJ           -3.0263         2.78244         5.70957
LJ           4.49585         5.53826         4.69772
LJ           3.03095        -5.66152        -2.71937
LJ          -4.07542        0.255021         2.17491
LJ          0.721449        -4.74744        -5.19825
LJ           2.80937         4.08301        -4.50763
LJ           1.55838        -1.16815        -2.53556
LJ          -3.62242        -1.69617        -1.70367
LJ          -6.18936        -3.22586           3.913
LJ           1.77044        -5.81326        -4.04773
LJ           4.89731        -1.85177         3.87358
LJ           4.24951        -6.29935        -3.40382
LJ           3.31924          3.1822        -2.77802
LJ          -3.58224         5.41495         -3.5433
LJ           5.76736         6.46171      -0.0889603
LJ          -1.55665         4.69811        -5.71789
LJ           -2.2259        -6.26284         4.83538
LJ           3.80985        -1.15744          3.0705
LJ          -3.63609        -2.30955         3.55542
LJ           1.54316      -0.0142399         6.10273
LJ          -2.48666          4.0221         3.88824
LJ           3.04602        0.300322          5.7249
LJ           4.31032         4.76892         4.13012
LJ          -5.85618        -5.66928        -6.34304
