108
#Comment!
LJ          -2.69488         3.40378        -4.21424
LJ        0.00998713        -1.57102         1.74413
LJ          -2.36035         2.59177         1.15614
LJ           2.42059         5.41817         -3.6044
LJ          -2.52801        -1.49531         -4.4556
LJ          -6.19123          1.8514        -5.32333
LJ          -5.70753        -3.51912         -6.3133
LJ           1.29723        0.527647         -1.8524
LJ          -1.99216         -2.4219       -0.474463
LJ          0.166423         1.51969         1.79904
LJ           3.85472         3.14838        -1.96583
LJ          -5.09291         2.27834         4.55494
LJ          -5.93224        0.955737         1.52612
LJ           2.39916        -2.42322         3.96985
LJ           2.08344        -4.58542        -1.29077
LJ           1.14966        -1.34846        -1.70232
LJ          0.984458        -6.10285         1.81027
LJ          0.154824        -2.71857         2.10172
LJ          -4.27531         6.32487         3.07973
LJ          -4.68585         2.90901         2.43655
LJ          -4.45679       -0.654905         2.55813
LJ          -4.73925        -3.95171         1.54016
LJ          -2.86921        -1.59276        0.894998
LJ          0.952422       -0.918765        -6.21585
LJ          0.602068         1.69397        -2.19091
LJ          -2.46409        -1.23644        -2.79927
LJ           1.98335        -4.81688         2.59114
LJ          -1.00394        -4.52395        -1.49153
LJ          0.425085        -1.07485        0.433852
LJ           4.62256        -3.69658        0.526045
LJ         -0.539505        -1.90662        -4.78724
LJ           4.89711        -5.36764         2.31543
LJ           5.60653        -2.49941         5.52727
LJ           1.11678       -0.434097         3.34333
LJ            -5.877         2.30003        0.234782
LJ          -3.12641         3.53889        0.736987
LJ           1.20956         4.08005        -2.37243
LJ           3.52631        -4.45924        0.665223
LJ          0.778113         1.09073         0.92965
LJ           3.43786         -5.3342         2.28492
LJ         -0.485366         3.66437         4.39376
LJ           2.39178        -5.86435         1.82145
LJ           4.75635         6.06799         -1.2425
LJ         -0.188471       -0.967475        -5.82501
LJ           3.26713          2.6736        -3.28982
LJ           1.34201          5.0259        -4.39645
LJ           1.53036        -5.92642        -4.67386
LJ         -0.629491         5.62822        -5.53299
LJ          -5.27054        -6.31529         4.30822
LJ       -0.00880665        -3.49866        -3.94391
LJ          -4.26735         4.94637         2.98702
LJ          -2.73442        -2.07042        -3.37031
LJ          -4.99249       0.0396546         3.64821
LJ           3.25263        -5.86322        -3.10293
LJ           1.74951         1.87841       -0.715489
LJ           5.34615        -6.23102         1.61798
LJ          -5.77897         1.27227         4.12252
LJ          -1.34228         -1.2577        -6.00918
LJ          -2.62009         1.74226         4.35859
LJ         0.0533296        -4.74896         2.09247
LJ          -4.48935        0.848511        -4.86409
LJ           3.88185        -1.20871        -4.92409
LJ           4.24624        -4.24806         4.62811
LJ         -0.531013        -3.29503        -1.22846
LJ           2.67443         3.07708         2.88094
LJ           1.27353        -0.51731        -2.41414
LJ         -0.987554         -1.3454          -3.784
LJ         -0.825582         2.43276        -4.77427
LJ           -1.9168         -1.2268         2.38398
LJ           -1.8168        -2.56349         3.52204
LJ            2.3545         1.54333         0.78883
LJ           1.35737      0.00877501         -0.6793
LJ           4.31754        -4.77051          1.1675
LJ           6.44754         2.20995        -4.37268
LJ           4.46351        -2.07659         1.60885
LJ          -2.77685        -5.35092        -4.16955
LJ          -1.55029        0.509857         5.04261
LJ          0.907739         2.40334        -5.94081
LJ           1.61221           3.366        0.381205
LJ          -4.69586         -2.0587         -2.4964
LJ          -1.01902         -4.5806         1.18731
LJ           5.75561         4.41129         4.56516
LJ          0.267096          4.7825        -5.11345
LJ          -4.96851         1.84288         -5.3257
LJ           4.85286          3.7589       0.0706954
LJ          -2.58178        -2.02444         2.07067
LJ           1.48304         2.03376        -2.58279
LJ          -2.08409        -3.09473         -5.9568
LJ          0.769431         5.96973        -3.21252
LJ          -2.96212         3.22754         4.87078
LJ           3.23487        -5.66615         3.47105
LJ         -0.235721       -0.849007         3.19268
LJ            -2.335       -0.655349        -5.63682
LJ          -4.02576        -3.81463          -4.342
LJ          -1.26636         3.29004        0.677974
LJ           3.75932          1.4445        -2.42985
LJ         0.0586141         2.92618        -4.66794
LJ          -3.51248          -4.757        -5.29208
LJ          -5.07061         5.18956        -3.36202
LJ          -4.86379         0.27233         6.03998
LJ          -3.46508        -1.01022         1.73782
LJ           4.92804        0.586609         5.05762
LJ           2.86671        -5.26805          5.0556
LJ          -1.79053         5.17367        -1.50086
LJ         -0.801394         1.22619        0.540025
LJ          -1.43753        -3.68448        0.296103
LJ          -5.92311        -5.88296         3.15291
LJ           1.59185        -3.00333        -5.51726
