108
#Comment!
LJ          -3.73197         3.61306        -3.63072
LJ           5.74104        -3.26692        -2.90671
LJ           5.30287       -0.159576        -1.94656
LJ          0.688321        -2.04916        0.911487
LJ           2.65281          4.4284         2.15735
LJ           0.95955        -5.52215        -2.07153
LJ           3.84348        0.518958          1.6983
LJ           3.12217         3.33789         3.49387
LJ           5.23696         5.60966        -4.66045
LJ          0.355362        -6.24781         -3.9936
LJ          -3.55989         1.80315         3.43757
LJ          -1.95614          5.5288      -0.0243514
LJ           1.77239         5.45976       -0.248873
LJ           3.56431         -5.3412         2.50993
LJ        -0.0846363         2.62521        -5.42716
LJ            1.7904       -0.918982        -2.09086
LJ          -5.96965          2.0858         3.69921
LJ           2.73454        -1.05109       -0.303984
LJ          -2.68658        0.576608         4.05922
LJ          -1.29709        -5.87092        -6.45888
LJ           -1.3118       -0.625483         2.98281
LJ          -4.68941        -4.68518        -5.88851
LJ           1.47216         2.69796        -5.87876
LJ          -3.24012         3.61939         -0.9291
LJ          0.178956        -4.32916         2.81787
LJ          0.808965         3.29163        -5.44538
LJ          -4.24929          5.0299        -4.83608
LJ           4.66299         1.59351          1.2382
LJ          -3.07611        0.719345        -4.31958
LJ          -4.24987        -2.96123         4.83787
LJ          -3.15785         4.27698         2.02631
LJ          -4.22275        -2.07006        0.125394
LJ          -0.92097         1.66652       -0.164053
LJ         -0.495653         2.69572        -4.08793
LJ          -2.96335        -2.41357       -0.801658
LJ          0.320073         4.69528        -3.84811
LJ           2.91244          3.2468        -5.56676
LJ          -3.57184         2.79507        -2.77893
LJ          0.911276         3.21659         2.16622
LJ          -3.61666         -6.2495        -2.32882
LJ           4.70061         3.37794         3.82647
LJ         -0.490468         -2.8438         6.00738
LJ          -2.69516        -2.54611        -3.15049
LJ          -5.80059         2.90866        0.250195
LJ           2.89904         3.93585        -4.72512
LJ          -5.47123         1.80449       -0.141862
LJ           3.76664         3.43979         4.54261
LJ           3.79814        0.974939         2.62873
LJ           3.69492        -3.47555        -1.37278
LJ           5.93044       -0.347018         1.40284
LJ          0.535259       -0.349385         5.74546
LJ           4.36645        -6.28957        -1.71657
LJ           2.94607        -3.15935        -3.94268
LJ           1.54854        -1.96734       -0.816414
LJ           5.21185         0.62703        -2.73749
LJ        -0.0115565         6.33719        -3.05446
LJ          -2.39039      -0.0969177         2.06825
LJ           -1.5358        -1.85455        -3.15843
LJ         -0.739941         -6.1965        0.566223
LJ          0.283643         1.89112        -3.43539
LJ           1.93139        -3.62492         2.16605
LJ          -1.53736        -3.24961         -2.6864
LJ          -6.32108        -4.75308        -4.32605
LJ           3.42704          6.1992        0.233515
LJ           5.39444        -4.19806         5.69991
LJ          -5.98117        -5.50351        0.311336
LJ          -1.62018        -4.65496         6.07535
LJ          0.611988         2.01123         5.20962
LJ           2.85984       -0.976073         3.42499
LJ         -0.801326        -0.35665        -3.27495
LJ           4.03251       -0.413799         1.30232
LJ          0.953234         6.37281        -1.15948
LJ         -0.628459         4.57582          3.9347
LJ           5.67488        -1.65701       0.0536094
LJ          -3.55244        -2.04559         4.55873
LJ          -2.43112        -6.36765         6.18913
LJ          -4.10531         2.63431        -6.29913
LJ            1.1837         -2.8294         3.99654
LJ          -6.20523        -6.21407       -0.801693
LJ           4.91513        -2.45434         5.10912
LJ           5.16877      -0.0637984        -4.32645
LJ          -5.60897         2.39582        -4.06396
LJ           -4.3788         2.74247        -3.70017
LJ           5.51228       -0.310163        -3.26362
LJ          0.928816        -5.74371       -0.428846
LJ           -5.0348         -2.0187         3.60949
LJ           1.21718        -5.73103        -4.48082
LJ         -0.266613        -6.08566         -1.5611
LJ           3.96417        -5.26179         3.84286
LJ          -1.07015        -1.19143        0.759623
LJ          -2.15175         4.11296        -2.44931
LJ          0.796233         5.21381        0.112894
LJ          0.873615         1.22665        -4.23483
LJ          -1.23037        -2.21965         2.59911
LJ          -3.51366        -2.91197        -1.67993
LJ          -3.22118       -0.180674        -3.35274
LJ           5.53172        0.857054        0.979113
LJ         -0.626555        -5.97325       -0.561859
LJ          -2.55398         0.94515        -2.40856
LJ          -2.42627        -2.08222         5.99014
LJ           1.08475         5.77202        -4.14199
LJ         -0.613402         1.08475        -1.29139
LJ          -2.71314          2.5035         5.02225
LJ          -3.24272         1.80429        0.265456
LJ          0.390055         6.03956        -1.96496
LJ           5.93717         1.90934         5.35275
LJ          -2.18383          1.5396       -0.453266
LJ          -5.35827         5.12821        -2.51435
