108
#Comment!
LJ          -1.72737         2.97997         4.78268
LJ          -3.94645        -5.92207        -2.86796
LJ           5.34098        -2.50549         6.15346
LJ           2.69891         3.52377         1.59854
LJ          -1.07562        -5.20966         4.86814
LJ           2.22996        -3.99925         1.15465
LJ           1.32115         5.35845        -2.24621
LJ           4.63498          4.6408        -4.59786
LJ          -5.68817         4.73967         2.44895
LJ           -3.5485        -1.64058        -4.87269
LJ         -0.330665       -0.707546        -6.23371
LJ            1.7585        -5.11617        -1.87984
LJ          -1.22222          6.2182       -0.234592
LJ            4.5544         -3.9646          5.8728
LJ          -1.55635        -5.23382         6.19536
LJ           6.09771        -6.03546        -1.91862
LJ          -3.91564        -5.63361        -4.16865
LJ           1.54512        -4.71561       -0.300491
LJ          -5.60959        -3.15488        -3.57834
LJ          -2.92602         3.27772          5.0697
LJ          -1.93988         4.22207       -0.611088
LJ           1.35648        -0.90773        -1.51132
LJ          -5.08631         2.80079        -3.48167
LJ          -2.91606         1.25086        -4.62537
LJ         -0.257425         3.49928        -5.56089
LJ           4.04119         5.95946       -0.923366
LJ           2.48757         4.66916         2.92648
LJ           -2.4762        -2.90623        -3.56029
LJ          -2.36139       0.0861615       -0.557067
LJ          -5.89374        -0.19225         6.11016
LJ          -6.08116         2.10545        -3.72427
LJ            4.2352         1.99119        -2.61863
LJ          -5.94497         4.93118        -1.97457
LJ          -1.85225         5.33232        -1.65793
LJ           1.91239        -1.70569         2.33141
LJ           2.44098         4.29991        -3.88537
LJ           6.25693        -2.88443        -1.15705
LJ           1.14914         2.94338        -3.86518
LJ         -0.557323        -4.51452        -5.81564
LJ          -1.40068        -5.35908        -1.80123
LJ           4.27901         2.53278         3.10148
LJ          -2.81396        -1.00064        -4.26422
LJ          -2.64494        -1.08483       -0.559517
LJ          -3.95563         2.32265        -1.86573
LJ             5.081        -4.70974        -6.31669
LJ          -3.58683         1.97812       -0.803309
LJ           5.65482         4.24668        -4.90707
LJ          -0.42032         3.76729        -2.08068
LJ           1.82772          1.1671         4.03536
LJ          -3.89286        -1.36086         4.47672
LJ           3.19771        -2.05112          4.1049
LJ          -5.55577         5.11556         6.42705
LJ          -6.10815        -3.34092         -5.3716
LJ          -4.53898        -1.25097         6.05299
LJ           5.62966        -3.51948        -5.49552
LJ          0.252491         5.95297        -3.25795
LJ          -2.23472         3.78267         2.79054
LJ           2.39468         2.94614         2.63782
LJ          -2.47986          -2.052         4.13248
LJ           5.77808         5.16165        -2.79725
LJ           2.65535         1.90503          2.6829
LJ          -2.00929        -6.46222        0.416545
LJ           -6.3767        -4.54011        -5.68588
LJ          -2.07568         1.50489        -2.10653
LJ          -0.34974     -0.00521018       -0.380389
LJ         -0.865244        -4.29088       -0.364544
LJ           2.12211         5.90408         6.46211
LJ           6.28779       -0.926917         -4.0935
LJ          -6.15162         2.31108        -2.63711
LJ           0.78853        0.916773         1.30161
LJ           3.14713         2.99457        -1.01917
LJ          -1.25751         5.33575         1.86062
LJ           3.27099         1.69334        0.556716
LJ          -1.97127         2.22205        -1.03131
LJ           3.77523        -5.71438        -4.42616
LJ          -5.50001        -1.32256        -6.37841
LJ          -2.21185        -5.43083        -5.05278
LJ          -3.55384        -3.77453         3.82583
LJ           3.78462       -0.495669        -0.79242
LJ           2.60815         5.00453        -1.63711
LJ          -6.26537        -6.35744         -4.9358
LJ          -0.84596        0.387633        -1.26817
LJ          -1.12261         0.54213       -0.178769
LJ           6.01595        -3.63708         5.33333
LJ          -2.15358         4.66977        -5.56867
LJ          0.473377        -5.37147        -1.22068
LJ           6.14765        -4.73095        -3.96651
LJ         -0.696741         4.85295        -0.86476
LJ           3.15472        -2.97964        -6.36263
LJ           6.04009        0.650212        -3.41258
LJ          0.788774        0.303485        -3.00649
LJ          -0.79865        -5.73507       -0.736151
LJ           4.09434        -1.91581         -1.2194
LJ           3.90304        -1.48169         4.68158
LJ          0.618978        0.558349       -0.310354
LJ             5.109        -3.98004        -2.66436
LJ           5.65928       -0.572603         2.36471
LJ           -3.6281         3.27973       -0.707204
LJ           1.32149        -2.66177         4.57792
LJ            -3.198        -2.21899        -5.97226
LJ          0.690422         6.22527        -4.50253
LJ          0.358402         1.56428        0.374474
LJ          -4.52323        -3.30123        -4.71009
LJ           4.49882       -0.506551         3.85197
LJ          -0.28693         3.46089        -4.02378
LJ           4.93434          1.2582         4.18657
LJ           4.00048         1.29516         2.94989
LJ          -5.55457         4.91262         5.39113
