108
#Comment!
LJ           4.46846         4.07973         -1.5554
LJ           1.48353         1.72142       -0.830213
LJ           -3.4576         1.44798         2.19769
LJ           1.37776         3.57027        -1.89902
LJ          -2.97616         2.62786        -5.31613
LJ           2.28712         2.27562         5.06497
LJ           6.28148        -2.66417        -3.86629
LJ         -0.676248        -1.06991        -3.20022
LJ          -3.93833         -5.0692         4.87862
LJ          -1.23668         -1.5096          4.4777
LJ           1.47286         1.65374         4.40165
LJ           4.44144        -3.54974         0.22656
LJ           6.24412         5.62175         1.94825
LJ           2.39957         3.23958        -4.26916
LJ           3.48149         4.03352          1.5452
LJ          -4.78074         -1.9745        -2.94297
LJ           3.57781        -1.76005          3.7691
LJ           4.69257         2.31147        -4.26617
LJ           5.71528         3.44702          4.4715
LJ           -4.8873         4.00743         2.02866
LJ          -4.01897        -2.38996        0.613374
LJ          -1.82269         4.65182        -3.12681
LJ          -1.77645        -5.74819         4.88734
LJ           1.45552         1.73741        -3.58881
LJ         0.0862662         1.71616         3.13272
LJ          -4.62361        0.639038        -2.50832
LJ          0.488969        -1.51874         1.23668
LJ           1.18446         5.46957         4.89372
LJ           3.04985        -3.42812        0.766041
LJ           2.62805        -1.41317        0.212199
LJ           -1.7726         4.24603        -4.66488
LJ          -2.49673        -1.95353         1.73598
LJ           5.89872          1.4775          3.9786
LJ         0.0435659        -5.18514         4.75352
LJ          -5.03707         4.96634         6.33625
LJ          0.339513         4.80564         4.44518
LJ          0.102725         4.85505        0.824114
LJ           1.95168        -2.13264         1.12981
LJ          0.237291         1.55033        -2.05283
LJ          0.226205        -3.81433         2.56724
LJ           1.45773         2.35315        -2.11294
LJ            4.0127         6.10788        -2.70108
LJ           5.06765        -5.60777       -0.502887
LJ           2.03903        -2.08727         4.73785
LJ           4.82545        -2.46076        -2.68391
LJ           1.96978        -5.68253        -1.27259
LJ          -1.41766          1.9205        -2.43194
LJ           3.63484         -1.9232         5.72188
LJ          -1.20868         3.13815         1.62044
LJ          0.891072       -0.200358         3.35293
LJ          -6.20156         2.94355         2.03059
LJ          -4.90515        -2.47105        -1.09767
LJ           5.80997         3.57104         3.19494
LJ         -0.924797         2.12288        0.634295
LJ           4.52765         -5.7886         -2.4462
LJ           1.95079         1.76187         2.79697
LJ          0.493947        -1.30309     -0.00138783
LJ           1.88767         6.16082         6.35051
LJ           4.71837         4.36872         4.12217
LJ           5.50248         3.14524        -4.41818
LJ            3.5701        0.317983          1.5458
LJ          -2.92496        -6.25021        -3.54763
LJ           1.57891        -2.61711        -3.69895
LJ          -3.23116        -5.71656         4.28544
LJ           -3.2752          4.1578         1.15231
LJ           2.54178        -1.63477       -0.910752
LJ           -2.8988         1.64679        -2.79797
LJ           1.14448        -3.07561         1.32427
LJ          -6.23775         3.09328        -6.10319
LJ          -5.95374         1.86145        -2.01468
LJ           3.55432         5.59478        -6.32772
LJ          0.668296         3.05076        -1.13804
LJ           2.97562        -1.40223         1.38239
LJ           2.42633         2.06364         4.04327
LJ          -1.27688         5.48168        0.184512
LJ          -4.37095         -3.7963        -5.17761
LJ          -4.48987         3.26848        -5.43066
LJ          -2.53088         -3.1235        -5.14391
LJ           4.45206        -1.64359        -4.90078
LJ           3.89919        -1.04442        -3.09435
LJ           3.82223         3.03975         1.01783
LJ           6.40271         2.28663          3.4729
LJ           2.82267        -5.88823        -2.40042
LJ          -1.46974         5.24298         2.52022
LJ          -2.64984        -4.87707         2.83955
LJ          -6.05568         6.32601        -1.52593
LJ           2.29994         1.71428        -4.59576
LJ          -4.89527         4.92517         4.73655
LJ           1.27478         6.33766       -0.966941
LJ          -4.27747         5.45136         4.02123
LJ           2.82965        -5.32589        0.645941
LJ          -3.39614         6.06445       -0.471616
LJ          -4.59593         -3.3273         -0.4995
LJ          -4.27093        -2.31286         2.80704
LJ           5.17062        -1.97347        -3.77308
LJ          -4.06856        0.375143        0.563835
LJ           1.07154          -5.404       -0.704071
LJ          -6.08069         4.35344        -3.22353
LJ           1.41977        -3.07113       0.0219665
LJ           5.50465         4.74671          2.6429
LJ          -3.25713        -1.97948        -1.93811
LJ            5.3122        -2.75924        -5.09567
LJ           1.41121         5.84671        -5.54927
LJ          -4.46974        -3.96741          5.6222
LJ          -4.67885         6.18906         2.89142
LJ          -2.03435         2.67452        -5.82157
LJ          -3.49902         5.19224        -2.00817
LJ          -6.12002      -0.0565136         0.27245
