108
#Comment!
LJ           4.66484         4.32924        -4.11943
LJ           1.93257        -3.00548        -3.40224
LJ            6.3174         1.98383       -0.767106
LJ          -2.97363        -6.27035        -2.24976
LJ           2.64646         6.37868        -5.79395
LJ           3.71526        -2.68775        -4.31111
LJ           -4.8334         -3.1716         4.24569
LJ           4.15298         1.82499        -3.03683
LJ          -6.24807        0.634809       -0.846076
LJ          -3.14045        -3.73565         6.39613
LJ            4.4965          6.2788         3.00045
LJ          -3.45632         4.38263         3.96022
LJ          0.577969        -6.19431         1.13464
LJ           2.96112        -6.42429        -2.26678
LJ           1.47087        -5.65285        -3.17357
LJ           5.06661         2.70765        -3.89189
LJ           4.51729          -1.472       -0.884568
LJ          0.512998          2.1298         6.20436
LJ          -1.03988        -1.21848         5.38881
LJ           2.74398         2.61106        -6.15993
LJ          -4.94226        -1.74105         5.25709
LJ          -5.99393         4.83173         2.40221
LJ          -4.15231         2.67787         1.20101
LJ          -2.94487         2.49236        0.880759
LJ         -0.444144         3.19383         1.24289
LJ        -0.0748418         3.28412         5.46082
LJ           2.09001        -5.69205         3.90065
LJ           4.52669        0.989061        -5.31617
LJ          -1.94844         1.75294         4.62853
LJ         -0.499489         1.32065         3.15847
LJ          -1.48052         5.73607        -6.19357
LJ          -1.02746         3.57949         3.66765
LJ           4.22625        -6.28844        -1.71457
LJ          -1.48517         1.92488        -2.09681
LJ            2.1673        -1.28595         -2.1295
LJ          -2.97615         4.52063        -2.95029
LJ         -0.245581        -3.30628         -2.3858
LJ           5.02829         4.50793        0.815156
LJ           2.56508      -0.0731219        -3.59451
LJ          -5.39943         -6.4061        -5.98926
LJ           3.18402        -5.67127         4.59227
LJ          -2.26458        -3.05226         3.21775
LJ          -4.78421        -5.24066        -1.92165
LJ           6.00165         2.66449         2.29787
LJ           3.47485        -4.17644        -4.02123
LJ           4.34532         2.60344         1.22811
LJ           4.82061         3.74531         3.26317
LJ          -3.85269        -3.01031         5.02837
LJ           5.17407        -5.10972         4.93468
LJ           2.11725         5.28986       -0.928912
LJ         -0.785615         -2.6582        -4.12393
LJ          -5.98896        -3.82571         3.71215
LJ            1.7663        0.031242         -5.1414
LJ         -0.376028        -1.18132        -4.27053
LJ          -6.05377         2.07855         -1.8718
LJ           -2.8866        -6.41285          0.8241
LJ          -1.05783        -4.80552         3.93986
LJ           1.26472        0.391997         2.76648
LJ         -0.263671        -6.12859         2.04652
LJ           5.32949         2.70751         5.95131
LJ         -0.383868         5.32993        -5.86456
LJ          -4.27235         1.24779        -4.68887
LJ           5.51773        -4.00875        -1.01658
LJ           1.78267        -6.08289        0.877668
LJ           5.92098        -5.06564          4.3837
LJ           3.85307        -4.11245         3.34007
LJ          -5.67414        -1.96752         2.37728
LJ           3.90048         3.26968         -5.7184
LJ           1.69965         4.83047         5.96324
LJ           -2.5837         -2.8215        -5.62133
LJ          -4.91081         -1.6082         3.74079
LJ           1.03536         -3.2264       0.0821538
LJ          -4.56531        -6.30614         4.00238
LJ          -1.93661        -5.47624         5.49514
LJ          -4.01478        -3.56075         3.55484
LJ          -1.03706         4.71834          6.2998
LJ          -4.04873       0.0567011         1.90115
LJ           3.26577        -2.20842         2.88913
LJ          -5.07622         3.89715        -3.53364
LJ           6.15882        -2.47657         2.65581
LJ          -1.90637        -4.43117         4.99454
LJ            6.3174         4.42981        -5.87675
LJ          -4.05562          3.4677        -3.60983
LJ         -0.529648       -0.695817          3.2588
LJ           2.52162         -4.1946         1.93766
LJ          -4.93434         -3.0946       0.0661487
LJ          -5.68954         -5.2261        -4.56883
LJ          -1.24116        0.447979        -2.71462
LJ          -5.93478        -4.71715        -1.96162
LJ          -0.74348        -4.91304         2.73171
LJ          -5.67687         5.18702        0.933627
LJ           2.27723        -3.09208       -0.245075
LJ          -1.17712        -2.42351        -5.50177
LJ          -6.18886        -3.16133        0.726757
LJ          -4.56209         2.06028        -5.85526
LJ          0.961746         2.16578        -2.68384
LJ            2.2299         3.16024         -3.9833
LJ         -0.346028         -1.5046        -3.08695
LJ           6.43701         1.61487         2.20859
LJ          -2.44392         -3.4937         5.61098
LJ         -0.129633         1.60614        -1.64946
LJ           2.55631         2.94747        0.629787
LJ          -3.00163        -4.27237         4.18457
LJ          0.264847         6.26799        -4.23319
LJ           1.87241        -4.19336       -0.533552
LJ          -4.50803       0.0404866         4.88434
LJ          0.702866           4.097        -1.57072
LJ           5.59509         1.63542          2.9824
