108
#Comment!
LJ           2.41832          5.9166        -1.66341
LJ          -4.00697        -1.85264        -4.95605
LJ          -5.06424         4.14093          3.7348
LJ           2.25186         6.32003        -4.75392
LJ           -2.4222         3.90296         4.40313
LJ          -4.65057       -0.464904         6.11416
LJ           1.19017        -3.11711         3.93053
LJ          -1.53098         2.40304        -5.08394
LJ          -0.86754          4.8594         5.96531
LJ           5.87648        -2.58313        -4.62929
LJ          -1.37441         2.96126       -0.674452
LJ          -1.89866         -5.9201         -3.0576
LJ          -5.44261          5.5419       -0.902249
LJ           4.58941         4.59673        -3.70399
LJ          -2.11174        -3.51123         3.35851
LJ           2.48963          2.1697        -2.69013
LJ          -2.62083        -2.84595        -4.14372
LJ          -3.64227        -3.30806        0.841551
LJ          -2.24252         1.88059         2.87994
LJ          -5.06091        -2.89569        -4.21015
LJ       -0.00439753         3.23213         3.56412
LJ           4.67608         3.76084      -0.0888266
LJ           1.30435         1.45947       -0.483705
LJ           2.53725        -4.64098         5.19319
LJ         -0.897763         5.19592         3.65133
LJ           1.80263        -1.33476        0.321143
LJ           5.38342        -1.05575        -4.04179
LJ          -1.57084         2.37818         4.90331
LJ           1.40036        -5.38273          5.4486
LJ          -3.28096        0.433241         4.72814
LJ          -2.47506        -2.56313        -5.40035
LJ           3.06739        -4.51831        -2.67956
LJ          0.519666         5.04968        -3.38958
LJ         -0.684453         5.90372         5.70581
LJ           4.08211         6.34367         6.19511
LJ          -5.59204         1.26946          4.9147
LJ          -1.58348          3.5173         4.85209
LJ          -2.64321        0.567112         1.71289
LJ          -4.77463        -5.79587        -4.95757
LJ         -0.878002         5.98807        -6.10796
LJ           2.54544         -2.0144         2.38481
LJ          -1.82959       -0.917761         2.61361
LJ          -4.60304         5.66175        -4.00355
LJ           2.04755        -1.04817         3.94904
LJ          -1.53791         2.55754          5.9967
LJ           -3.2813         1.72121         4.50386
LJ         -0.634693        -6.06196          -3.379
LJ           5.37957        -2.45237         4.45212
LJ           5.84117         -5.0577         2.35571
LJ          -4.98188        -3.24208         3.14736
LJ           3.94648        -4.55719        -5.46065
LJ          -3.20573         4.84688         4.55404
LJ           0.24083         1.17486        -2.76184
LJ         -0.567398         3.43703        0.803681
LJ          0.879782          2.4618         3.35336
LJ          -5.57727         2.43012       -0.420967
LJ          -5.27836        -6.29993         2.11276
LJ         -0.239251        -1.00744        -4.84368
LJ           1.19063         1.04237         1.18396
LJ         -0.885892         -4.6259         5.00784
LJ          -5.12434       0.0280717       -0.878195
LJ           1.19826        -3.94383        -3.26526
LJ          -5.56287         5.53906        -2.18185
LJ         -0.182259          2.7343        -1.96562
LJ           1.15607        -6.21158        -1.74168
LJ           6.12886         1.20003        -6.43541
LJ          -5.69278        -5.07579         -6.1428
LJ           4.34288        -3.66438         -2.8611
LJ          0.596269        -5.97098         5.68589
LJ           2.84732       -0.751054         5.64698
LJ          -1.61033        -2.34879        -4.01181
LJ          -5.46874        0.045561        -2.83523
LJ            -5.135         6.42573         -1.9333
LJ           2.39626        -5.51673         -1.8293
LJ           -4.5333        -5.20488          4.5233
LJ          -5.63071        -3.34277        -0.76696
LJ          -5.21678        -4.45223        -3.24897
LJ           4.26216        -5.37033       -0.962216
LJ           3.42983          5.9594        -2.32394
LJ           3.62875       -0.403873         5.15162
LJ          -3.58587         5.95971        -5.85833
LJ           4.78745       -0.218115         3.98444
LJ           -2.5653         -3.5076          1.1106
LJ           1.62731        -2.51821       -0.592932
LJ          -5.46743          4.8124        -4.63298
LJ           6.06022        -5.99748        -1.74854
LJ          -4.61189       -0.183274         0.68069
LJ           5.92391         -4.3186         1.10064
LJ         -0.160111        -2.52417        -2.89046
LJ          -1.23899        -3.46999         6.41202
LJ          -5.66298         1.69297        -2.39396
LJ          -1.54932         5.19955        -5.24688
LJ          -2.81104        0.127921        0.216754
LJ           5.05671        0.491242         6.19365
LJ           4.00384       -0.272424        -6.29623
LJ          -1.11422         6.30362         1.31943
LJ           1.69044        0.587837        0.207249
LJ           5.30173         3.67111        -1.73529
LJ           3.17375         1.00322        -1.77258
LJ          -3.11228         1.60829         1.29495
LJ          -5.79243         2.19001        -1.44923
LJ         -0.441722        -5.72368         6.27336
LJ           5.94414         1.04977       -0.668597
LJ          -6.04784         -5.1142        -1.23859
LJ           5.33514         2.79817       -0.549608
LJ         -0.935814        -1.69997       -0.312333
LJ          -2.00928        -4.37234          1.5871
LJ            1.4122        0.235728        -4.50443
