108
#Comment!
LJ           3.15842         3.48118        0.502528
LJ           4.18362         0.88101        -3.08933
LJ          -4.78259         5.49653        -1.46001
LJ           4.93814         1.53333        -6.33251
LJ          -4.23617         2.46721          4.1718
LJ          -5.61772        -1.60776          5.8843
LJ          -2.19762        -4.82071        -5.71091
LJ          0.406564         2.87997         6.36839
LJ         -0.222685         3.96231        -5.40994
LJ           5.16343        -1.73849        -6.23053
LJ         -0.185512         0.73965         1.25997
LJ          -1.41985         3.21325        -3.54731
LJ           5.63613         2.33169         1.22287
LJ          -5.48353         4.36826        -3.53595
LJ            1.1897        -1.35442         6.24704
LJ          -3.91931         3.26522        -5.90985
LJ           -6.2187        -3.47544        -5.48845
LJ          -3.06892         2.44439        0.849794
LJ         -0.736666         1.75992         2.76318
LJ          -2.47596        -2.28489        -1.56002
LJ          -1.69715        -5.52566         3.20309
LJ          -5.54234         4.05065        0.589973
LJ         -0.233375       -0.270687        -3.57874
LJ          -6.26361         -6.0497        -4.15351
LJ          -2.74703        -6.24986         4.70176
LJ           3.00663        -1.75686        -3.61559
LJ           5.95408      -0.0866548        0.607662
LJ         -0.718113         2.56516         1.62663
LJ           3.08284        -3.92363        -6.35805
LJ           6.37947         1.48626        -3.90979
LJ          -2.47271         5.43944         5.59614
LJ           4.83505        -2.51582        -3.71805
LJ          0.936053         2.49098        0.448666
LJ          -1.10851         2.91153        -5.94281
LJ           1.39227         3.87419         6.00483
LJ          -5.06156        -2.03129          3.4585
LJ           4.97705         3.02278        0.870725
LJ          -3.06584         2.50557         3.02412
LJ          -4.90231        -4.25379         4.62562
LJ          -2.43452         3.25439        -5.21089
LJ           3.76493        -1.40212         0.69332
LJ          -4.25361         2.40676          2.5964
LJ          -3.90801        -4.11593        -4.78817
LJ           3.48816        0.108821         4.51383
LJ         -0.026576         2.69803         5.11514
LJ         -0.182088          3.9391        -1.62152
LJ           -2.6429        -3.33166         1.74829
LJ           -6.2722       -0.816993         2.03203
LJ          0.740477         5.17006         3.73601
LJ          -5.30437        -3.72481         5.65458
LJ         -0.889748        -3.22989        -3.87344
LJ          -2.73134         4.25674         2.90904
LJ         -0.647572        -2.28806        -4.02524
LJ          -4.43921         1.48057         4.39577
LJ           4.88689         2.88436         2.54433
LJ           5.53484         4.91133         2.09073
LJ            6.3891        -5.19769        -3.47378
LJ          -1.56523        -2.54864        -5.15736
LJ           1.47503        0.431445         1.05617
LJ          0.084457         6.44687        -4.92754
LJ          -4.80706         4.01931        -1.61258
LJ           -1.4464        -4.56388        -3.34142
LJ           6.17314         6.38048        -2.63399
LJ           2.37445         4.56699         -1.0523
LJ           3.46564         4.27849        -2.72543
LJ          -3.19504        -1.92413         6.37058
LJ          -3.90488          3.5914        -2.89235
LJ        -0.0127169        -1.84351           1.649
LJ           3.04428         3.17132         6.05111
LJ         -0.384523       -0.354188         4.55562
LJ          -5.77007        -2.01986        -5.32344
LJ          -6.30825         3.62474         -3.8775
LJ          -5.39503        -4.02637        -4.76918
LJ          -1.24429        -5.97732        -1.32045
LJ           -4.5546        -5.46442         1.85765
LJ          -2.05098       -0.820694         1.85439
LJ            6.3484        -4.33528        -2.79956
LJ           4.14616         5.28167         1.45677
LJ            3.7631         5.25664        -3.09832
LJ          -6.44536        0.352988         3.45336
LJ           -4.5829        -4.83318        -5.65625
LJ           3.77988       0.0580377        0.794179
LJ         -0.140622        -4.39356         1.61124
LJ           5.72518         1.03305         1.83825
LJ          -4.11986         5.05486        -5.43159
LJ           4.15714         4.68635        0.394672
LJ            5.2555         1.93514        0.346771
LJ          -4.31072        0.355568         3.33048
LJ         -0.726694        -1.33826        -3.15182
LJ         -0.919236        -5.91607         6.16927
LJ           5.83688         1.00405       -0.945257
LJ        -0.0837394          4.3551         4.68096
LJ          -3.30637         -2.6212        -3.00872
LJ           4.81605         5.74066        -5.43283
LJ          -5.28036        -2.62661        -6.39634
LJ          -3.47581         5.77367         2.74941
LJ           1.90309         2.08545        0.939974
LJ            -5.275         5.36043        -3.07423
LJ           1.68848         2.68443          1.9179
LJ          -4.64113         4.20842         1.40539
LJ          -6.04969         3.40621       -0.710013
LJ          -2.19994         3.67625         4.11199
LJ          -5.36723         3.11085        -2.72222
LJ            6.1337       -0.778103        -3.00027
LJ           2.46425         1.97515        -1.55186
LJ           -3.7078         1.34637        -2.37728
LJ          -1.03804        -3.83663        0.675329
LJ         -0.428868       -0.161974        -2.10962
