108
#Comment!
LJ           2.30863         2.35607        0.414492
LJ           2.33304         1.90204        -2.30073
LJ          -4.48686         5.50141        -3.83588
LJ          -5.93398         1.27546        -6.18525
LJ          -4.50834         3.65051         4.36221
LJ          -4.91012        -2.44594        -6.39541
LJ          -3.05134        -5.07601          -4.921
LJ          0.752696         1.78343        -6.01345
LJ          -1.17853         3.87863        -5.17627
LJ           4.83223        -1.44246        -5.85877
LJ          0.792234       0.0600871         2.04873
LJ         -0.968176         1.71518        -2.58051
LJ          -5.44968         1.12253       -0.106483
LJ          -4.83526         4.47357        -4.56111
LJ           2.47363       -0.548067        -5.55928
LJ         -0.964263         3.70324        -6.35355
LJ           4.85457        -3.23766        -6.25721
LJ          -4.25923        0.442406        0.187211
LJ         -0.972678        0.351113         1.39619
LJ           -1.5889        -1.26352        -1.41149
LJ          -2.64466        -3.99592         3.19183
LJ          -4.66472         4.57395        0.553596
LJ          -1.00982        0.617108        -3.88761
LJ          -4.88442        -6.04343        -5.21512
LJ          -2.27802        -5.26282         4.18834
LJ           3.68846        -2.06206        -5.07737
LJ          -6.30041        0.854226         2.89475
LJ          0.930668        0.940653         2.68766
LJ           3.72382        -3.35626        -5.84439
LJ           5.28502         1.99247        -2.11934
LJ          -3.12008         3.91601         4.34429
LJ           5.42418        -1.71082        -4.10578
LJ           1.46516         2.53804         1.29302
LJ         -0.494752         2.56149         -5.1429
LJ          0.928022         3.00457         4.96395
LJ          -5.13056         -3.3252         2.78197
LJ          -5.53148         2.77522      -0.0379034
LJ          -4.78623         4.44031         3.38723
LJ          -4.94441        -2.90189         4.05872
LJ          -2.91299         2.11105        -5.07715
LJ            4.3648         -1.5856        0.135259
LJ          -3.90743         2.57512           2.912
LJ          -4.15671        -2.95156        -5.74273
LJ           4.07932        0.598647         4.74921
LJ          0.743752         1.80607         5.85712
LJ           1.28061         4.91539        -3.87282
LJ           -3.3307        -3.08342         3.40299
LJ          -5.88046        0.105544        0.852197
LJ         -0.173726         5.43794         2.54731
LJ          -5.47836        -4.66241        -6.46306
LJ          -2.76668        -2.99483        -2.43714
LJ          -1.97187         4.08139         2.38801
LJ           -1.2736        -1.89176        -4.46744
LJ          -5.93385         2.40431        -6.23446
LJ           5.58769         2.99032         3.13594
LJ           6.20778          4.8175         3.97395
LJ           6.29865        -4.91819        -5.43784
LJ          -1.70929        -3.28472        -4.52321
LJ          0.333973      -0.0960481        0.590126
LJ         -0.255912         5.24579        -4.31258
LJ          -4.96305         4.27109        -3.04279
LJ          -2.46909        -4.95428        -3.16537
LJ           5.56078        -5.79485      -0.0595281
LJ           4.15414         4.70103       -0.427525
LJ           4.13449         3.55062        -2.95702
LJ          -2.06247        -3.19305         6.45484
LJ          -4.38678         2.01891        -1.23286
LJ          -2.03331        -1.21977          2.3849
LJ           3.68718         2.34741         -6.3616
LJ          -2.86736        -1.67256         4.25346
LJ           5.65642         -1.4534         6.33088
LJ          -5.68749         4.11163        -3.80364
LJ          -5.60904        -3.23518        -5.87686
LJ           -2.6443        -6.39628       -0.736159
LJ          -4.53371        -5.64185        0.910204
LJ           -0.5239        0.497751         2.71668
LJ           6.00029          -3.594        -2.11498
LJ           2.81236         5.23461         2.08896
LJ           3.98423         4.50875        -3.70534
LJ            -5.196        0.396975         2.95832
LJ          -4.13184        -3.94443         -4.9673
LJ           3.74908        0.119124       -0.241118
LJ         -0.139351        -4.85752         1.69707
LJ          -6.31156         2.09229           3.329
LJ          -3.56344         5.37448        -5.28073
LJ           3.09696         3.84921         1.20761
LJ           5.23526         2.49939      -0.0399614
LJ          -4.07892       -0.665149         2.18992
LJ         -0.583813        -1.19777        -3.81223
LJ          -1.49746        -6.42159         5.73386
LJ           5.20706        0.829127       -0.176776
LJ         -0.786492         3.48217         5.48945
LJ          -3.29065        -4.34319        -3.89684
LJ            4.7495        -5.21045          -4.838
LJ          -4.22018        -2.87508         5.68158
LJ          -5.06276         6.41654         2.83146
LJ             2.144         2.82027          2.4609
LJ          -5.15098         5.82676        -5.83324
LJ        -0.0251963         3.64812          1.5343
LJ          -4.71504         5.39671         2.47521
LJ          -6.02944         3.98859        -0.51687
LJ          -2.88759          1.1453         2.93518
LJ          -3.81075         3.15339        -2.05095
LJ          -6.42821        0.417156        -3.89695
LJ           1.42163         1.74835        -1.75029
LJ          -4.86808         2.69014         -3.2044
LJ          0.105838        -2.75622        0.745545
LJ          -1.05756        -1.84434        -2.22606
