108
#Comment!
LJ           -4.3084         3.19228        -4.38292
LJ          0.703414        0.546965       -0.318174
LJ          -3.35666          2.2813          2.4066
LJ           1.49049         4.12451        -2.23794
LJ          -1.25485       -0.857991        -3.08249
LJ           4.91219         2.18951         6.41321
LJ           6.46151        -3.71557        -5.73381
LJ         -0.250569       -0.163117        -2.57472
LJ          -1.81297        -2.39243        -3.10262
LJ          0.988267        0.670783          1.5829
LJ           2.43783         3.21653       -0.467417
LJ          -5.59359        0.357348         2.73383
LJ          -4.07671         2.49317        0.818297
LJ          0.310453       -0.418629          1.0584
LJ           1.44449         5.33378        -1.04652
LJ           3.53188        -1.73683        -2.14634
LJ           1.89757         3.83139         2.60992
LJ            2.0325        -1.18617        0.281974
LJ          -5.27443         4.81945         3.94817
LJ          -4.15202         3.23852         2.23206
LJ          -3.03153        -1.75482        0.319179
LJ          -4.40247         5.69854          1.3149
LJ          -2.25138        -1.66595         1.10017
LJ         0.0326646        0.325658           4.873
LJ          0.868628         2.15859        0.871594
LJ           -2.6097        -1.36536       -0.503221
LJ           3.91571         -5.3231         2.74569
LJ          -1.09113         -5.1302         0.33944
LJ           1.51991       -0.379062        0.895255
LJ           3.55786         -2.5576        0.519861
LJ          -0.81526        0.825604        -4.76828
LJ           -6.4025        -3.50521         2.13191
LJ           5.84624        -1.34244         4.78073
LJ         0.0392544        -3.99572         3.60979
LJ           6.21857       -0.520375        -2.88963
LJ          -2.21273         2.91985         2.11912
LJ           2.15917         3.30918        -1.72267
LJ           2.85821        -3.63481        0.422562
LJ          -1.07662         1.64943       -0.824855
LJ           3.22821        -6.01263         1.97641
LJ            1.0427        -5.94602        -4.82541
LJ           3.14843        -6.05358        0.683479
LJ           4.44009          5.4911        -1.43303
LJ          0.597514        -3.36941        -6.37421
LJ           3.39889         4.77927        -2.72327
LJ          0.919873         5.17688        -2.69797
LJ          0.856598        -4.59551        -5.87758
LJ          0.436737         3.51616        -5.20706
LJ          -3.41323         5.81171         3.38513
LJ          0.874277        -2.33406         5.66692
LJ          -4.93666         4.22648          1.8461
LJ          -2.83014          -2.524        -3.77778
LJ           6.27776         1.71946         2.92905
LJ          0.756498         5.99134        -2.01502
LJ          -1.44816         3.90621        -1.56249
LJ           4.02683        -3.40984          1.7755
LJ          -2.18633        0.802626         3.67241
LJ          -1.06798        -3.92434        -5.85528
LJ          -3.96759         3.01132          5.1597
LJ            1.6794        -1.92203       -0.543678
LJ          -6.03162         1.00643        -2.98423
LJ           1.48568        -2.71222        -4.45296
LJ           1.40045        -3.52275         5.60363
LJ          -1.05121        -1.55267         1.49647
LJ           4.89468         4.14508         2.26211
LJ        0.00746725        -1.06591        -1.81719
LJ          -1.21789         0.51061        -2.37946
LJ         0.0827714         1.22826         -2.9403
LJ          -4.53396        0.656842         5.04962
LJ          -3.48796        0.315896         1.65349
LJ           3.06648        -2.33179       -0.416642
LJ         -0.334608        0.498105        -1.20812
LJ           4.36247        -3.46529        0.581373
LJ           5.52107         2.12636        -5.50621
LJ          -5.19499        -3.82328         1.33867
LJ          -4.14872        -3.95792        -4.88941
LJ          -2.65729         1.12685         5.74923
LJ         -0.510153       -0.209438         6.25261
LJ           3.30568        0.729024         3.46325
LJ          -5.83777        -1.80379        -2.36184
LJ          0.259542         5.90641         1.33889
LJ           5.78893         4.21421         4.14265
LJ            1.3528         4.96956         -4.6809
LJ          -3.96561         3.67396         6.24905
LJ           5.03173        -6.07045         2.38067
LJ          0.603894        -2.95864         3.01586
LJ            3.1541         2.45069        -2.24839
LJ          -3.40782        -5.04169         6.03803
LJ           2.79883         5.38593          -1.602
LJ          -2.93532         3.79875         4.33484
LJ           2.05437        -5.79072         1.47018
LJ          -1.12622        -2.60766         3.15398
LJ          -2.85031        -1.36413        -4.44711
LJ          -4.32285        -2.60369         6.01131
LJ          -3.75102         5.80676       -0.787437
LJ            4.5637         1.52989        -1.37805
LJ           1.97762         5.05206        -3.29753
LJ           -5.0059         6.41687        -4.43107
LJ           -2.8393        -6.05997        -2.16427
LJ          -5.56117        0.774222          4.4166
LJ          -2.92003       -0.550396        0.518731
LJ           5.29338      -0.0308694         6.02471
LJ           2.45711        -6.12537         5.83898
LJ           1.59998         6.25594        -4.35865
LJ         -0.514885        0.102251        0.601255
LJ          -2.59426        -2.43402       -0.967213
LJ          -5.02833        -6.46186         6.31743
LJ           3.21614        -5.55128        -2.19699
