108
#Comment!
LJ          -1.29101          3.4056         -4.3547
LJ          0.446518        -2.25539         4.12993
LJ         -0.165595         2.93417        0.188854
LJ           3.54109         5.57655        -4.07072
LJ          -5.44177        -1.72891        -2.83347
LJ           5.59143          1.4728        -5.07502
LJ          -5.08936         -3.3181          6.1475
LJ           1.27048        0.536244        0.410361
LJ          -2.77598       -0.804824         1.46507
LJ         -0.426869         1.20875         1.20263
LJ           4.10379         1.38084        -3.42452
LJ           -5.2629         2.29282         5.79044
LJ           4.97191        -0.65414         1.88713
LJ            3.6632        -3.85318         6.24968
LJ           2.75287        -2.36945        -1.62105
LJ         -0.706159        -2.36083        -1.03639
LJ          0.729206         -3.8056        0.928237
LJ          -1.18981        -2.35615         3.48452
LJ          -3.83241        -5.46661         3.02591
LJ          -4.96947         2.45673         3.66867
LJ          -4.14464       -0.306215         3.03062
LJ          -5.59799        -2.10616         1.29002
LJ          -4.60428         -1.0966         3.69709
LJ           1.12774        -1.22496        -3.31883
LJ         0.0719113          1.6404        -4.45713
LJ          -2.11768        0.339241        -3.72096
LJ          0.406195        -4.59128          3.3891
LJ         -0.199458        -6.09596        -2.89627
LJ         -0.348033        -1.37661        0.730652
LJ           3.61311        -6.28363        0.524478
LJ          -1.06731        -4.47705        -5.50878
LJ           3.32513         6.18938         2.74364
LJ           5.45215        -3.45969         6.14464
LJ          0.715349         1.53323         2.15119
LJ          -3.75237         4.35762         2.18894
LJ          -3.65844         3.94731        0.185148
LJ          0.590482         4.78145        -3.16863
LJ           3.71055        -4.73267       0.0595722
LJ           2.41269        0.828392         2.22832
LJ           3.76348        -5.31844         3.01223
LJ          -1.49374          1.0018         1.39349
LJ           2.64367        -5.22686         3.49274
LJ           4.91678        -6.40782        -1.05504
LJ          0.551919       -0.368961         -6.1332
LJ           3.59498         2.43032        -4.06277
LJ           1.80633         4.26245        -6.33179
LJ          0.471078        -5.68583        -4.31112
LJ         -0.501398         5.83011        -6.02754
LJ           5.96417        -6.18194          4.0031
LJ          0.620212        -5.60128        -2.07023
LJ          -3.85122         6.04257         3.92113
LJ          -3.92325         -2.9655        -4.06166
LJ          -3.32413       -0.656264         5.28795
LJ             4.851        -5.48523        -3.89917
LJ           4.09931       -0.395074      -0.0966906
LJ           6.17949         6.25143         2.11291
LJ           4.64992         2.78894         3.66579
LJ          0.844559        0.809808         6.09231
LJ           -2.2801         1.98564         3.76006
LJ          -1.36455         6.23907         3.59507
LJ          -2.41136        -1.22887        -5.24808
LJ           5.75787       -0.010603        -5.29828
LJ           5.80848        -5.09807         3.61692
LJ         -0.282464        -5.07809        -2.76179
LJ           1.13966         2.95309         3.53804
LJ           2.20791       -0.645308        -3.50955
LJ         -0.806915        -2.20058        -4.51973
LJ          -2.83561         2.81711        -6.23718
LJ        -0.0305158        -3.10936      -0.0527675
LJ         -0.559923         -4.2796         3.85142
LJ           1.08384         4.33071         1.61905
LJ           2.61115       -0.520797       -0.323629
LJ            4.4612        -6.23234         2.28241
LJ          -5.64248         2.40628        -3.26383
LJ           2.21024       -0.459834         2.51782
LJ          -2.51047        -6.08759        -4.41958
LJ         -0.565442       -0.543856         4.32476
LJ           1.18983         4.51445        -4.82944
LJ          0.185431         5.28535        -1.68414
LJ          -3.93134        -2.07219        -2.04091
LJ          -1.20255        -4.57026         2.99676
LJ            5.7689         4.57629         4.86388
LJ          -1.14353          4.9708        -5.81295
LJ          -4.08075         2.11648        -5.19561
LJ           5.03957         1.06358         -1.9932
LJ          -3.34045         -2.4345         1.72227
LJ           1.57676         4.14821        -3.41464
LJ          -1.24172        -1.14609        -4.90136
LJ         -0.820058        -5.27849        -4.03874
LJ          -2.82221         2.04575         4.86724
LJ           4.83855        -4.64357         3.19005
LJ          0.943776        -1.11918          1.4518
LJ          -2.67204         1.22123         5.54984
LJ          -3.19083        -5.35951        -2.96335
LJ         -0.834247         3.03828         2.42306
LJ           2.45732         1.56606        -2.55727
LJ           0.83177         2.87091        -5.96814
LJ           -1.8475        -2.90131        -4.58441
LJ           6.09617         3.81957         -4.3213
LJ           -4.4817       -0.172136        -5.08726
LJ          -5.71515        0.176275         1.47673
LJ           4.77184         1.16758         4.22617
LJ           3.52216        -4.49513         3.57957
LJ          -4.10242         5.18959         1.67648
LJ          0.425574         1.12142         0.14022
LJ         -0.272057         -3.5566        -1.06335
LJ           6.39627        -6.09114        0.915922
LJ          0.263222       -0.813584         5.05338
