108
#Comment!
LJ          -2.47118         3.42714        -4.20108
LJ          0.166143         -1.8185         2.17887
LJ          -2.13324         2.65006        0.934555
LJ           2.36756         5.73667        -3.81123
LJ          -3.08075        -1.47934        -4.23492
LJ          -6.44669         1.77899        -5.29832
LJ          -5.59231        -3.48698        -6.39193
LJ           1.25273        0.517863        -1.41888
LJ          -2.13361        -2.11985       -0.177683
LJ        0.00451634         1.56992         1.77646
LJ           4.00602         2.94094        -2.14591
LJ          -5.10247         2.30139         4.79061
LJ          -6.29107        0.673293         1.58692
LJ           2.61501        -2.65864         4.37175
LJ           2.19904        -4.19811        -1.35432
LJ          0.805267        -1.49175        -1.44372
LJ          0.955548        -5.61302           1.713
LJ         -0.136326        -2.85689         2.26451
LJ          -4.17291        -6.33454         3.05235
LJ          -4.73262         2.88418         2.50464
LJ          -4.45439       -0.475521         2.82264
LJ          -4.78581        -3.50346         1.57603
LJ          -3.37137        -1.71643          1.1843
LJ           1.07897       -0.983976        -5.67024
LJ            0.4636         1.66025        -2.59515
LJ          -2.38263       -0.903512        -2.90656
LJ           1.70246        -4.93643         2.52413
LJ         -0.915253        -4.91305        -1.71885
LJ          0.296626         -1.1682        0.321083
LJ             4.588        -4.18545        0.498499
LJ         -0.658392        -2.37953        -4.97525
LJ           4.71394        -5.76013         2.49214
LJ           5.57543        -2.65935         5.63531
LJ           1.12916        0.074222         3.24832
LJ          -5.52056         2.59723        0.724535
LJ          -3.24522         3.68238        0.638609
LJ           1.07112         4.24458        -2.41598
LJ           3.38711        -4.43801        0.508432
LJ           1.11623        0.983728         1.11918
LJ           3.42296        -5.23466         2.32345
LJ         -0.689884         3.19384          3.9144
LJ           2.29367        -5.70125          2.1452
LJ           4.78794         6.14182        -1.21428
LJ        -0.0569013       -0.854189        -5.81534
LJ           3.28999         2.46621        -3.38336
LJ           1.47112         4.91494        -4.77814
LJ           1.62504        -6.13449        -4.48591
LJ          -0.60512         5.71246        -5.64349
LJ          -5.56635        -6.27986         4.29038
LJ          0.177108        -3.86008        -3.63308
LJ          -4.19172         5.06576         3.16265
LJ          -2.98515        -2.29501        -3.33662
LJ          -4.64951       -0.165941         3.75414
LJ           3.54479        -5.78432        -3.23795
LJ              2.19          1.5243        -0.61195
LJ           5.51286        -6.43304         1.64436
LJ          -6.23446         1.53463         4.01614
LJ          -1.06714       -0.856277        -6.38108
LJ          -2.55738         1.72137         4.22865
LJ         -0.230319        -5.11452         2.40594
LJ          -4.11333        0.470103         -4.8956
LJ           4.20703        -1.00533        -4.98886
LJ            4.6026        -4.39174         4.49656
LJ         -0.509808         -3.4871        -1.47693
LJ           2.36156         2.92703         2.95594
LJ           1.47071       -0.538867        -2.63977
LJ         -0.928751        -1.46098        -3.83329
LJ          -1.17484         2.48448        -5.06264
LJ           -1.5272         -1.5806         1.94428
LJ          -1.61446         -2.8391         3.62689
LJ           2.17183           2.071        0.939379
LJ           1.63319       -0.106478       -0.649432
LJ           4.38279        -4.94999         1.28556
LJ          -6.31818         2.25109        -4.15048
LJ           4.07618        -1.79939         1.77009
LJ          -2.70554        -5.52889        -4.20151
LJ          -1.30621        0.314364         5.03497
LJ           1.07198         2.77276        -5.79999
LJ           1.37222         3.69886      -0.0537162
LJ          -4.52589        -2.09269        -2.52023
LJ          -1.08111        -4.27071         1.32589
LJ           5.75559          4.4396         4.61952
LJ        -0.0303725         4.78178        -5.23858
LJ          -4.78799         1.92593        -5.31231
LJ           4.89662         3.29184       -0.268996
LJ          -2.66448        -2.20013         2.11055
LJ           1.52932         2.41032        -2.72847
LJ          -1.89991        -2.79175        -5.79152
LJ          0.485491          6.2418        -3.36399
LJ          -2.94725         3.06947         4.91747
LJ           3.48483        -5.47924         3.53139
LJ         -0.072747        -0.79575         2.91291
LJ          -2.42977       -0.286119        -5.95564
LJ          -3.93723        -4.06815        -4.03762
LJ          -0.93144         2.93265        0.872872
LJ           3.48484         1.52591        -2.59541
LJ         0.0718304         2.83447        -4.83498
LJ          -3.22141        -4.43152        -5.24608
LJ          -5.37714         4.95829         -3.5294
LJ          -4.82717        0.186056          6.3246
LJ          -3.90733       -0.694645          1.7294
LJ           4.88695        0.670829         4.92352
LJ           2.95636        -5.11496         4.89699
LJ          -2.19142         5.14587       -0.970432
LJ         -0.667388         1.45298        0.529192
LJ           -1.1782        -3.80969        0.330195
LJ          -5.97081        -5.85265         2.72879
LJ           1.35307        -2.65466        -5.97518
