108
#Comment!
LJ         -0.729041       -0.135219         1.87528
LJ         -0.809751         4.93647        -1.19378
LJ          -5.31574         5.27463         5.87076
LJ        -0.0146816         2.43371        -5.52826
LJ          -4.52329         4.80994        -5.94916
LJ          -1.92674         -2.5796         5.39761
LJ           6.03641         5.48683         -5.1913
LJ           2.48185        -1.24435        -5.15964
LJ          -3.28322         3.73351        -6.19072
LJ            6.1837       0.0891005         6.30494
LJ           2.67818        -1.66808         4.42272
LJ          0.174541       -0.710926        -1.91099
LJ          -4.75366       -0.410996        -2.48537
LJ          -2.12982          5.6039        -5.87348
LJ           5.99465        0.669233          -2.927
LJ           6.36703         4.16589        -4.32959
LJ           2.66638        -3.39829         2.94799
LJ          -4.98925        -4.68707        0.962277
LJ          -3.74453        -4.01471        0.415907
LJ            1.2543        -3.44311        -1.43236
LJ          -3.38597        -1.21567          3.6239
LJ          -3.42785         2.99614        0.133768
LJ          -2.15797         2.44469         -5.1034
LJ          -2.85742         3.10702         5.13392
LJ          -1.43125        -1.85588         2.32537
LJ           4.75121        -2.38968         4.15443
LJ          -2.19715         1.33291        -4.70894
LJ           2.98383        -1.91092         5.37083
LJ           4.72455        -2.40989        -2.71726
LJ           3.52199         3.96685         2.41004
LJ          -5.22135         4.39353         6.15671
LJ          -6.30001        0.482029        -4.93645
LJ           2.08812        0.599568         2.14237
LJ          -1.10879        0.287124        -3.35042
LJ          0.369807        0.962558         2.10832
LJ          -6.13164        -5.61048      -0.0370783
LJ          -2.18417         3.34003        -2.92847
LJ           5.55793        -4.98087         4.80522
LJ          -6.18548        -2.14424         2.66216
LJ          -3.35937       -0.560351        -4.44248
LJ           4.98356       -0.671305      -0.0180993
LJ          -2.99048         1.11726        0.138536
LJ          -2.66725        -1.97016            4.69
LJ           5.60186         1.70346         5.67906
LJ           2.29488       -0.279565        -5.60859
LJ           4.12398        -5.80912         3.03287
LJ           6.22144        -2.03548        -4.41876
LJ           5.90973        -1.84602        -2.38515
LJ          -1.66584        -4.77553        -1.52652
LJ          -5.25712         -4.5939         -5.2125
LJ          -6.39868        -1.53704        -1.43656
LJ         -0.690988         3.19191         2.36886
LJ          -2.41428       -0.942922        -4.75049
LJ           5.94132          3.1871        -4.22752
LJ           6.02415          3.7137         3.50227
LJ          -5.81192          6.1516         5.02944
LJ          -6.34684        -3.73157         5.16945
LJ          -1.77241        -5.24765        -2.62859
LJ          -1.99893        -1.22031       -0.986137
LJ         -0.629526         2.09791         -3.4203
LJ          -1.78076         3.85597        -4.95139
LJ          -2.51241         5.78731         1.45631
LJ           2.74203        -3.30925        -6.43543
LJ          -4.35291         4.60702         1.37246
LJ           1.69162         2.84152        -1.51727
LJ          0.426536         6.42429        -5.77766
LJ          -3.11231         4.28599       -0.445283
LJ          -1.56361        -1.66111        -2.43882
LJ           5.57444      -0.0760584        -4.85275
LJ           6.46173         3.45597         5.40415
LJ           1.02741       -0.351414         4.50366
LJ          -5.93832         4.90863         5.15947
LJ           4.58274         6.08583        -5.76834
LJ          -5.85485         6.05827       -0.821326
LJ          -4.62437        -5.94596        -1.61754
LJ           5.40103         5.06924         3.72322
LJ           6.04276        -3.20178        -1.94953
LJ         -0.749217         4.39691         3.25253
LJ          -6.42053         2.17814         -3.7332
LJ          -3.14482        0.721021         2.29072
LJ          -2.87357        -4.04794        -2.52515
LJ           5.25803        0.974077       -0.585636
LJ         -0.329834        -5.94081         1.71621
LJ          -4.18082         4.28917         5.89333
LJ          -2.44707          5.5865         5.95547
LJ           2.45277          4.8705         3.80118
LJ           4.67513         4.17337       -0.724781
LJ           -5.8762         -3.8606         0.28429
LJ          -1.38849       -0.997614        -4.82569
LJ          -1.77399         5.82094         4.25059
LJ           2.88913       -0.113159       -0.831925
LJ          -3.12298         1.07349         -4.0128
LJ          -5.56729        -3.56637        -6.24471
LJ           3.50521       -0.107063        -3.90322
LJ           -5.1896        -4.41902         5.28641
LJ           4.90509        -4.99642         1.49616
LJ           2.61426         4.72181         5.84339
LJ          -4.27401        -5.29888         1.39967
LJ          -2.38636         5.17589       -0.731015
LJ            5.1494         -4.9248         3.77635
LJ          -3.58834         5.16723        0.578023
LJ           6.16653        -4.64521         3.32534
LJ         -0.809814        0.783992          1.0207
LJ          -5.69015          3.4237        -5.15564
LJ          -1.93806         2.98532       -0.357106
LJ           6.20976        -4.58797         -4.4304
LJ           2.99417        0.101371         1.24498
LJ          -3.71859         -4.7766        -3.60754
