108
#Comment!
LJ          -0.14374         3.37866        -4.66168
LJ          0.315829        -2.44868         5.76852
LJ           1.87508         2.85658      -0.0900086
LJ           4.84497         5.15076        -4.15503
LJ           5.73571        -2.08575        -1.62386
LJ            5.0377        0.691725        -4.84575
LJ          -4.67436        -3.15871         5.80673
LJ           1.39032        0.344698         2.25889
LJ          -3.44555        0.207714         3.18996
LJ         -0.844844        0.308017        -0.38459
LJ           4.05662        0.202677        -4.54892
LJ          -5.25762         2.29216        -6.35835
LJ           3.50155        -1.82221         2.08785
LJ            4.9637        -4.84415         -5.1842
LJ            3.1022       -0.654547        -1.79416
LJ          -2.08538        -3.96636        -1.57782
LJ           2.21158        -4.01431         1.89422
LJ          -1.56009        -1.05224         4.74582
LJ          -3.53164        -5.15952         3.31193
LJ          -5.09816         1.95073         5.35615
LJ          -4.11194       -0.746246         3.49601
LJ            6.3576        -1.22231        0.885484
LJ          -4.77454        0.578431         5.86552
LJ           1.91566        -1.01515        -1.36162
LJ         -0.224091         1.72039        -6.18465
LJ          -1.84647          1.2749        -4.59577
LJ           1.27784        -4.65786         3.22856
LJ           1.03556         5.23559        -3.75688
LJ         -0.693858        -1.40941         1.89148
LJ           2.58627         5.31398        0.731182
LJ          -1.42937        -6.31046        -5.35343
LJ           2.56347          6.4251         2.95569
LJ           5.04752        -4.33726        -6.17286
LJ           0.35571         1.73709         1.00974
LJ          -1.93176         5.72732         3.26821
LJ          -4.11749          3.9087       -0.072645
LJ          -0.48081         5.11421        -4.92549
LJ           4.26309        -5.65236       -0.118041
LJ           2.86156        0.223615         3.37713
LJ           4.78191        -5.78398          3.6935
LJ          -1.36701       -0.573163        -1.01162
LJ           3.99172        -4.50632         4.26581
LJ           5.09541        -6.06384        -0.73359
LJ           1.35763        0.908924         5.87876
LJ            4.0047         2.07851        -4.47279
LJ           2.15327         4.04696         5.35756
LJ         -0.999552        -5.19417        -4.95256
LJ           -0.7044         5.51991        -6.13614
LJ            4.9811         5.97898         3.81986
LJ          0.419234        -5.97239        -1.35016
LJ          -3.51781        -5.59867         4.23456
LJ          -4.53054        -3.53354        -5.04119
LJ          -2.13968       -0.845411        -6.45228
LJ             5.954        -5.25219        -4.51949
LJ           5.62088         -2.0469        0.319276
LJ          -6.04647        -6.11327         2.11555
LJ           2.82572         3.67996         3.47227
LJ           2.38262         1.28905        -6.39445
LJ          -1.95749         2.39108         3.27012
LJ          -2.40434          4.9619         4.51811
LJ         -0.726182        -2.81564        -4.85903
LJ          -6.13203         1.44662        -5.39254
LJ          -6.42661         -5.1246         2.48421
LJ          0.295554        -5.82816        -2.92593
LJ          0.532618          4.3472         4.52109
LJ           2.08226        -1.13329        -4.18518
LJ          0.804908        -1.67816        -5.68488
LJ          -4.49254         2.92613         5.81464
LJ          0.374613        -2.26732        -2.32224
LJ          -1.17003        -5.09493         5.27366
LJ         0.0620224         6.25996         2.28144
LJ           3.08112       -0.872195      -0.0596101
LJ           4.07412         5.72456         3.16853
LJ          -5.08509         2.55855        -2.59775
LJ          0.787664         1.37633         2.90561
LJ          -2.22255        -6.31733        -4.47174
LJ          -1.90876       -0.528137         1.86565
LJ           1.42901         6.17994        -5.34692
LJ          -1.69975         5.69646        -2.49678
LJ          -3.85789        -1.94397        -1.31759
LJ          -1.79252        -5.43576         4.05344
LJ           5.77437          4.7415         5.02615
LJ          -1.76182         5.53567        -6.35593
LJ          -3.38403         2.32581        -5.30554
LJ           4.95349        -0.84613        -3.82111
LJ           -4.0608        -2.31779         1.27363
LJ           2.16711         5.61194        -3.63652
LJ          -1.21319        -0.34389        -4.16075
LJ          -1.85509        -4.23385         -4.0459
LJ          -3.05043         3.25791         3.19372
LJ           4.87811        -4.73761         2.52738
LJ           1.66174        -1.40945       0.0394721
LJ          -2.54537        0.209136         6.02766
LJ          -2.33909         6.35873        -2.26099
LJ          -1.27883         3.29708         3.80331
LJ           1.91047         1.65954        -2.61238
LJ           1.40279         2.54738         6.31856
LJ          -1.81732         -1.9288        -4.14657
LJ           4.74993         2.66259        -4.98934
LJ          -4.03937       -0.472705        -3.68255
LJ           5.71828        0.765021         1.37706
LJ            4.6862         1.86279         3.49073
LJ           3.66454          -4.177         2.71989
LJ          -5.99079          5.9095         3.79795
LJ          0.779617         0.25507        0.241318
LJ         -0.167992        -3.00508        -3.15443
LJ           5.35889         6.11273      -0.0768727
LJ           1.15643       -0.110027          5.0696
