108
#Comment!
LJ           2.13313         3.90401        -4.88183
LJ          0.891008        -2.69337        -4.52906
LJ           5.38341         2.53791       -0.463243
LJ          -5.78604         4.49967        -4.28071
LJ           2.94653        -3.30165         1.09131
LJ           4.95281        -0.51792        -4.65548
LJ          -3.95746        -2.98812         5.41601
LJ           1.90676        0.425476         5.69457
LJ          -4.42782         1.86495         6.18146
LJ          -2.09843        -1.84964        -3.84947
LJ           4.09562         -2.3766        -6.14732
LJ          -3.64043         3.20906         6.33153
LJ           1.08725        -4.29942         2.41431
LJ           5.36443        -5.72969        -4.29904
LJ           2.61766         2.68823         -2.1223
LJ          -4.32015         5.69356        -2.53049
LJ           3.33944        -3.11275         2.35585
LJ          -1.76707         1.75386        -5.77516
LJ          -2.67455        -4.37948         3.51015
LJ          -6.41806         2.70729         6.08013
LJ            -4.138        -1.36226         4.68394
LJ          -6.23456         1.45625         1.54014
LJ          -4.45999         2.31246         -2.1004
LJ           5.45506        0.906465       -0.383092
LJ         -0.437401         1.97838         3.66872
LJ          -1.05236          2.4994        -6.22144
LJ           2.46045        -5.48327         3.27694
LJ           1.85606         3.05438        -4.01607
LJ          -1.64544        -1.02384         3.96241
LJ          0.891932         3.05746         1.25683
LJ           -1.9299         5.37251        -5.42194
LJ            2.0429         5.81305         3.36761
LJ           4.24669        -6.27003        -3.97681
LJ          0.295026         2.51865        0.407109
LJ          0.793171        -4.61944         6.31712
LJ          -4.89741          3.7559       -0.630087
LJ          -1.26148         2.06307        -4.24449
LJ           4.23215         5.87389        0.556622
LJ           2.49368        -0.44418         5.62327
LJ           6.45936        -6.19137         5.10389
LJ         -0.371991        -2.63408        -4.73177
LJ          -5.90805        -3.74657         3.90841
LJ          -6.35642        -5.69089        -1.53116
LJ           4.38791        0.787621         4.63147
LJ           3.45936       -0.641057        -4.03635
LJ           2.66051         3.28988          2.7073
LJ          -4.23728        -6.33458         5.67997
LJ          -1.91603        -6.26868         5.43459
LJ           4.70049         6.31211         4.49655
LJ          0.873628        -5.65508        -1.52945
LJ          -1.93119        -4.44243         5.63916
LJ          -5.53135        -4.59227         6.05294
LJ         0.0197901        -0.28982        -5.27318
LJ          -3.12331         -5.1674        -5.12755
LJ           6.01434        -5.93599       -0.587838
LJ          -4.48259         -6.1463         2.01026
LJ          0.582076         5.45491         3.88876
LJ           2.52136         1.73513         5.61713
LJ          -2.27893         5.11067         2.41589
LJ          -4.42269         2.72946         5.66707
LJ          0.209376        -6.12648        -4.82012
LJ          -5.78404           3.446        -4.71105
LJ            6.2357        -4.43522        0.934109
LJ           1.18795         6.07876       -0.869504
LJ          -1.40575        -5.82244         6.41272
LJ           2.40782        -2.36391        -6.10745
LJ           4.34382        -0.48479         5.19248
LJ           5.45694         2.31188         5.78138
LJ           1.27354        0.151161        -5.04933
LJ          -2.81259         -4.5468        -6.38793
LJ          -1.93306        -3.42088         3.74828
LJ           2.84851        -1.58533        0.179405
LJ          0.666446         6.28352         2.72798
LJ          -4.02073         3.18085       -0.912606
LJ          -1.31547         4.63205         3.44594
LJ          -1.29664        -6.35069        -5.62378
LJ           -3.7067        -0.93169        -0.61455
LJ           2.55364        -4.05625         4.53555
LJ          -2.37341         2.64527        -4.95369
LJ          -3.90281        -1.94705        0.538692
LJ          -2.90849        -6.05531         5.02528
LJ           6.00185         5.33899         5.51122
LJ          -2.88609         5.38622        -5.92733
LJ          -2.67441         2.12153         6.44617
LJ           3.99006        -2.99827         5.37338
LJ          -5.12626        -1.96866        0.296032
LJ           3.66889        -5.08427        -3.86764
LJ          -1.51365        0.365522        -2.88819
LJ          -2.70958        -2.97177        -4.62984
LJ          -1.39348         4.29468         1.78875
LJ           5.64354         -6.1651          1.9921
LJ           2.28305        -2.67332        0.118693
LJ          -2.34944        -2.25542        -5.36496
LJ          -3.81764        -5.25113       -0.639267
LJ          -2.79888         2.89925         4.93958
LJ           1.17796         1.74467        -2.65002
LJ           1.12531         3.23093        -5.78918
LJ         -0.834554       -0.978854        -3.92155
LJ           4.27329         1.55582         5.39346
LJ          -3.39141       -0.879309        -3.44884
LJ           3.13615         1.74388         1.23677
LJ           4.43164         3.06016         2.08314
LJ           5.84973        -4.33609         3.15696
LJ           3.05897        -5.88001        -6.43872
LJ           1.23763        -2.21236       -0.204518
LJ          -1.72077        -1.23449        -5.77617
LJ           3.35654          4.9297       -0.997999
LJ           3.26324         1.19441         4.40895
