108
#Comment!
LJ          -4.25157         3.20021        -4.37316
LJ          0.640937        0.458871       -0.275041
LJ          -3.30871          2.2503         2.40622
LJ           1.51176          4.0944         -2.2793
LJ          -1.23665       -0.958612          -3.066
LJ           4.97069         2.17897         6.42119
LJ          -6.44265        -3.70967        -5.75385
LJ         -0.153408        -0.13816        -2.54079
LJ          -1.76605        -2.33303         -3.0215
LJ          0.966173        0.765843         1.55509
LJ           2.46457         3.29481       -0.567854
LJ          -5.54331        0.436133          2.7872
LJ          -4.06015         2.49107        0.848556
LJ          0.374764        -0.51115         1.18342
LJ           1.45222         5.45364        -1.05204
LJ           3.45422        -1.72451        -2.13889
LJ            1.8622         3.93041         2.58306
LJ            1.9445        -1.26671        0.344592
LJ          -5.25393          4.8591          3.9219
LJ           -4.2079         3.25773         2.22522
LJ          -3.14375        -1.76285        0.389692
LJ          -4.41405          5.8156         1.32076
LJ          -2.19543        -1.62439         1.09133
LJ         0.0354899        0.249243         4.86098
LJ          0.872471           2.083        0.826972
LJ          -2.59158        -1.35566       -0.604297
LJ           3.96657        -5.37988         2.71082
LJ          -1.09492        -5.07529        0.272894
LJ           1.54275       -0.407837        0.852535
LJ           3.63603        -2.60272        0.529799
LJ         -0.793474        0.749808        -4.76522
LJ           6.45702        -3.56613         2.15789
LJ           5.83866        -1.38608         4.80422
LJ           0.08829        -3.90811         3.63305
LJ           6.16901       -0.401704        -2.79454
LJ          -2.30584          2.9269         2.01656
LJ           2.13851         3.31443        -1.74477
LJ           2.89931        -3.68694        0.478401
LJ          -1.04134         1.65023         -0.7603
LJ           3.27714        -6.03113         1.93068
LJ          0.982891        -6.05333        -4.97049
LJ           3.14432         -6.0555        0.746526
LJ           4.46068         5.51468        -1.42404
LJ          0.459386        -3.25811        -6.26645
LJ           3.36814         4.70883        -2.67347
LJ          0.903931         5.21531        -2.69691
LJ          0.881433        -4.63892         -5.8364
LJ          0.386347         3.62017         -5.1665
LJ          -3.45701         5.85637          3.4217
LJ          0.831752        -2.32759         5.76729
LJ          -4.89793         4.22336         1.88304
LJ          -2.75492        -2.51553         -3.8495
LJ           6.28608         1.66243         2.94341
LJ          0.853852         6.02565        -2.05419
LJ          -1.34225         3.84593         -1.5342
LJ           4.02005        -3.51557         1.76592
LJ          -2.27643        0.818065          3.7383
LJ          -1.09808        -3.88132        -5.83657
LJ          -3.90869         2.95777         5.12996
LJ           1.62866        -1.99512       -0.419929
LJ          -5.97604         1.01192         -3.0547
LJ           1.57021        -2.65932        -4.46834
LJ           1.50881        -3.55061         5.56432
LJ          -1.03499        -1.49444         1.38028
LJ           4.81831         4.10781         2.28325
LJ        -0.0217524        -1.04123        -1.90078
LJ          -1.16163        0.439492        -2.35438
LJ          0.052433          1.2883        -3.01198
LJ          -4.50176          0.5861         4.94652
LJ          -3.43241         0.21522         1.72564
LJ           3.06033        -2.18672       -0.392372
LJ         -0.344132        0.464199        -1.30782
LJ           4.38598        -3.46729        0.549319
LJ           5.56416         2.13122        -5.43212
LJ          -5.29043        -3.75879         1.32038
LJ          -4.09244        -4.00249        -4.85331
LJ          -2.64347         1.11628         5.69422
LJ         -0.461496       -0.117507         6.28412
LJ           3.24914        0.820714         3.35775
LJ          -5.79768        -1.81489        -2.36591
LJ          0.210921         5.98712         1.33368
LJ           5.78596          4.2205         4.15942
LJ           1.33391         4.95827        -4.74382
LJ          -4.00959         3.61161         6.30994
LJ           4.89259        -6.06766          2.3573
LJ          0.494326        -2.91438         2.93803
LJ           3.21671         2.39863        -2.21748
LJ          -3.36045        -4.97904         6.06395
LJ            2.8111         5.29488        -1.65685
LJ          -2.93079         3.78216         4.35216
LJ            2.0295        -5.79489         1.56735
LJ          -1.08561        -2.49384         3.23165
LJ          -2.84209        -1.32238        -4.49183
LJ           -4.3149        -2.63848         6.09952
LJ           -3.6729         5.71745       -0.734706
LJ           4.48029         1.57973        -1.45721
LJ           1.89767          5.0147        -3.37417
LJ          -4.96399        -6.45871        -4.46752
LJ          -2.91582        -6.11703        -2.20631
LJ          -5.49209        0.750514         4.49118
LJ          -2.89169       -0.557694        0.586107
LJ           5.27809     -0.00870123         5.99268
LJ            2.4715        -6.10053         5.81291
LJ           1.49322         6.13959        -4.29285
LJ          -0.58696       0.0173133        0.633948
LJ          -2.56887        -2.50964       -0.919819
LJ          -5.06758        -6.43786         6.21376
LJ           3.16233         -5.4606        -2.31155
