108
#Comment!
LJ         0.0480058        0.427427         1.38268
LJ          0.134764         4.11625        -1.50324
LJ          -4.86811           6.206        -5.84147
LJ          -1.87591         1.99886        -6.16529
LJ          -3.69937         5.17874         5.59024
LJ          -2.25379        -2.63156         5.45636
LJ          -6.17605         6.17311        -5.85436
LJ           1.99108       -0.477386        -5.30989
LJ          -2.82087         4.08201        -5.83477
LJ           5.82505       -0.475933         -6.3763
LJ            2.0845         -1.1908          3.4078
LJ        -0.0726267       -0.187094        -1.92333
LJ          -4.67334      -0.0766337        -2.02122
LJ          -3.69389         5.07214        -5.84476
LJ            5.0389        0.862121        -3.64927
LJ            4.5753         4.29993        -5.27737
LJ           3.09393        -3.25478         3.93949
LJ           -5.1205        -3.75734         0.56701
LJ          -2.78238        -2.87628        0.738862
LJ          0.516376        -2.29416        -1.54717
LJ          -3.56577        -1.89873         3.51238
LJ          -3.81984         4.03915        0.502057
LJ           -1.9526         2.47747        -4.48755
LJ          -3.34522         3.99118         5.56223
LJ          -1.61104        -2.86255          2.8607
LJ           4.59822          -2.339         5.12955
LJ          -3.21804         1.32888        -6.30349
LJ           2.41669        -1.51394         4.83307
LJ           4.11051        -2.92279        -3.53757
LJ           3.94678         3.42726         1.67612
LJ          -5.72056         3.35906         5.31129
LJ            6.4572       -0.156691        -4.68997
LJ           2.12447         1.42016         1.81852
LJ         -0.734077         1.47619        -3.62511
LJ          0.447641         1.60245         3.04159
LJ          -5.15885        -5.46883        0.997011
LJ          -2.05866         2.68032        -2.00843
LJ             6.094        -5.91456         4.81507
LJ          -5.44297        -2.14582         3.27781
LJ          -3.50246        0.124565        -4.73342
LJ           5.04949        -1.43132       -0.343211
LJ          -2.73446         1.68833        0.716282
LJ          -3.41657        -2.08567         5.83017
LJ           5.14927         1.42266         5.35029
LJ           1.82358        0.396631        -6.06966
LJ           3.57475        -6.26337         4.78838
LJ          -5.82146        -2.26201        -5.84321
LJ           6.34479       -0.743453        -1.58811
LJ          -1.58567         6.06816       -0.393792
LJ          -5.29456        -5.26371        -4.98392
LJ          -5.22615        -1.84494       -0.746183
LJ         -0.999661         3.54981         2.36883
LJ           -2.1165        -1.26059        -4.68145
LJ           5.96469         3.16571        -3.99074
LJ           6.40931         3.41005         3.74672
LJ          -5.54895         5.50086         5.54201
LJ            6.1434        -4.88204         4.32048
LJ          -1.79647        -4.71881        -3.09357
LJ          -1.24673        -0.75571       -0.261069
LJ          -0.81123         2.67559        -3.35353
LJ          -2.66441         3.88172        -4.22413
LJ           -2.8783         6.42602        0.136138
LJ           3.91351        -4.23719         4.71267
LJ          -5.18852         4.33488        0.725378
LJ           3.12293         2.89584        -2.27425
LJ         -0.255294        -5.56504        -5.98412
LJ          -3.04117         4.00951       -0.228343
LJ          -2.22241        -1.44746        -1.18706
LJ           4.85716        0.699434        -5.38914
LJ          -5.58952         1.70715         5.28202
LJ           2.40475       -0.208767         5.07203
LJ          -5.99919         4.52556         6.31974
LJ            5.1486        -5.75223        -5.80348
LJ          -5.19424         6.18014       -0.404689
LJ          -4.76148        -5.66428       -0.501429
LJ           3.68477         3.50247         2.96793
LJ           5.75406        -2.94822        -1.58344
LJ           0.23142         4.49204         2.80723
LJ           5.17497          2.3585        -3.87474
LJ          -3.64368        0.500161         2.43284
LJ          -2.99453        -3.35208        -3.43266
LJ           4.90474        0.894089       -0.854876
LJ         -0.258602         -5.6091         1.72126
LJ          -4.43528         3.90494         5.43334
LJ          -2.40485         5.83002         6.23725
LJ           2.44451         4.61431         3.11228
LJ           4.99768         3.76776        -0.59007
LJ          -5.15576        -2.63126        0.721712
LJ          -1.05739        -1.06703         -4.5497
LJ          -2.37854         5.76082         4.98387
LJ           3.44193       0.0288966       -0.310732
LJ          -2.34226         1.31986        -4.84128
LJ          -5.01442        -3.85468        -5.58585
LJ           4.15234        -1.33206        -4.16003
LJ          -4.85948        -4.53743         5.55545
LJ           5.44426         -4.9472         2.64628
LJ           2.51755         4.26344         4.92314
LJ          -4.70555        -5.50817         2.07622
LJ          -2.18383         4.95343       -0.337693
LJ           6.14905        -5.68221         3.69748
LJ           -4.5021         5.05031        0.192059
LJ          -5.46721        -2.96338         2.12447
LJ           -1.9812         1.74286       0.0489275
LJ          -5.92094         2.86816        -5.59127
LJ          -1.65188         2.20937       -0.884262
LJ          -6.10754        -6.12507        -4.10168
LJ           2.19367       -0.798792         1.07762
LJ          -3.04543        -4.43809        -2.90288
