108
#Comment!
LJ         0.0864153         6.44803         5.43451
LJ          -3.73275        -6.16026        -2.20692
LJ          -3.61924        0.279636        -2.85888
LJ           4.98566        -2.77368        -4.37526
LJ            0.8299         4.83742         4.60521
LJ          -3.72823        -1.03052         -6.0053
LJ          -1.14213         -3.7664         4.30074
LJ          -4.60915         1.40508         5.33115
LJ         -0.223213        -5.23982         5.15761
LJ           1.98905         -2.3332         3.76462
LJ         -0.983629        -4.90292        -4.11724
LJ         0.0624289        -2.67989         2.93239
LJ          -5.18472       -0.696369         5.26519
LJ          -1.43317         4.28647        -6.43682
LJ          -5.70625        -2.93862       0.0574934
LJ           -2.2376        -6.25972         4.77821
LJ           2.14958        -2.08756         2.69151
LJ            -4.909        -1.16758        -5.56987
LJ          -4.55349        0.297435         1.05949
LJ          -1.63406        -4.34601        0.249975
LJ           -3.1533         5.82576         6.43449
LJ          -4.35415         5.45149        -2.34856
LJ           1.62881         4.53417         5.56045
LJ          -5.76095        -5.62997        -1.05564
LJ         -0.178425         2.43921        -2.83988
LJ          -3.56097        -5.93349        -1.14979
LJ          0.938796        -4.63075          4.1661
LJ           -4.2675         1.08612         1.79407
LJ          0.724331        -3.92737         4.84103
LJ           2.33425         3.93371        -1.60483
LJ           -2.2983        0.573485        -3.89872
LJ           2.26259         3.28808        -4.61879
LJ        -0.0961105         2.56041         5.43222
LJ           1.16349        -3.13296         5.59039
LJ         -0.442705         4.51161        -5.27682
LJ           4.69729         5.31084         4.44468
LJ           1.61248        -4.66108        -1.60955
LJ        -0.0966108        0.580805         2.26075
LJ          -3.65684         5.93705      -0.0445612
LJ          -1.66634        -4.35003        -4.64728
LJ            4.8188         4.23751         4.12315
LJ          0.247405         4.10737         2.85827
LJ          -5.09769         5.21116        -4.23774
LJ           1.76341       -0.918369         3.08043
LJ          -3.11247        -6.13265         -3.7363
LJ          -4.50149         4.71706        -5.96735
LJ           4.54981       -0.285962         4.49251
LJ           5.35665        0.198558         5.01994
LJ           3.92959       -0.580446        -3.87622
LJ          -3.68496        0.061928         2.09115
LJ           6.23351         5.90447        -3.95836
LJ            1.4553        0.597713         4.80994
LJ          -3.08095         1.43115        -4.57012
LJ         0.0503054        -4.66076         -3.1277
LJ           1.27716        -3.51937        -5.99387
LJ          -3.40107        -5.83746       -0.135095
LJ           5.16707         4.65982        -1.25024
LJ          -4.76561        -2.07871        -6.20626
LJ         -0.085899        -1.36611        0.574836
LJ          -5.83794        -4.76609         3.02753
LJ          -6.37918         6.42493         2.44324
LJ           2.19589         4.65761         3.50108
LJ           4.71112        -1.19484         -3.6301
LJ          -2.19016         3.81634       -0.464638
LJ           1.68899         3.27875       -0.308932
LJ           3.24419        -5.17791         5.58273
LJ          -5.58689         5.36844         4.55342
LJ            1.7703        -3.82355        -3.06533
LJ           1.43356        -3.36654         2.76239
LJ           4.81039         6.34996         5.64728
LJ           1.44108        0.472411         2.81782
LJ          -4.64852        -2.24147        0.639163
LJ         0.0230038         4.78589       -0.811552
LJ           5.82197         5.95131        -2.11924
LJ         -0.768936        0.857069         -3.2185
LJ          -3.01403         5.39361        -5.24762
LJ          -2.51928         -5.6798         1.03297
LJ          -5.24523       -0.173453        -5.66579
LJ           -3.8288         5.95223        -1.59252
LJ           4.64188        -5.29412        -5.40649
LJ          -6.45972        -3.11037        -2.21564
LJ           5.13539         4.25033         5.85725
LJ           2.63258         4.43861        -2.71029
LJ          -5.32401        -4.88434        -3.07563
LJ           5.00358         5.41193         5.68969
LJ           3.66745        -5.44698        -3.09194
LJ          -3.16197         3.76765         5.94691
LJ           3.10939       -0.892116        -2.99787
LJ           6.25202        -1.67462         1.18471
LJ           2.27211        -1.58421         5.18561
LJ          -2.32448         1.47143        0.986585
LJ          -1.18949        -6.03384         3.63195
LJ         -0.118027        -3.72152         2.42373
LJ          0.134933        -5.53778         3.95494
LJ          -2.94617        0.640923         4.07397
LJ           2.05611      -0.0117415         -4.8506
LJ           1.33734         3.90421         2.90149
LJ          -1.22253         3.45605        -4.08058
LJ            5.0531         2.85849         5.48787
LJ          -3.76664         2.89008         2.14506
LJ          -2.56651         -3.7951       -0.406533
LJ          -1.31023         2.88182        -6.03943
LJ            3.8631        -6.09191        -1.70772
LJ           5.90399       -0.359716        0.632886
LJ           3.99656         6.46172        -3.65724
LJ           3.17699         2.61628        -1.04924
LJ          -3.89973         4.76469          2.6785
LJ          -2.74014        0.443678         5.46262
