108
#Comment!
LJ          -4.04758         4.04504        -2.85472
LJ           5.28267        -2.99063         -2.9212
LJ           5.90455      0.00300868        -2.07689
LJ          0.733236        -3.16658        0.860625
LJ           2.87979         4.17855          1.4734
LJ          0.941325        -5.25781        -2.54745
LJ           4.38439        0.233897         1.79416
LJ            3.6877         3.39261         2.31508
LJ           5.02976         5.55541        -5.63382
LJ         -0.233694        -6.10243        -4.03631
LJ          -4.41846         2.29428         3.07342
LJ          -2.05657         5.45083        0.177445
LJ           1.65052         5.75436       -0.202158
LJ           3.21366        -5.72677         1.95485
LJ         -0.177802         1.43113        -4.90534
LJ           2.04887       -0.239858        -2.61049
LJ          -6.23835         1.31584         4.99882
LJ           2.36989       -0.581463        0.703835
LJ          -1.99455        0.883317         4.94884
LJ         -0.476853         6.06247        -5.79735
LJ          -1.90935        -1.31104         3.29964
LJ          -5.68967        -4.88951        -6.35926
LJ            1.0591         2.26544         6.15831
LJ          -3.03505         3.58302       -0.351539
LJ        -0.0920147        -5.29442         2.55095
LJ          0.446401         4.01254        -5.96468
LJ          -3.44908         5.43952         -5.7591
LJ            5.7404          1.4737         2.69486
LJ           -2.8921          1.1091          -4.932
LJ          -4.02071         -2.3065         4.48278
LJ           -2.9519         4.49382          2.7182
LJ          -3.76473        -3.34887        0.568385
LJ          0.347465         3.00238       -0.185772
LJ          -1.32639         2.43434         -4.2442
LJ          -1.85404        -1.77672       -0.407859
LJ           0.23794         4.83337        -4.03904
LJ           2.49877         4.49041           -5.23
LJ          -4.21062         2.88816        -2.11602
LJ           1.21854         2.57803         1.45125
LJ          -3.93475        -6.26656        -2.89658
LJ           4.60697         3.99382         3.86607
LJ          -0.17116        -2.94054         5.53524
LJ          -3.18951        -3.30148         -2.9114
LJ          -5.87829         3.10565         0.35352
LJ           2.52771         4.69952        -3.99936
LJ           -5.9125         1.90593         0.28051
LJ           3.35942         2.95968         3.34059
LJ           4.71103        0.342845            3.31
LJ           3.77718        -3.85982        -2.42078
LJ           4.94126        0.686341        0.968738
LJ          0.399436       -0.945964         6.24879
LJ           4.83141         -5.6769        -1.01239
LJ           2.78042        -2.66195        -4.16896
LJ           1.23911        -1.59612        -1.27294
LJ           5.20337        0.947516        -2.21334
LJ         -0.617919         6.32115        -2.65823
LJ          -2.14368       -0.910088         2.33354
LJ         -0.917676        -2.00635        -1.88608
LJ          -0.63615        -4.82649        0.265098
LJ           1.07216         2.17917        -4.29954
LJ            1.4857        -4.45791         3.15373
LJ          -2.07516        -2.40396        -3.36878
LJ           6.26321        -4.64955        -3.70948
LJ           2.53672        -5.72542        0.649858
LJ           6.42172         -4.5177        -5.93939
LJ          -6.44004        -5.54511        0.644895
LJ          -2.49016        -4.14316        -5.70216
LJ         0.0061837         2.76579         5.41399
LJ           2.27399        -1.63697         4.12515
LJ          -1.00915       -0.745516        -3.82022
LJ           4.16615        -1.18384         1.70342
LJ           1.41487        -6.03336        -1.37601
LJ          0.690551         4.95076         4.31534
LJ          -6.14592        -2.06789      -0.0748492
LJ          -3.17479        -1.72855         5.26316
LJ          -1.44326         5.80816         6.31973
LJ          -4.08791         2.28474         5.91689
LJ           2.01597        -2.78044         3.45846
LJ          -5.85818         5.85998        -1.19085
LJ           4.98939        -2.55799         4.87231
LJ            4.8027         2.30247        -5.22419
LJ          -5.98707         2.72459        -4.48173
LJ           -5.0037         2.69818        -3.30437
LJ           4.32738       -0.741098        -2.49477
LJ           1.32903         -5.9077     -0.00406348
LJ          -5.07411        -2.29546         2.17728
LJ          0.362989        -6.02284        -5.11283
LJ         -0.829826         6.34858        -1.08974
LJ           4.13336        -5.51852         2.99924
LJ         -0.771946        -1.64248         1.36456
LJ          -3.00322         4.31935        -2.31337
LJ          0.584418          5.8204        0.190997
LJ          0.821052        0.475011        -4.76095
LJ         -0.200541         -2.1862         2.09718
LJ          -3.97646        -2.00613        -2.06906
LJ          -2.53424        0.197064         -3.1581
LJ           5.08401         1.13636       0.0177429
LJ          -0.61059         5.14344       -0.487468
LJ          -3.50423         1.47423        -1.85173
LJ          -2.54092        -2.33966         5.84462
LJ           1.20906         4.52325        -4.17053
LJ         -0.686113         1.40652        -1.00499
LJ          -2.79978         1.48399         4.38712
LJ          -2.11776         1.86384       -0.292917
LJ          0.920787         6.25978        -2.19977
LJ           6.01087         2.09585         5.34849
LJ          -1.63783         2.15259        -1.31486
LJ          -5.19383         4.69773        -1.87564
