108
#Comment!
LJ          -5.13922         3.87339         -2.5155
LJ           4.64594        -2.77927        -2.93852
LJ           6.20437        0.481334        -2.37277
LJ          0.518183        -4.40334        0.749079
LJ            2.9383         4.22998        0.231823
LJ           1.53536        -5.07614        -3.16795
LJ           4.91777        -0.53935         2.41923
LJ           4.62894         3.30938        0.844499
LJ           4.97883          5.8303         6.02233
LJ         -0.673836         -6.0387        -4.44388
LJ           -5.4178           2.861         2.67577
LJ          -2.22129         5.31031        0.674847
LJ           1.47197         5.70855       -0.444225
LJ           2.88639        -6.06221         1.41247
LJ          0.108827      -0.0745901        -4.10878
LJ           2.34532        0.515866        -3.18582
LJ           6.24333        0.581488        -6.35593
LJ           1.96357       -0.045395         1.90217
LJ           -1.1498         1.16199         5.98394
LJ          0.382262         4.77259         -5.1531
LJ          -2.55124        -2.24237         3.93568
LJ          -6.06595        -5.51134         5.55873
LJ         0.0871685         2.12931         5.00709
LJ          -2.73995          3.5068        0.244339
LJ         -0.330461        -6.38916         2.22772
LJ          0.548118         4.33456         6.43693
LJ           -2.4689         5.92228         6.07893
LJ          -6.11546         1.03149         4.38522
LJ           -2.5795         1.59021        -5.50901
LJ          -3.19311        -1.19555         4.36483
LJ          -2.70925         4.74277         3.53028
LJ          -3.21149        -4.83694         1.07656
LJ           1.76282         4.53021       -0.252288
LJ          -2.18199         1.91561         -4.6147
LJ         -0.448596        -1.12803       -0.105218
LJ         -0.407363         5.25939        -4.36983
LJ            1.9896         5.95274        -4.06515
LJ          -4.96214         3.23976         -1.6695
LJ           1.58296         1.86794        0.553576
LJ          -4.31659        -6.31382        -3.55662
LJ           4.29594         4.57749         3.78912
LJ           0.20971        -3.01776         4.98024
LJ          -3.46764        -3.95359        -2.56967
LJ          -5.98293         3.19042        0.467187
LJ           3.19378         5.29191         -3.8259
LJ           -6.4625         2.15168        0.772903
LJ           2.97036         2.28967         2.51696
LJ           5.84483        -0.27953         3.65129
LJ           3.98652        -4.22655        -3.68389
LJ           3.96174         1.97991        0.365205
LJ          0.233155        -1.64977        -6.07264
LJ           5.41473         -4.9602       -0.128245
LJ           2.59713        -2.07977        -4.41307
LJ          0.869044        -1.12077        -1.81903
LJ           5.44047        0.834846         -1.5502
LJ          -1.17382         6.32611        -1.94223
LJ          -1.80534        -1.85085          2.3281
LJ         -0.393448        -2.25045         -0.3253
LJ         -0.358148         -3.1819       0.0978712
LJ           1.70106         2.51846        -5.38466
LJ          0.913481        -5.37296         4.33283
LJ          -2.91993        -1.29036        -4.00933
LJ           5.86453        -4.48307        -3.05806
LJ           1.42194        -4.78971         1.22398
LJ          -6.13851        -4.51405        -3.86604
LJ           5.90345        -5.60864        0.952978
LJ          -3.50892        -3.53301        -4.34336
LJ         -0.266199         3.45745         5.93575
LJ           1.55588        -2.79501         4.63997
LJ          -1.37208        -1.23576        -4.39089
LJ           4.37506        -1.52749         2.21339
LJ           1.67248        -5.61776        -1.23058
LJ           2.24468         5.38424          4.7771
LJ           -4.8045        -2.51533       -0.482038
LJ          -3.30531        -1.52591         5.60201
LJ          -0.62372         5.45125         -6.0842
LJ           -4.0488         1.84659         5.04783
LJ           2.98181        -2.45623         3.07312
LJ          -5.55411          5.0164        -1.69427
LJ           5.07424        -2.68168         4.58952
LJ           4.12596         4.88587        -6.42735
LJ          -6.19938         3.11986        -4.72175
LJ          -5.62789         2.91396        -2.67589
LJ           3.14393        -1.16928        -1.12586
LJ           1.59964        -5.83335        0.302224
LJ          -5.12735        -2.66575        0.751526
LJ         -0.870399         6.40333        -5.58505
LJ          -1.47726         4.96534       -0.662696
LJ           4.02125        -5.89181         1.59361
LJ         -0.896632        -1.90615         1.87072
LJ           -3.5707         4.61971        -1.87631
LJ           0.53941        -5.98015       0.0135205
LJ          0.455269      -0.0898378        -5.40626
LJ           1.33621        -2.37875         1.73645
LJ          -4.37555        -1.02284        -2.62395
LJ          -1.67764         0.71892        -2.98046
LJ           4.56747         1.50953        -1.14797
LJ         -0.573286          3.4974       -0.522053
LJ          -4.63648         2.21155        -1.20711
LJ          -2.53842        -2.83035         5.76917
LJ          0.698904         3.26023        -4.44289
LJ        -0.0621706         1.41172       -0.515683
LJ          -2.97751        0.373492         3.65503
LJ         -0.902528         2.26306        -1.37845
LJ           1.40133        -6.06653        -2.26887
LJ           6.23403         2.13668         5.25755
LJ          -1.62513         3.09768        -2.02137
LJ          -4.84462         4.01497       -0.720768
