108
#Comment!
LJ          -1.03139          3.3922        -4.42219
LJ          0.428432        -2.31929         4.51614
LJ           0.31761         2.93781        0.112892
LJ           3.84902          5.4767        -4.09045
LJ          -5.85835        -1.81345        -2.55078
LJ           5.41689         1.36024        -5.01497
LJ          -4.99129        -3.28092         6.06529
LJ           1.36917        0.463796        0.872565
LJ          -2.92138       -0.570351         1.84726
LJ         -0.419253         1.13239          1.0104
LJ           4.05605         1.05212        -3.68108
LJ          -5.28936           2.289         5.99628
LJ            4.6254       -0.931763         1.94641
LJ           3.90469         -4.1124        -6.29283
LJ           2.86683        -1.98087        -1.67251
LJ         -0.976154        -2.72857         -1.0464
LJ           1.08071        -3.85599         1.15253
LJ          -1.29404        -2.08037         3.78602
LJ          -3.76535        -5.34523         3.04708
LJ          -5.00798         2.33485         4.03495
LJ          -4.13049       -0.383094          3.1025
LJ           -5.8595        -1.92554         1.17114
LJ          -4.67951       -0.723095          4.2672
LJ           1.24217        -1.18957        -2.82732
LJ      -0.000445984         1.65254        -4.85955
LJ          -2.06503        0.580323         -3.9162
LJ           0.50056        -4.57916          3.4097
LJ          0.125483         6.42813        -3.24166
LJ         -0.452863        -1.39965         1.00049
LJ           3.36287         6.31569        0.570205
LJ          -1.16569        -4.90119        -5.55512
LJ           3.04654          6.1992         2.79485
LJ           5.41454        -3.63556         6.25053
LJ          0.487978         1.47175         1.69111
LJ          -3.30814         4.67301         2.41672
LJ          -3.76646           3.937        0.121573
LJ          0.521865          4.8398        -3.62946
LJ           3.84915        -4.93068      0.00598823
LJ           2.61065        0.736785         2.50381
LJ           4.03088        -5.57469         3.14167
LJ          -1.56213        0.574341        0.789359
LJ            2.8427        -5.07632         3.79148
LJ           4.93388        -6.31969        -1.00504
LJ          0.680151       -0.175144        -6.33143
LJ           3.65889         2.40094        -4.17057
LJ           1.79409         4.05158         6.37373
LJ          0.218915        -5.53804        -4.27755
LJ         -0.472089         5.77875        -6.06736
LJ             5.738        -6.42683          3.9884
LJ          0.418364        -5.97717        -1.85827
LJ          -3.77946         6.30486         4.04721
LJ          -4.06903        -3.10121        -4.29116
LJ          -3.04561       -0.744544         5.57591
LJ           5.11761        -5.43182         -4.0389
LJ           4.50623       -0.762645       0.0158065
LJ           6.36102         6.35639          2.1222
LJ           4.21588         3.01075         3.61608
LJ           1.28141         1.00171         6.18518
LJ          -2.21681         2.03732         3.66463
LJ           -1.5976         5.93424         3.83506
LJ          -1.94799         -1.5992        -5.29049
LJ           6.08047        0.258449        -5.35434
LJ           5.94414        -5.01716         3.32871
LJ         -0.134865        -5.26136        -3.02682
LJ           1.00055         3.28255         3.77003
LJ           2.22027       -0.742618        -3.71173
LJ         -0.664102        -2.23233        -4.77294
LJ          -3.19364         2.87878         6.46128
LJ        -0.0537521        -2.85312       -0.618103
LJ         -0.623782        -4.51175         4.10699
LJ           0.84301         4.78673         1.77298
LJ           2.72399       -0.591596       -0.255809
LJ           4.43037        -6.42936         2.51145
LJ          -5.51001         2.44225        -3.10399
LJ           1.80931      -0.0921132         2.64008
LJ          -2.47327        -6.16722        -4.43455
LJ         -0.885886       -0.501124         3.73242
LJ           1.20013         4.85507        -4.63911
LJ        -0.0806407         5.64878        -1.79365
LJ          -3.90966        -2.04208        -1.86776
LJ          -1.30833        -4.76144         3.26944
LJ           5.77236         4.60607          4.9099
LJ          -1.36978         5.07281        -5.95005
LJ          -3.92348         2.15377        -5.18733
LJ            5.0446        0.597932        -2.39243
LJ          -3.51084        -2.41756         1.61455
LJ           1.56417          4.5614        -3.59285
LJ          -1.19302       -0.855188        -4.68629
LJ           -1.1539        -4.97336        -4.01997
LJ          -2.88864         2.35937         4.44044
LJ            4.9492         -4.5783         3.02554
LJ           1.12798        -1.21863         1.12418
LJ          -2.63524         1.00904         5.66939
LJ          -3.00007        -5.64382        -2.78007
LJ         -0.915074         3.12781         2.74025
LJ           2.32224         1.59037        -2.56439
LJ           1.06641         2.97128         -6.1943
LJ          -1.70026        -2.64059        -4.41326
LJ           5.79364         3.56353        -4.48382
LJ           -4.3796       -0.244617        -4.75564
LJ          -6.06622        0.321628         1.45306
LJ           4.75831         1.31876         4.05764
LJ           3.58666        -4.30966         3.30785
LJ           -4.5588         5.34984         2.18121
LJ          0.544591         1.01417        0.156577
LJ         -0.188083        -3.49574        -1.64178
LJ           6.17038        -6.26538         0.66232
LJ          0.483444       -0.624308         5.05897
