108
#Comment!
LJ          -3.82506         3.67154         -3.3788
LJ           5.61787          -3.189        -2.91054
LJ           5.49197       -0.111461        -1.94837
LJ          0.704765        -2.35753        0.897062
LJ           2.77288         4.27902         2.06494
LJ           0.62671        -5.72263        -1.95899
LJ           3.95628        0.481943         1.72352
LJ           3.18602         3.42807         3.06045
LJ           5.18074         5.59495        -4.92609
LJ          0.201123         -6.2043        -3.93342
LJ          -3.79897          1.9386         3.33114
LJ          -2.00123           5.501       0.0381139
LJ           1.80165         5.50874       -0.247157
LJ           3.45337        -5.44961         2.32807
LJ         -0.131421         2.27723        -5.32808
LJ           1.86315       -0.727389        -2.24034
LJ          -6.02281         1.86664         4.03075
LJ           2.63742       -0.918502      -0.0272798
LJ          -2.49836        0.646893         4.29669
LJ          -1.11612        -6.16492        -6.30373
LJ          -1.45814       -0.810689         3.09317
LJ          -4.95491        -4.74264        -6.01618
LJ           1.38172         2.56277        -6.12516
LJ          -3.18851          3.6147       -0.764613
LJ         0.0972071        -4.59709         2.74645
LJ          0.713021         3.51989        -5.58983
LJ          -4.03187         5.14286        -5.08942
LJ           4.96983         1.61294         1.65741
LJ          -3.02662        0.838057        -4.50756
LJ          -4.23398        -2.83577          4.7353
LJ          -3.10183         4.33678          2.2156
LJ          -4.10593        -2.42023        0.253684
LJ         -0.553985         2.05615       -0.139697
LJ         -0.760293         2.64631        -4.10275
LJ          -2.64317        -2.23339       -0.683036
LJ           0.29645         4.71105        -3.89849
LJ           2.81367         3.59625        -5.47647
LJ          -3.81481         2.86589        -2.71692
LJ          0.992495         3.04029         1.97173
LJ           -3.7024        -6.25188        -2.48401
LJ           4.67685         3.55371         3.85895
LJ         -0.400258        -2.87116         5.87855
LJ           -2.8857        -2.76126         -3.1143
LJ          -5.82089         2.94237        0.276036
LJ           2.70857         4.14939        -4.52801
LJ          -5.58978         1.85452      -0.0249148
LJ           3.68828         3.31122         4.21249
LJ           4.04221        0.792786         2.84063
LJ           3.71502        -3.58108        -1.65643
LJ           5.69229       -0.121458         1.31386
LJ          0.498828        -0.51146         5.88282
LJ           4.49326         -6.1229        -1.52612
LJ           2.90022        -3.02355        -4.00594
LJ           1.45732        -1.87625       -0.941561
LJ           5.20579        0.757539        -2.56766
LJ        -0.0956272          6.3408        -2.98161
LJ          -2.34857       -0.305754         2.12438
LJ            -1.342        -1.85369        -2.79005
LJ         -0.707793        -5.84821        0.380046
LJ          0.562919           1.888        -3.71549
LJ           1.81729        -3.85869         2.42708
LJ          -1.64019         -3.0753        -2.88507
LJ          -6.41363        -4.72702        -4.15802
LJ           3.19652        -6.45038        0.348203
LJ           5.66832        -4.28517         6.04966
LJ          -6.10582        -5.50593        0.415332
LJ          -1.86078        -4.50805         6.38843
LJ          0.436235         2.21609         5.24979
LJ           2.70443        -1.14722         3.61869
LJ         -0.850581       -0.451705        -3.43157
LJ           4.06057       -0.683212         1.40511
LJ           1.09351        -6.32572        -1.25776
LJ         -0.268855         4.67881          4.0382
LJ           5.97726        -1.77203        0.017253
LJ          -3.42342        -1.89925         4.73643
LJ          -2.11944         6.36634         6.24667
LJ          -4.10263            2.54          6.4358
LJ           1.40573        -2.81485         3.85799
LJ          -6.11228         -6.4514       -0.916234
LJ           4.93494        -2.48094         5.04394
LJ           5.10574        0.502912         -4.4035
LJ          -5.74589         2.47992        -4.19922
LJ          -4.46276         2.74298        -3.50965
LJ           5.13037       -0.395576        -3.28461
LJ           1.05143        -5.77383       -0.302252
LJ          -5.04995        -2.09214         3.21296
LJ          0.933318        -5.83141        -4.62447
LJ         -0.151752        -6.01843        -1.53802
LJ           4.02978        -5.32801          3.6502
LJ         -0.992268        -1.30213        0.902893
LJ          -2.36127         4.18023        -2.40764
LJ           0.69938         5.35199        0.174394
LJ          0.832487         1.08151        -4.30648
LJ         -0.941279         -2.2347         2.47691
LJ          -3.66852        -2.66426        -1.77884
LJ          -3.03901       -0.103674        -3.29353
LJ           5.41352        0.965901        0.652853
LJ         -0.623595         -6.4498       -0.507263
LJ          -2.81503         1.09288        -2.24973
LJ          -2.43704        -2.15987         5.97752
LJ           1.22147         5.41227        -4.14914
LJ         -0.668269           1.177        -1.24789
LJ          -2.72893         2.23937         4.86054
LJ           -2.9177         1.81753       0.0951674
LJ          0.495571         6.18673        -2.16515
LJ           5.93675         1.96832         5.37619
LJ          -2.02917         1.67537       -0.654284
LJ          -5.31678         5.00959        -2.34064
