108
#Comment!
LJ          -1.90605          2.9813         5.34051
LJ          -4.34292          -5.309        -2.78134
LJ           5.28802        -2.08246        -6.25799
LJ           2.11934         3.28173          1.1865
LJ          -0.54567        -5.68227          4.3869
LJ           2.70281        -4.04029        0.675627
LJ           1.61326         4.98561        -1.76396
LJ           4.01552         4.57555        -4.96704
LJ          -5.96952         5.00798         1.46763
LJ          -2.88174        -2.26064        -4.59771
LJ         -0.571579       -0.340356         6.21719
LJ           1.49889        -5.70173        -1.36289
LJ         -0.526437         5.74673       -0.107911
LJ           4.83876        -3.25532        -6.35974
LJ          -1.45468        -5.85691        -6.10346
LJ           4.94691         -5.4102        -1.73548
LJ           -4.5894        -5.74386        -3.85452
LJ          0.683243        -4.70611        -0.57977
LJ          -5.19658        -2.59685        -2.46529
LJ          -3.42768         4.91448         5.11122
LJ          -1.72088         3.84059       -0.346319
LJ          0.808804        -1.82569        -2.33209
LJ          -5.90047         3.80857           -3.17
LJ          -3.06944         1.79347        -4.32392
LJ          0.100826         2.38555        -6.16435
LJ           3.72308         5.62043        -1.59976
LJ             3.341         4.65422         1.87688
LJ          -1.57656        -2.26347        -2.99351
LJ          -3.15787        0.570149        -1.09974
LJ          -5.42477       -0.967503         5.81916
LJ          -5.39142         2.33493        -3.00651
LJ           2.62234           2.567          -2.362
LJ          -5.37451         5.10207        -2.31281
LJ          -1.48477         4.58087        -1.78866
LJ            3.0755        -1.88667         1.82007
LJ           2.30114         3.63406        -3.61097
LJ           5.96546        -2.41219        -2.97879
LJ           1.19502         3.22051        -3.88076
LJ         -0.574868        -5.35201         -6.3366
LJ          -1.04279        -6.03524        -1.46567
LJ           4.48689         2.13482         3.78116
LJ          -3.57465       -0.946964        -4.70007
LJ          -2.62259        -1.41214       -0.882292
LJ          -4.03264         2.14689        -1.46524
LJ           5.17709        -4.26076        -5.82928
LJ          -3.82248         1.89929       -0.282985
LJ           5.23368         4.10019        -4.90892
LJ         0.0384492         3.63579        -1.37205
LJ           2.84648        0.499774          3.3746
LJ          -3.91897        -1.34238         3.94525
LJ           2.62937        -1.34873         3.75573
LJ          -6.26265         6.08727        -6.05307
LJ           6.03005         -4.1004        -4.72009
LJ          -4.70258        -1.09934        -5.49355
LJ           5.04002        -2.90346        -5.31073
LJ          0.917907         5.97833        -2.49473
LJ            -2.413         3.31841         2.62047
LJ           1.27382         2.03001         2.72652
LJ          -2.45689       -0.742752         3.86609
LJ           6.43038          4.1938          -2.106
LJ           2.93663         1.22369         2.13595
LJ          -1.67912        -6.12405        0.176683
LJ          -6.24713        -5.30886        -6.13754
LJ          -3.33383         1.23371        -2.14789
LJ          0.180111       -0.977423        0.214633
LJ          -1.69145        -4.30764       -0.170505
LJ           1.99239        -6.15435        -4.69825
LJ           5.70918       -0.943079        -5.57168
LJ           6.44813         3.11304        -1.92974
LJ          0.892144        0.774538        0.635854
LJ           3.34493         3.11336        -1.61679
LJ         -0.996246         5.67816         1.07118
LJ           4.13602         1.97951         1.51393
LJ          -1.44294         1.35465       -0.201729
LJ           4.91891        -5.32073         -5.7594
LJ          -6.33265        -2.10518         6.44755
LJ          -2.55973         -6.1391        -5.47008
LJ          -2.94367        -3.67156         3.94269
LJ           4.10705        -1.32581       -0.582095
LJ           3.02548         6.05222       -0.295554
LJ            5.8816        -5.85833        -5.11408
LJ         -0.847665         1.05542        -1.83159
LJ          -1.85289        0.533436        -1.01816
LJ           6.20334        -3.63357         4.81668
LJ          -1.84557         5.15225        -5.11144
LJ         -0.421279        -4.79093        -2.43343
LJ           -6.0195        -4.81577        -4.15473
LJ         -0.737289         5.90389         -1.7284
LJ           3.72808        -2.30399         6.32793
LJ          -6.03739        0.452657        -2.78195
LJ          0.595982         0.74749        -3.00506
LJ         0.0472859         6.40861       -0.865945
LJ           3.50743        -1.41838        -1.93767
LJ           4.90957       -0.654044          4.5591
LJ         -0.289693         1.64618        -1.16806
LJ            5.7065        -3.41207        -2.67871
LJ           5.89829        -1.18681         3.35619
LJ          -2.47399         2.12402        0.292225
LJ            0.8717         -2.2098         5.43569
LJ          -2.99044        -2.13855        -6.25385
LJ           0.47361          5.6724        -3.79152
LJ          0.272558         1.67638        0.163314
LJ          -4.91919        -4.91286        -4.32032
LJ           5.20195       -0.273236         3.04683
LJ         -0.261008         3.71284        -3.93376
LJ           5.09291         1.31967         4.22764
LJ           3.74513        0.876543         2.87849
LJ          -5.52131         4.90013         5.94824
