108
#Comment!
LJ           2.49184          5.6753        -1.37693
LJ          -4.50731        -1.53412        -4.75566
LJ          -5.04709         4.77426         4.17041
LJ             2.318         5.47253        -5.08912
LJ          -2.46354         3.77629          4.4277
LJ          -4.86901       -0.684594          6.1153
LJ          0.737211        -3.45567         4.16866
LJ          -1.40286         2.48325        -5.55876
LJ         -0.565083         4.38788         5.72064
LJ           5.90327        -2.55049        -4.94659
LJ          -1.26648          2.6998        -0.48881
LJ          -1.95813        -6.33393        -3.45922
LJ          -5.83689         5.29744       -0.899219
LJ           4.85792         4.57757        -3.69832
LJ          -1.78111        -3.25142         3.65717
LJ           3.15681         2.27358        -3.08389
LJ          -3.06466        -3.09378        -4.42599
LJ           -3.5893        -4.14793        0.857855
LJ          -1.83834         2.35108         2.99087
LJ          -4.91737        -3.07051        -3.79406
LJ         -0.211128         3.54329         3.41431
LJ           4.67042         3.52185      0.00247935
LJ           1.17003         1.11743       -0.814916
LJ           3.05912        -4.78096          5.6078
LJ          -1.17406         4.80859         4.18233
LJ           1.84558        -1.22848       -0.148942
LJ           5.43212        -1.05042        -3.58412
LJ          -1.86811         2.59061         4.59301
LJ           1.57747        -5.19482         5.53266
LJ          -3.73553        0.513992         5.05399
LJ          -2.33934          -2.904        -5.22933
LJ            3.4026        -4.19934        -2.76285
LJ          0.757736         4.72227        -3.00717
LJ           -0.8537           5.594         5.71465
LJ           3.85359         6.13973         6.22255
LJ          -5.37623        0.959365         4.83939
LJ         -0.874304         4.00004         4.78837
LJ          -3.00028         0.69094         1.80053
LJ          -4.86869          -5.714        -5.36996
LJ          -1.26894          5.9587        -5.89889
LJ           2.68967        -1.95601         2.21104
LJ          -1.89951        -0.38898         2.47548
LJ          -4.51905          5.8014        -4.19807
LJ           2.17004       -0.942141         3.99248
LJ           -1.4098         2.59156         5.78192
LJ          -3.13723         1.89367         3.88441
LJ         -0.753507         -5.6869        -2.77232
LJ           5.48765        -2.25898         4.23498
LJ           5.29341        -5.34938         2.50985
LJ          -5.01985        -3.25689         3.40803
LJ           3.36239        -4.51325        -5.36614
LJ          -3.41652         4.91235         4.38249
LJ           0.11017        0.841578        -2.90286
LJ         -0.741351         3.08353         1.22121
LJ           1.37312         2.49353         3.22027
LJ          -5.72013         2.84585       -0.261155
LJ          -5.46325        -6.33589         1.50952
LJ         -0.379475        -1.16752        -4.90965
LJ           1.26849          1.0232          1.2694
LJ         -0.473408        -4.64647         5.34855
LJ          -4.97637        0.476294       -0.804802
LJ          0.956849        -4.08959        -3.19556
LJ           -5.5619         5.50449        -2.20969
LJ         -0.122398         2.98852        -1.88574
LJ           1.59804         6.29091        -1.78359
LJ           6.36776        0.828603         -6.4546
LJ          -5.43363        -5.82796         6.18864
LJ           4.24312        -3.65249        -2.43301
LJ          0.863902         6.43964         5.65129
LJ           2.67514       -0.370848         5.75226
LJ          -2.04226         -2.3779        -4.45673
LJ           -5.4972        0.459728        -3.11771
LJ          -5.05059        -6.15779        -2.19979
LJ           2.35103        -5.66261        -1.92198
LJ          -4.52787        -5.23275         4.23088
LJ          -5.24715        -3.06993       -0.491304
LJ          -5.30686        -4.20562        -3.25249
LJ           4.07762        -5.74397       -0.936935
LJ           3.10059         6.29829        -2.12298
LJ           4.02198       -0.319244         4.78861
LJ           -3.7496          6.1173        -5.55094
LJ           4.59773       -0.106035         3.73781
LJ          -2.24947        -3.47809         1.07678
LJ           2.14833         -2.3551       -0.306865
LJ           -5.3442         4.80145        -4.73098
LJ           6.06206        -5.96648        -1.48252
LJ          -5.22376       0.0677858        0.720461
LJ           6.23243        -3.77197         1.34783
LJ         -0.255838        -2.44068         -2.8508
LJ          -1.22826         -3.8087        -6.46017
LJ          -5.79353         1.48015        -2.22716
LJ            -1.252         4.97395        -5.33396
LJ          -2.90519       -0.107528       -0.163943
LJ           5.17207         1.12628         6.33999
LJ           4.35101        -0.42118        -6.15368
LJ          -1.24894         5.93858         1.59114
LJ           1.70487        0.806783        0.219756
LJ           5.72463         3.82292        -1.53315
LJ           3.46126         1.21469        -1.27683
LJ          -3.28067         1.72485          1.2017
LJ          -5.80962         2.57347        -1.49094
LJ         -0.671616        -5.77346         6.19984
LJ           5.84613         1.38854       -0.824126
LJ           6.19453         -4.6635        -1.41836
LJ           5.17547         2.53164       -0.733686
LJ          -1.19412        -1.38265       -0.533621
LJ          -1.90431        -4.47323         1.56783
LJ           1.25615        0.348151        -4.32022
