108
#Comment!
LJ         -0.510825         5.94691        -6.28158
LJ          -3.81969        -5.82218        -2.91076
LJ          -3.48402        -1.05509       -0.815417
LJ           4.22528        -3.01116        -4.61898
LJ          -0.42048         4.09112         4.94829
LJ          -4.12913        -1.51923        -6.44095
LJ          0.190984        -2.19664         5.72347
LJ          -3.86771         1.31862         1.51318
LJ         -0.190932        -5.73265        -6.18991
LJ           2.64067         -2.5249         2.00595
LJ         -0.699733        -5.92596        -2.47699
LJ        -0.0786529        -1.42318         2.50287
LJ          -3.93713        -2.16484          3.6168
LJ          0.230612         3.64754        -5.42625
LJ          -6.09878        -2.68594         1.21755
LJ          -1.49879          5.1591         2.35919
LJ           1.89635       -0.324972        -0.82528
LJ          -3.94683       -0.660707        -3.17535
LJ           4.65928        0.291531         2.15785
LJ          -3.78248        -3.69438         3.11655
LJ           -2.7905         4.72972         5.93447
LJ          -5.78737         5.89884        -1.71623
LJ            1.3965         3.35322          3.8648
LJ          -4.39328        -5.17946       -0.632776
LJ         -0.378639        0.241871        -1.11393
LJ          -2.31655        -4.41248        0.284859
LJ           3.12408        -5.06064         4.61387
LJ           5.09688         1.48271         4.12338
LJ          0.397777        -3.46377         3.93365
LJ           1.09618         2.71223        0.218134
LJ          -1.94865        0.452579        -5.70033
LJ          0.278627         5.99615        -5.65804
LJ          0.719138         5.03154        -6.39049
LJ           1.87067        -3.62499         6.12056
LJ          -3.51137         5.95185        -5.70379
LJ           5.12616         5.02527         4.75833
LJ           4.94422        -3.60784        -2.77847
LJ         -0.644686       -0.721581         1.23105
LJ           -3.8014        -5.83336        -1.56975
LJ         -0.637806        -4.43859        -5.21021
LJ           4.71942         2.81275         3.89971
LJ         -0.719793         4.91237         3.02691
LJ           -6.1736         5.36238        -3.14035
LJ           1.04686        -2.17881         2.29459
LJ          -2.92822         5.29803        -4.50054
LJ           -1.6514         3.34545        -4.34208
LJ           5.66908        0.299666         3.70069
LJ           6.24257         -1.2644         5.66651
LJ          0.539663        -2.14544        -2.31982
LJ          -4.09884        -0.37397         2.39004
LJ           6.40424        -5.82596        -4.73685
LJ         0.0290088         3.40788         3.70029
LJ          -2.67214         2.07825        -4.29895
LJ         -0.510613        -5.62927        -3.73322
LJ          0.643459        -3.25744         5.45212
LJ          -4.17117        -3.49367       0.0318694
LJ          -5.78393         4.61152        -4.06828
LJ          -2.92439         -2.0719        -4.76124
LJ           3.75385        0.248407         1.92571
LJ          -5.24156        -4.84786          2.9624
LJ           5.81768        -5.70752          2.2881
LJ           2.30171         4.84983         1.99563
LJ            5.7478        0.573442        -3.65495
LJ         -0.943213         1.45656        -1.54837
LJ           0.50633        0.774815        -1.20582
LJ           4.30452         5.93546         6.46009
LJ          -5.43949         3.42588        -6.02421
LJ           2.90751        -4.34367        -4.14533
LJ           1.49911        -3.90893         3.91719
LJ           3.10717        -5.76993         5.39737
LJ           1.02487       -0.669237         1.01301
LJ          -5.39507        -2.49185       -0.875425
LJ          -1.45752         5.24881        0.532217
LJ           3.92811        -6.17579        -1.01751
LJ          -2.43678        -1.40081        -5.77844
LJ           0.50634         6.15464        -3.79508
LJ          -3.19363         6.31874        -1.08349
LJ          -6.31818       -0.729688        -3.60456
LJ          -5.32693         4.91264        -1.10455
LJ           5.16511        -2.65923         6.25027
LJ            -3.373        -4.06731        -2.37772
LJ           3.39797          1.7938         5.69295
LJ           6.46195         6.33796        -1.01478
LJ          -4.33506        -4.32002         -3.2738
LJ           5.86777         4.93053         6.18855
LJ           4.18792         6.31256        -3.98036
LJ           -6.4569         2.44197          3.1824
LJ            2.6414        0.292914        -1.12809
LJ           4.23522        -2.64224       -0.327806
LJ           0.27308        -1.81663         4.51151
LJ          -3.47084         1.88926       -0.369366
LJ          -1.41873         6.44854         5.88821
LJ          0.191094         -2.5506         1.94819
LJ           1.72876        -4.89414         4.12179
LJ         -0.981478        0.749114         4.95908
LJ           1.39734        -1.44438        -3.22771
LJ           1.42317        -6.17474         1.97582
LJ         -0.406616         2.91912        -3.46603
LJ           4.36872         2.19264         6.41036
LJ          -3.00752          3.2322         2.60543
LJ          -3.94078        -2.55017        -1.63692
LJ         -0.832966        0.374152        -6.20074
LJ           5.37251        -4.29792        -2.05444
LJ           3.57968         1.33344        0.230817
LJ           5.39093        -6.09501        -2.24248
LJ           2.42084         5.65074       0.0960051
LJ           -4.3067        -5.14362          1.4671
LJ         -0.566953       -0.693851        -6.21625
