108
#Comment!
LJ          -1.58243         2.29664         3.28064
LJ           -1.9148         5.96771        -5.62327
LJ          0.733878        -3.41214         4.98331
LJ           6.04055         4.62501        0.318911
LJ           0.67669        -6.43538          1.7436
LJ          0.417848        -3.99896          2.8835
LJ           2.94534         5.73277        -3.92153
LJ           4.78115         6.42719        -4.01956
LJ           -3.7673         2.47999         4.19648
LJ          -5.30005         2.05852        -3.84063
LJ          0.495018        -2.36888        -4.13561
LJ           1.66902        -2.91804        -2.62369
LJ          -2.99668        -4.41259       -0.956385
LJ           5.12758        -4.20877         6.31501
LJ          -2.14547        -2.44219        -4.93226
LJ          -4.74591         3.37213        -2.92282
LJ         -0.485272        -4.47196        -3.17588
LJ           3.56561         6.31989        0.499389
LJ          -4.97248        -0.24827        -2.50633
LJ          0.254264        -2.16823         5.93629
LJ          -0.88454         4.24308        0.701731
LJ           1.26881         1.66683         2.19012
LJ          -3.95989       -0.199919         -4.5377
LJ          -1.96274       -0.919865        -5.97156
LJ          -2.92046         5.71447         -2.1291
LJ           5.05951         -5.6962         1.50125
LJ          -3.51549         3.31775         3.47942
LJ          -6.29524        -5.18666         6.40704
LJ           1.67647       -0.709842         2.37051
LJ            4.0699         4.24991         6.40864
LJ           6.04626         1.32495        -4.33017
LJ          -5.87854        0.924119        -3.91794
LJ           5.04259        -4.78919       -0.475685
LJ          -3.34462        -3.65415        -3.11334
LJ          -3.02604        -1.51837         3.51466
LJ           2.41769        -6.04566        -4.10102
LJ          -5.47021        -5.21904         5.08914
LJ           3.19288        0.985883         -4.4794
LJ         -0.032532        -2.53058        -3.29722
LJ          -2.47154        -3.26661        -2.31451
LJ           3.54819         5.00957        0.720495
LJ          -2.21916        -1.10777        -3.79436
LJ          -2.02691      0.00180907        0.585883
LJ          -3.75761         3.60139        -3.44291
LJ           3.94252        -4.35611         5.85881
LJ         -0.939245         2.31818        -2.29801
LJ           6.18097         5.56403        -4.23312
LJ          -2.50791         6.24688        -3.27201
LJ          -1.68523         2.91902        -5.58431
LJ          -2.97639        -1.59712        0.600122
LJ           2.69961         6.02413         2.54466
LJ          -2.32064         1.72166         4.74866
LJ          -2.90977         -1.4969        -5.63184
LJ          -6.10487        -1.73019         -5.7098
LJ           3.88141         -5.5425         4.66646
LJ         -0.226865        -5.46375         5.66415
LJ          -3.42274         3.88732         4.89622
LJ           6.01017         4.11948         5.45223
LJ          -3.73878        -3.86069         5.84629
LJ           3.62473        -4.12673        -4.97057
LJ           1.80623         5.54448         6.29645
LJ          -3.03489         5.00396         1.10437
LJ          -4.03768         5.42541         3.80396
LJ           2.28337         3.32055        0.310109
LJ           4.45436       0.0532993       -0.531155
LJ           2.05741        -6.23063        -2.02226
LJ           3.43797         3.47859        0.843001
LJ          -4.18611       -0.548074         1.91575
LJ          -4.35947        -1.74421        -5.64507
LJ          0.740143        0.189274         1.64457
LJ           0.96282         1.54656         1.07747
LJ          -1.51984          5.7381         3.37307
LJ           1.07641         1.59605        -2.99158
LJ          -1.61209         4.89471        -5.67402
LJ         -0.942252         5.53785        0.705835
LJ           2.39671        0.626547         3.07708
LJ          -2.41344        -3.97868        -3.63849
LJ          -4.87488         -3.5103         3.58408
LJ           1.20881          2.5897         -2.3797
LJ         -0.127607         2.20646          5.0122
LJ          -3.29825          5.8818        -4.19256
LJ          -3.89144         1.09675       -0.533884
LJ          -1.91625         2.72405        0.534767
LJ           4.72657        -5.71532          5.4139
LJ           -3.4562         2.56547         5.11893
LJ           4.73627        -6.10963         4.08566
LJ           3.43506        -5.22934        -3.77217
LJ          -3.16936         1.92864         2.46648
LJ           1.72374        -5.79031        -5.75771
LJ           3.38943         2.80709        -4.31006
LJ           1.57625         -1.5891        -2.64434
LJ          -3.04354        -2.86866        -1.19982
LJ          -6.36414        -2.90745         2.52399
LJ           2.59797        -4.31341        -4.89598
LJ           3.75223        -1.03553         3.21657
LJ            4.0109        -6.22981         -2.8174
LJ           4.06702         2.13192        -1.29473
LJ          -4.28725         5.06577        -3.90183
LJ           4.05108        -4.97892         1.02697
LJ           -3.1775          -5.381        -4.96427
LJ          -1.47865        -5.95763         6.27084
LJ           3.17816       -0.244381         2.62491
LJ          -4.36429        -1.96275         4.90712
LJ            2.5098       -0.214094         5.50197
LJ          -2.60007         3.98655          5.7791
LJ            3.5644       -0.176492         3.74659
LJ           4.15098          3.9774         3.64259
LJ          -5.98914         6.24496         5.80753
