108
#Comment!
LJ           3.23327         3.58558        0.515816
LJ           4.48089        0.715426        -3.20828
LJ           -4.7717         5.51641       -0.922879
LJ           4.60323          1.5844        -6.36226
LJ          -4.12469         2.44932         4.20887
LJ          -5.68842        -1.59856         5.85437
LJ           -2.1063        -4.78376        -5.96219
LJ          0.310378         2.94297         6.35343
LJ          -0.11353         3.93329        -5.50191
LJ           5.26989        -1.81263        -6.28478
LJ         -0.269567        0.858552         1.12689
LJ          -1.49778         3.46364        -3.72051
LJ           5.45143         2.60453         1.40326
LJ          -5.66831         4.53949        -3.52009
LJ            0.9766        -1.48943         6.06119
LJ          -4.35502         3.17378        -5.75902
LJ          -5.90608        -3.64853        -5.37041
LJ          -2.87663         2.78159        0.969515
LJ         -0.779667         2.00796         2.95798
LJ          -2.60904        -2.45419        -1.61648
LJ          -1.55638        -5.78327         3.22271
LJ          -5.76647         3.92101        0.492411
LJ        -0.0784082        -0.31882        -3.51009
LJ            6.3973        -6.06228        -3.95369
LJ          -2.80825        -6.42603         4.78482
LJ            2.9128        -1.71003        -3.37626
LJ           5.91693       -0.262926        0.281113
LJ          -1.07076          2.7437         1.64225
LJ           2.98288        -4.01318        -6.44137
LJ          -6.36314         1.40307        -4.20529
LJ          -2.37108         5.71157         5.78585
LJ           4.72737        -2.64418        -3.66277
LJ           1.04566         2.58147        0.227588
LJ          -1.27007         3.03805        -5.99921
LJ           1.56812         4.14666         6.07096
LJ          -5.04881        -1.82631         3.56128
LJ           4.43139         3.17385         1.03795
LJ          -2.98557         2.15693         2.93305
LJ          -4.91326        -4.44239         4.80602
LJ          -2.36058         3.47522        -5.30709
LJ           3.68409         -1.4772        0.792576
LJ          -4.18851         2.37137         2.43073
LJ          -3.96726         -4.4434        -4.61168
LJ           3.39046       0.0279536         4.47538
LJ         -0.162423         2.85281         4.98599
LJ         -0.428898         3.77571        -1.25057
LJ          -2.51783          -3.386         1.47468
LJ          -6.39586        -0.88314         2.22366
LJ           1.06959         5.34763         3.64401
LJ          -5.28677        -3.66512         5.45476
LJ         -0.610142         -3.3991        -4.06054
LJ          -2.88126         4.22933         3.05335
LJ         -0.508974        -1.98537        -3.99889
LJ          -4.20089         1.25022         4.02597
LJ           4.79523         2.85531          2.3998
LJ             5.395         4.92002         1.75878
LJ           6.45775         -5.4012        -3.19065
LJ          -1.51111        -2.45089        -5.18354
LJ           1.61315        0.559675         1.14543
LJ           0.13887        -6.28553        -5.03316
LJ          -4.80097         3.79099         -1.4103
LJ           -1.2576        -4.60893         -3.2519
LJ           6.29377         6.27733        -3.09568
LJ           2.09144         4.52509        -1.13515
LJ           3.34706         4.39997           -2.68
LJ          -3.39391        -1.72179         6.36973
LJ          -3.95261         3.91991        -3.18441
LJ           0.36868         -1.9906         1.36203
LJ           2.92358         3.31199         5.96474
LJ        -0.0204531       -0.122723         4.76439
LJ          -5.45033        -1.99851        -5.18829
LJ          -6.31458         3.55627        -3.86051
LJ          -5.40445        -4.13803        -4.62979
LJ          -1.01127        -5.90611        -1.41909
LJ          -4.55379        -5.44402         2.02422
LJ           -2.2797        -0.97929         1.68677
LJ           6.40088        -4.34989        -2.87134
LJ           4.39444         5.22631         1.30589
LJ           3.73153         5.38108        -2.99404
LJ           6.32543        0.259614         3.52942
LJ          -4.56601        -4.87203        -5.73346
LJ           3.77706         0.16514        0.960345
LJ         -0.183301        -4.27648         1.55031
LJ           5.49628        0.754259         1.72152
LJ          -4.22428         4.98898         -5.4482
LJ           4.37877         4.93952        0.318807
LJ           5.24573         1.81942        0.331989
LJ          -4.37118        0.509794          3.5036
LJ         -0.773833        -1.50308        -2.99352
LJ         -0.833686        -5.83146         6.24246
LJ           5.95377        0.987688        -1.06146
LJ         -0.134065         4.24267         4.85871
LJ          -3.33382        -2.35254        -2.89636
LJ           4.83564         5.41555        -5.52728
LJ          -5.52783        -2.35912        -6.24009
LJ          -3.21331         5.65394         2.72678
LJ           1.78489         2.03624        0.739391
LJ          -5.35419          5.3214        -2.81564
LJ           1.99594         2.37712         1.84079
LJ          -4.56203         4.01736         1.30741
LJ          -6.00004         3.38168       -0.760579
LJ          -2.04163         4.12554         4.31727
LJ          -5.52253         2.95649        -2.59772
LJ           6.06804       -0.973637        -2.85279
LJ           2.65445         2.01272        -1.52555
LJ          -3.52248         1.16773         -2.2412
LJ          -1.19506        -4.05158         0.71684
LJ         -0.344427       0.0827422        -2.19442
