108
#Comment!
LJ           3.39993         4.18031         -4.5208
LJ           1.11178        -2.94957        -3.72365
LJ          -5.88325         2.57087       -0.780078
LJ          -4.44409         5.66251        -3.42948
LJ           2.61975        -4.89522         4.06173
LJ           4.56778         -1.5696        -4.55209
LJ          -3.70224        -3.07766         5.61424
LJ           3.24914         1.13431        -4.99169
LJ          -5.07611         2.07921        -3.83569
LJ          -3.58855        -2.36734         -5.9108
LJ            3.9766        -4.36187         4.97699
LJ          -3.52962         3.96233         5.15846
LJ          0.458419        -5.63237         2.43317
LJ           4.28216        -6.24046        -3.76095
LJ           2.08663         4.89259        -2.59841
LJ          -5.71224         3.58796         -3.0161
LJ           3.72554        -2.38818         1.53031
LJ         -0.596177         2.94805        -5.55368
LJ            -1.695        -3.03184         4.27623
LJ           4.50115         3.17416          6.0651
LJ          -4.01266        -1.87092         5.52804
LJ          -6.08227         3.14376         1.86892
LJ          -4.73653         2.53739       -0.664009
LJ          -5.25055         1.50157        0.441656
LJ         -0.373137         2.26049         1.67723
LJ         -0.633136         2.87867         5.76394
LJ           2.74572        -5.83524         3.51121
LJ           2.26148           1.704        -4.68426
LJ          -2.39162       -0.789924         5.40536
LJ          0.525979         2.32763         2.46106
LJ          -1.88674         5.60334        -5.53757
LJ          0.689496         4.67547           3.504
LJ           4.22191        -6.38342        -2.42374
LJ         -0.474635         2.22394       -0.757954
LJ           2.03949        -3.02635        -4.53109
LJ          -4.79957         3.71523        -1.41843
LJ          -1.20803        -0.57147        -3.45808
LJ           4.32577          4.7206        0.810194
LJ           2.67403       -0.601037        -5.58284
LJ          -5.78537        -6.19733         6.01196
LJ           1.55169        -3.91716         6.32498
LJ          -4.22933        -3.44842         3.32804
LJ           -5.6091        -5.51197        -1.72031
LJ           5.25637         1.56855         3.08092
LJ           3.25912        -2.28314        -3.94621
LJ           3.17829         2.55541         1.80676
LJ          -6.16996         5.41241         4.56305
LJ          -2.53394        -4.83557          5.6044
LJ           4.57705        -6.03018         4.94684
LJ           1.40839        -6.43433        -1.43513
LJ          -1.42404        -3.83611        -5.95132
LJ           -5.8621         -4.5593         4.75615
LJ           1.27557         0.41488        -5.14225
LJ         -0.498078         -4.5784        -4.98029
LJ           6.37222         4.59191        -1.23027
LJ          -3.51864        -6.11822         1.95355
LJ         0.0508287        -5.86395         3.46308
LJ           1.89206         1.11826         4.25454
LJ          -1.58696         5.95279         1.55831
LJ          -5.95734         2.66571         5.74159
LJ          0.397939         4.59151        -5.21206
LJ          -5.27239         2.66058        -4.91897
LJ           5.84289        -4.22828      0.00113181
LJ           1.55678         6.37531        0.204096
LJ          -4.21665        -5.17265         5.79669
LJ           3.12123        -3.15275         5.03696
LJ           6.18134        -1.06604          4.4564
LJ           4.84935          2.1949        -6.24165
LJ            1.5489         2.34028        -6.23522
LJ          -3.18304        -3.52198         6.36625
LJ          -3.46856        -2.11263         4.18655
LJ           1.90907        -1.91134        0.335937
LJ          -1.58837        -5.94591         3.20574
LJ          -2.97203         4.88206         2.19602
LJ           -2.9632        -6.06224         2.85899
LJ         -0.988227         5.72353        -6.46228
LJ           -4.0809       -0.674785        0.561679
LJ           3.20601        -2.58651          2.8892
LJ          -4.08628         2.72776        -4.33397
LJ          -5.26281        -2.28335         1.76944
LJ          -2.66087        -5.37331         4.59173
LJ           6.11006         4.88192         6.31268
LJ          -3.39678         4.52124        -4.90061
LJ          -1.54358        0.773368         4.81008
LJ           3.15278        -3.81308         3.74971
LJ           -4.8812        -2.13447       -0.061314
LJ           5.36185        -4.84499        -4.25361
LJ          -1.49884        0.540145        -2.48307
LJ          -4.19537        -3.68191        -3.39756
LJ         -0.787119         5.74406         2.56937
LJ           6.40112         5.96401         1.61307
LJ           2.42365        -3.06089       -0.138391
LJ          -1.49609        -2.17027        -5.32847
LJ          -4.86536        -4.33439       0.0177277
LJ          -3.62148         2.39182         5.89934
LJ           1.07178         1.92246        -2.64605
LJ            1.0836         3.80926        -5.06386
LJ         -0.100249        -1.24647        -3.62141
LJ           5.37369         1.47902         4.25792
LJ           -2.8847         -1.2688         6.29889
LJ           1.19553         2.12459        0.679554
LJ           3.96713          3.7112         1.14654
LJ          -5.24627        -4.46988         3.92434
LJ          0.699341         -5.2121        -5.20135
LJ           1.41624        -3.40952       -0.530475
LJ          -3.37172       -0.344403         5.59955
LJ            2.0721         4.40705        -1.36726
LJ           4.33986         1.44262          3.9603
