108
#Comment!
LJ         -0.303112         5.99858         6.26715
LJ          -3.91626        -5.64479        -2.82538
LJ          -3.53216       -0.551257        -1.56424
LJ           4.58829        -3.10016        -4.85729
LJ        -0.0302276         4.35141          5.0431
LJ          -4.02338        -1.20498         -6.3649
LJ        -0.0432209        -2.74472         4.96999
LJ          -4.12295         1.08141         2.91127
LJ         -0.183216        -5.35212         6.19545
LJ           1.95885        -2.60904         3.02012
LJ          -1.02651        -5.64231        -3.00484
LJ        -0.0202629        -2.04616         2.61308
LJ          -4.40359        -1.62871         4.21901
LJ         -0.394818         3.64007         -5.7767
LJ          -6.31253        -2.06501        0.862458
LJ          -1.92131         5.66426         3.23191
LJ           2.08187         -1.2129        0.409592
LJ          -4.20122       -0.829354        -4.00431
LJ           5.81076         0.22186         1.49531
LJ          -3.01794        -3.86561         2.02322
LJ          -3.04852         5.01151         6.10721
LJ          -5.23672         5.69942        -2.07741
LJ            1.5272         3.73012         4.47933
LJ          -4.64927        -5.47763       -0.759319
LJ         -0.432959         1.14458        -1.80892
LJ          -3.02053        -5.10817        -0.31907
LJ           2.31276        -5.70603         3.78563
LJ            6.3907         1.39931         3.24193
LJ          0.714287        -3.06082         4.10777
LJ           1.44408          3.1742        -0.43392
LJ            -2.079        0.414033        -5.41284
LJ           1.10276         4.90501        -5.32017
LJ          0.251638         4.20479         6.04887
LJ           1.85828        -3.48322         5.90467
LJ          -2.41835         5.24612        -5.41342
LJ           5.20648          5.2214         4.31361
LJ           3.68865        -3.94583        -2.39585
LJ          -0.28017       -0.201765         1.63238
LJ          -3.54743        -6.45884         -1.3179
LJ          -1.05153        -4.34772        -5.04214
LJ           4.90041         3.77213         4.13422
LJ         -0.371335          4.5606         2.93356
LJ           6.44932          5.9094        -3.29955
LJ           1.50414        -1.55959         2.61871
LJ          -3.09997         5.92376        -4.14894
LJ          -2.56637         4.07838         -5.0736
LJ           5.16836       0.0147945         3.92737
LJ           5.97648       -0.733788         5.51224
LJ           1.83888         -1.6356        -2.95027
LJ          -3.93195       0.0259891         2.30794
LJ           6.14952        -6.14485        -4.51644
LJ          0.671639         2.34575          4.1135
LJ          -2.84769         1.85608        -4.34427
LJ        -0.0677451        -5.14439        -3.48476
LJ          0.753737        -3.44721         6.23094
LJ           -3.9526         -4.1912        0.162925
LJ           6.42744         4.39178        -3.04191
LJ          -3.61296         -2.3059        -5.24162
LJ           2.41948       -0.185781         1.36357
LJ          -5.46878        -4.80198         3.00079
LJ            5.7655        -6.39975         2.86502
LJ           2.25584         5.97439         3.02806
LJ           5.50677       -0.190558         -3.6687
LJ          -1.35669         2.21741        -1.12884
LJ           1.01265         1.69441       -0.884637
LJ           3.82283        -6.32497         6.43639
LJ          -5.48562         4.15371         6.05029
LJ            2.4858        -4.18798         -3.6468
LJ           1.32547        -3.86761         3.64571
LJ            3.8247        -6.02262         5.22893
LJ          0.861753       -0.205958         1.73216
LJ          -5.07061        -2.38691       -0.334647
LJ         -0.904561         5.07992       0.0328173
LJ           4.59265        -6.38183         -1.2153
LJ          -1.53869       -0.681604        -4.88177
LJ         -0.755604         5.91326        -4.24888
LJ          -2.87313        -6.27647       -0.236146
LJ          -6.13144       -0.357532        -4.35346
LJ          -4.96163         5.49354       -0.997315
LJ           4.90015         -3.4506        -5.88594
LJ          -4.48811         -3.5085        -2.18423
LJ           3.84872         2.93081         5.75451
LJ            5.0401         5.41293        -1.66181
LJ          -4.49717        -4.89816        -3.15487
LJ           5.51385         4.93583         5.57606
LJ            3.9015        -6.18023        -3.58329
LJ          -5.21199         2.93098         4.19675
LJ           2.80862       -0.108142        -1.74209
LJ           4.84905        -2.39165        0.243702
LJ           1.04789        -1.91249         4.66248
LJ          -3.05503         1.72901        0.134494
LJ          -1.34478        -6.22252         4.98811
LJ        -0.0550304        -3.00675         2.05527
LJ           1.15084        -5.34678         4.13929
LJ          -1.70639        0.715861         4.58634
LJ           1.56384       -0.895581        -3.85625
LJ            1.3667         5.65288         2.22517
LJ         -0.699041         3.11158        -3.66605
LJ           4.78235         2.22489         6.12154
LJ           -3.2834         3.11955          2.4335
LJ          -3.33742        -3.11336        -1.25091
LJ         -0.807401         1.53737        -6.31822
LJ           4.90408        -5.20012        -2.23071
LJ           5.07178        0.202327         0.55803
LJ           5.69462        -6.38081        -3.02137
LJ           2.82451         4.54288       -0.294681
LJ           -4.1553        -6.27846          1.9176
LJ          -1.67304       -0.188001        -6.23768
