108
#Comment!
LJ           2.49957         5.72191        -1.44438
LJ          -4.40729        -1.59539         -4.7968
LJ          -5.05241         4.64726         4.08285
LJ           2.30473         5.64191        -5.02205
LJ          -2.45993         3.79936         4.41989
LJ          -4.82559       -0.641416         6.11549
LJ           0.82789         -3.3877         4.12073
LJ           -1.4285          2.4668        -5.46119
LJ         -0.620785         4.48368          5.7741
LJ           5.89786        -2.55796        -4.88399
LJ          -1.28998         2.75168       -0.526286
LJ          -1.95523        -6.25323        -3.38039
LJ          -5.75421         5.35028       -0.971092
LJ           4.80418         4.58138        -3.69983
LJ          -1.84733        -3.30307         3.59784
LJ           3.02307         2.25369        -3.00628
LJ           -2.9677        -3.04405        -4.39415
LJ          -3.60961        -3.98187        0.852485
LJ          -1.91733         2.25728         2.96604
LJ          -4.94608        -3.03244        -3.87843
LJ         -0.170102         3.48211         3.44228
LJ           4.66592         3.57779     -0.00906314
LJ           1.20656         1.17351       -0.731696
LJ           2.96069        -4.75027         5.52406
LJ          -1.11845         4.89313         4.06997
LJ             1.836        -1.24079      -0.0513221
LJ           5.42191        -1.05053        -3.67494
LJ          -1.80361         2.54048         4.68047
LJ           1.53917        -5.23036         5.51575
LJ          -3.64402        0.494215         4.99028
LJ          -2.37395        -2.82909        -5.21842
LJ            3.3312        -4.26494        -2.74786
LJ          0.709973         4.78736        -3.08398
LJ         -0.819885         5.65143         5.70333
LJ           3.89966         6.18015          6.2169
LJ          -5.42009         1.02204         4.85351
LJ          -1.01073          3.9038         4.80069
LJ          -2.94634        0.713388         1.76045
LJ          -4.84953        -5.72777        -5.28323
LJ          -1.19353         5.96983        -5.93215
LJ           2.66114        -1.96816         2.24527
LJ           -1.8845        -0.49601         2.50389
LJ           -4.5313         5.77715        -4.15377
LJ           2.14431       -0.963364         3.98303
LJ          -1.43901         2.57872          5.8036
LJ          -3.16935         1.86078         4.00712
LJ          -0.72108        -5.75968        -2.89189
LJ           5.46618        -2.29802         4.27843
LJ           5.40218        -5.29219         2.48043
LJ          -5.01229        -3.25358         3.35585
LJ           3.47938        -4.52184        -5.38467
LJ          -3.37876         4.90635         4.41741
LJ          0.135796        0.907943        -2.87452
LJ         -0.705852         3.15482         1.13902
LJ           1.27791         2.48481          3.2465
LJ          -5.68899         2.76565       -0.282391
LJ          -5.42606        -6.32892         1.63012
LJ         -0.351154        -1.13517        -4.89695
LJ           1.24873         1.02961         1.26331
LJ         -0.555668        -4.63964         5.27471
LJ          -5.00549        0.386435        -0.82255
LJ           1.00523        -4.06062        -3.20989
LJ          -5.56517         5.50493        -2.12937
LJ         -0.133468         2.93826         -1.9029
LJ           1.49216         6.37427        -1.77565
LJ           6.27731        0.898377         -6.4577
LJ          -5.48835        -5.67671           6.303
LJ            4.2688        -3.65079        -2.51833
LJ          0.814405        -6.38921         5.65649
LJ           2.70406        -0.44714         5.73425
LJ          -1.95661        -2.37948        -4.38753
LJ          -5.49035        0.371832        -3.06475
LJ          -5.06532         -6.2257         -2.1496
LJ           2.36197        -5.61943        -1.90303
LJ          -4.52877        -5.22736         4.28929
LJ          -5.32371         -3.1239       -0.546495
LJ          -5.28994        -4.25933        -3.24946
LJ           4.11524        -5.66859       -0.940207
LJ           3.15715         6.21699        -2.15208
LJ           3.94245       -0.337101         4.86348
LJ          -3.71394         6.08426        -5.61485
LJ           4.64064       -0.126866         3.77985
LJ           -2.3064        -3.47564         1.08192
LJ           2.04524        -2.39775       -0.367908
LJ          -5.37406         4.79764        -4.71479
LJ           6.08245        -5.91937         -1.5221
LJ          -5.10197       0.0164246         0.71655
LJ             6.171        -3.88003         1.29724
LJ         -0.236696        -2.45697        -2.85811
LJ          -1.23085        -3.73943         6.45685
LJ          -5.76807         1.52376        -2.26188
LJ          -1.31399          5.0124        -5.31005
LJ          -2.88581      -0.0613789      -0.0896571
LJ           5.19363         1.00695         6.31778
LJ           4.28109       -0.393824        -6.17829
LJ          -1.22194         6.01153         1.53666
LJ            1.6962         0.77354        0.189875
LJ           5.64084         3.79684        -1.57827
LJ           3.40441         1.17141        -1.37535
LJ          -3.23092           1.656         1.24302
LJ          -5.80521         2.49957        -1.49056
LJ         -0.627419        -5.75758         6.21887
LJ            5.8658         1.31426       -0.792261
LJ           6.30855        -4.80548        -1.39549
LJ           5.20737         2.57814       -0.698054
LJ          -1.14231        -1.44625       -0.489428
LJ          -1.92163        -4.45973          1.5749
LJ            1.2881        0.325662        -4.35761
