108
#Comment!
LJ         -0.961842       -0.246632         2.01612
LJ          -1.13964         5.18959        -1.08791
LJ          -5.30016         5.64957         5.54755
LJ          0.523738         2.57078        -5.30608
LJ          -4.90275         4.88456        -5.61612
LJ          -1.84701        -2.54724          5.3639
LJ             5.896         5.64708        -5.13022
LJ           2.66007        -1.55878        -5.07543
LJ          -3.30515         3.49915         -6.3176
LJ            6.2824        0.290659         6.27745
LJ           2.78804        -1.75562         4.54431
LJ          0.233717       -0.874886        -1.91115
LJ          -4.78519         -0.5185        -2.62917
LJ          -1.69808         5.74023        -5.88693
LJ           6.27923        0.492205        -2.70176
LJ          -6.46207         4.54399        -3.62923
LJ           2.53979        -3.43412         2.65562
LJ          -5.19149          -4.705        0.857481
LJ          -4.10657        -4.41134        0.350915
LJ           1.47976         -3.7945         -1.3974
LJ          -3.29759        -1.03679         3.70381
LJ          -3.15211         2.71898      -0.0517555
LJ          -2.20856         2.21903        -5.28286
LJ          -2.74684         2.89314          5.0637
LJ          -1.37556        -1.52999         2.16053
LJ           4.78638        -2.41059         3.85711
LJ          -1.92258         1.41826        -4.11147
LJ           3.22193        -2.08806         5.74262
LJ            4.8673        -2.25457        -2.44536
LJ           3.38676         4.13106         2.58671
LJ          -5.10158         4.19567         6.37158
LJ          -6.38959        0.643898        -5.02868
LJ            2.1056        0.304431         2.18083
LJ          -1.23893      -0.0513073        -3.27568
LJ          0.339374        0.723442         1.79375
LJ           6.46322        -5.48112       -0.107909
LJ          -2.38869         3.59753        -3.10067
LJ           5.47916        -4.66517         4.86209
LJ          -6.41652        -2.16572         2.46753
LJ          -3.50441       -0.622474        -4.27735
LJ           4.96592       -0.413363       0.0648542
LJ           -3.0425        0.958745       -0.029013
LJ          -2.44718        -1.91779         4.30348
LJ           5.75885          1.7844          5.7894
LJ           2.42879       -0.408445         -5.4984
LJ           3.95513        -5.86309         2.43458
LJ           5.94811        -1.96382        -3.97224
LJ           5.93134        -2.25224        -2.53186
LJ          -1.63769        -3.99114        -1.41544
LJ          -5.20982        -4.29211        -5.38247
LJ           6.08109        -1.46265          -1.748
LJ         -0.645036         3.01649         2.33223
LJ          -2.52012       -0.906976        -4.81026
LJ           5.82973          2.8558        -4.21383
LJ           5.87769         3.85704          3.4503
LJ          -5.95875         6.20326         4.82738
LJ          -6.15455        -3.46933         5.45082
LJ          -1.84905        -5.41845        -2.96773
LJ          -2.22538        -1.39059        -1.29004
LJ          -0.42486          1.8265        -3.58298
LJ          -1.54343           3.919        -5.17919
LJ          -2.20154          5.6996         1.92022
LJ           2.38454        -2.99918        -5.90589
LJ           -4.1018         4.82146         1.52781
LJ           1.25117         2.82429        -1.28406
LJ          0.634317         6.13457        -5.71483
LJ          -3.14579         4.36541       -0.414137
LJ          -1.35404        -1.68654        -2.75025
LJ           5.93329       -0.283667        -4.68846
LJ            6.1465         3.89818         5.31403
LJ          0.625182       -0.428104         4.32036
LJ          -6.01634          5.0786         4.63854
LJ           4.44318         5.73493        -5.74814
LJ          -6.00307         5.96105          -1.049
LJ           -4.5627        -6.09627        -2.06282
LJ           5.96739         5.51492         4.02312
LJ           6.11352        -3.17494        -2.08953
LJ          -1.00647         4.43653         3.42835
LJ          -6.02336         2.23348        -3.73857
LJ          -2.98663         0.78739         2.23974
LJ          -2.84997        -4.39317        -2.28264
LJ           5.35896         0.97053       -0.498163
LJ         -0.354598        -6.04511          1.7144
LJ          -3.87851          4.4213          6.1592
LJ          -2.48841         5.49237          5.8808
LJ           2.46931         4.94035         4.01774
LJ           4.57604         4.29752        -0.76604
LJ          -6.01283        -4.35582        0.205859
LJ          -1.26678       -0.982456        -4.92074
LJ          -1.59305         5.82341         3.98964
LJ           2.72692       -0.158048       -0.974913
LJ          -3.28404        0.999727        -3.88754
LJ          -5.73905        -3.55631        -6.45125
LJ           3.30398        0.263736        -3.84163
LJ          -5.40043         -4.3199         5.22489
LJ           4.74785        -5.02087          1.1829
LJ           2.64445         4.86539         6.11147
LJ           -3.9524        -5.39507         1.28862
LJ          -2.50041         5.13574       -0.818061
LJ           4.84985        -4.44175          3.8829
LJ          -3.53465         4.91453         0.60091
LJ           6.07233         -5.1757         3.59823
LJ         -0.459835        0.442378         1.37639
LJ          -5.15663          3.0887         -5.0802
LJ           -2.0843          3.2547       -0.213953
LJ           5.97989        -4.15205        -4.49429
LJ            3.1825        0.426615         1.34498
LJ           -3.8513        -4.79139        -3.77032
