108
#Comment!
LJ           6.13012         3.73915        -3.29994
LJ           1.48119         2.06918       -0.736283
LJ          -3.40842         1.65625         2.30476
LJ           1.53892         3.18434        -1.99136
LJ          -3.13234         2.54146        -4.21923
LJ           2.85871         2.38369         5.60299
LJ           6.21232        -3.43405        -4.80811
LJ         -0.840537       -0.724761        -2.62883
LJ           -3.8825           -4.56        -6.26611
LJ         -0.528431       -0.959827         3.67845
LJ           1.17473         1.36412         2.74779
LJ           5.34855        -2.40031        0.981364
LJ          -5.84747         4.63026         1.05596
LJ           1.78905         2.23164        -2.49407
LJ           2.03509         3.38539         1.19457
LJ          -6.20761        -1.95047        -2.57606
LJ           3.15432      -0.0456965         3.47438
LJ           3.90108         1.15566        -2.64455
LJ           6.35901         3.24848         4.72653
LJ          -5.08363         3.65643         2.79287
LJ          -3.71002        -2.91566        0.344267
LJ          -2.49084         4.51652           -1.64
LJ          -1.63294        -3.55989         4.36967
LJ          0.531241         1.85982        -5.71275
LJ          0.496572          2.4897         2.56253
LJ          -3.45222        0.235279        -1.81413
LJ           1.31087        -3.21899         2.43087
LJ         -0.203013         5.75134         3.04801
LJ           2.41849        -1.93645      -0.0346153
LJ           2.22127        -1.30528         1.04218
LJ           -1.7285         3.56583         -4.6195
LJ          -3.30603        -1.76194         1.27254
LJ           5.94939        0.607888         4.15857
LJ          -1.59046         -5.6207          3.2163
LJ          -4.78598        -5.51583        -5.60769
LJ          -0.11702         3.58307         4.52589
LJ           1.16142         4.60546        0.176604
LJ           1.71915        -2.36347         1.53459
LJ         -0.367043          1.5214        -1.83115
LJ            1.1382        -4.08103         1.77917
LJ           1.81666       -0.189643        -1.76394
LJ           3.72041        -6.45733        -1.96554
LJ           4.52314         6.05936       -0.787942
LJ           1.85633         -2.1185         5.49758
LJ           3.52293        -4.81683        -2.50528
LJ           2.62662        -5.79288        -1.88291
LJ         -0.682461         3.56973        -3.80444
LJ           2.40291       -0.459674         6.16583
LJ          -1.86537         3.73185         2.04393
LJ           1.83237        -1.54205         2.39032
LJ          -5.95112         3.04726         1.92107
LJ          -4.61934        -2.41335        -1.75614
LJ           6.16823         2.90897         2.77024
LJ          -1.41085         3.64174       -0.228751
LJ          -5.87653         6.25731        -2.30113
LJ           2.26805       -0.150432         1.00386
LJ            1.1331       -0.729002        0.900176
LJ          0.793426        -5.70923         6.42461
LJ           6.45982         4.88494         4.85921
LJ           4.49955         1.67691        -3.59769
LJ           4.60405        0.538926       0.0970377
LJ          -1.61586        -5.13283        -3.83256
LJ           1.56211        -3.18592        -5.29581
LJ           -2.7541        -4.43546          4.3172
LJ          -4.54896         4.74871         1.53547
LJ           1.50175       -0.684364      -0.0400077
LJ          -2.88894         1.18122        -4.09532
LJ           1.01717        -2.29682      0.00362759
LJ           -5.8953         2.78054        -5.79297
LJ          -5.24599         1.74453       -0.978845
LJ           3.47866        -5.80395        -4.58612
LJ          0.136931         2.30839        -1.16377
LJ           2.86337        -2.13514         1.97753
LJ           3.64927          2.0146         4.97998
LJ          -1.90227        -6.14716         1.49651
LJ          -6.05296        -3.00615        -5.54323
LJ          -3.56635         1.84421        -5.37492
LJ          -2.06596        -2.93555         5.82087
LJ           5.35476        -2.07336        -5.17213
LJ           4.94292        -1.21444        -3.38565
LJ           3.04779         4.07073        0.681024
LJ          -5.82717         3.51132         3.50573
LJ           2.54787         6.19743        -3.13483
LJ          -2.41885         5.97411         3.52741
LJ          -2.70545        -6.03935         3.30179
LJ            4.8412        -5.36467       -0.306429
LJ           2.46839         2.20015        -4.11801
LJ          -5.06177         5.46029         5.18528
LJ           2.26826        -6.27148       -0.764614
LJ          -3.74999          4.6869         4.10107
LJ           2.77343         -5.4888        0.237911
LJ          -2.59576         6.39557        0.570743
LJ          -3.75534        -3.04151        -1.84875
LJ          -4.63575        -1.26792         2.57502
LJ           6.22495        -3.57934        -2.89537
LJ          -5.11242        -0.38176         1.33476
LJ           1.04471        -6.26413       -0.870282
LJ           -6.1552         4.53904         -3.5047
LJ         0.0717133        -3.90739       -0.436638
LJ           5.30204         3.09495         1.69513
LJ          -3.32225        -1.58892       -0.546479
LJ            5.5993        -1.35538        -6.19464
LJ           1.83536          5.9134        -5.92825
LJ          -6.43457        -4.36216        -6.02127
LJ          -2.61287         5.92593         1.59238
LJ          -1.70216         1.39656        -3.59721
LJ          -3.51405         5.44346        -2.57223
LJ           5.63502         2.35574        0.595096
