108
#Comment!
LJ          -3.15659         3.38587        -4.84612
LJ           6.39893        -3.69335        -2.89687
LJ           4.61019       -0.365802        -2.47598
LJ          0.578934       -0.401758        0.928306
LJ           1.98223         5.15068         2.69866
LJ            2.4133        -4.94911          -2.477
LJ           3.30783         1.74038        0.977348
LJ           3.24879         2.97427          6.0623
LJ           5.54262         5.69065         -3.2267
LJ         -0.326233        -4.82553        -3.99425
LJ          -2.22254         1.26751         4.06657
LJ          -1.55245         5.77078        -0.26376
LJ           1.66156         5.41349       -0.522727
LJ           4.27183         -4.6901         3.64436
LJ         -0.803285         3.83966        -5.70365
LJ           1.57094        -2.04322        -1.13501
LJ           -5.7069         3.24627         1.95351
LJ           2.55878        -2.06905        -1.73118
LJ          -3.62788       0.0245918         2.59097
LJ          -2.56277        -5.28136         6.12879
LJ         -0.817843        0.354759         2.19557
LJ          -3.27664         -4.4002        -5.22752
LJ           2.77536         2.80457        -4.93528
LJ          -3.46613         3.59851        -1.90433
LJ           0.65416        -2.78641         3.38293
LJ           1.80563         3.75516         -4.0592
LJ          -5.40756           4.427        -3.31519
LJ           2.98457        0.807261        -0.41954
LJ          -3.04512        0.523592        -3.45109
LJ           -4.3263        -3.04855         5.06199
LJ          -3.45117         3.94915         1.00773
LJ          -4.29652       -0.274489       -0.628601
LJ           -2.2956        -0.66016       -0.776092
LJ          0.687069          2.9847        -3.95281
LJ          -4.49135        -2.59366       -0.425202
LJ           0.83045         4.89567        -3.87511
LJ            3.4964         1.50034        -6.08867
LJ           -2.4411         2.58745        -3.37721
LJ          0.526546         4.19706          3.2011
LJ          -3.16184         -6.2378        -1.50057
LJ           4.39589         2.53324          3.9596
LJ           -1.0474        -2.68771        -6.25531
LJ           -2.5387         -2.2245        -2.66956
LJ          -5.58431         2.43218       0.0431608
LJ           3.61801          2.5348        -5.86162
LJ          -4.77928         1.78853        -0.56282
LJ           4.13463         3.89386         5.72489
LJ            2.6499         2.16195         1.95112
LJ           3.52451        -2.83657        0.138586
LJ          -6.07287       -0.984539         1.77659
LJ          0.541616        0.373507          5.0186
LJ           3.69013         5.74287        -2.71128
LJ            3.1813        -3.90588        -3.59339
LJ             2.608        -2.08969       -0.215498
LJ           5.26737       -0.290556        -3.46307
LJ          0.611222         5.92109        -3.06104
LJ          -2.44396        0.905524         2.03876
LJ           -1.5086        -1.29011        -5.52716
LJ          -0.99892         5.01982         1.60907
LJ          -1.30205         2.32886        -2.37724
LJ           2.50696        -2.36253        0.748346
LJ           -1.2782        -3.83499        -1.77025
LJ          -5.81236        -4.87977        -5.22028
LJ           4.58754         4.71273       -0.420136
LJ           3.82896        -3.73624         3.78659
LJ           -5.0152        -5.27053         0.21495
LJ         -0.257245         -4.5911         3.88271
LJ           1.74753         1.07524         5.01824
LJ           3.70647      -0.0213769         2.34339
LJ         -0.563488        0.145603        -2.28753
LJ           4.18782        0.211004        0.260174
LJ           0.50067         5.83787       -0.146256
LJ          -2.54621         4.01576         3.38121
LJ           3.98999        -0.94533         0.34168
LJ          -4.72058        -2.92696         3.94026
LJ          -3.87156        -5.12758         5.95259
LJ          -4.06883         3.30369        -5.38194
LJ        -0.0234767        -3.01343         4.52525
LJ           5.92132        -5.17386       -0.665655
LJ            4.8129        -2.48417         5.44926
LJ           4.97757        -1.97747        -6.29123
LJ          -4.64924         2.03608        -3.34552
LJ          -4.04225         2.39439        -4.39928
LJ          -5.54645       -0.891752       -0.472401
LJ        -0.0649756         -5.8322        -1.13696
LJ          -4.40349        -2.09534         5.77684
LJ           2.73471        -5.44078        -3.78465
LJ         -0.152249        -5.83233        -2.58561
LJ           3.59223        -4.79278         4.76415
LJ          -1.48713       -0.517896      -0.0130583
LJ           -1.1332          3.6483        -2.66705
LJ           1.09769         4.48526       -0.225821
LJ           1.20628         1.39147        -3.81222
LJ          -2.76462        -1.99402         3.25722
LJ          -2.93418        -4.81651        -2.13967
LJ          -4.24706       -0.914394         -3.2956
LJ           6.06446         -0.1668         2.77769
LJ         -0.815394        -3.89932        0.322457
LJ          -1.36988       0.0838697        -3.52068
LJ          -2.35664        -1.71439         6.01039
LJ           1.41019         5.81882        -4.00417
LJ         -0.749543        0.690312         -1.0837
LJ          -2.66279         3.87536         5.86025
LJ          -4.63649         1.64568          0.7463
LJ         -0.305798         5.15798        -2.17666
LJ           5.94032         1.61566         5.17943
LJ          -3.64769        0.973269        0.907153
LJ          -5.49411         5.62987        -3.56954
