108
#Comment!
LJ             -2.75          3.3975        -4.21789
LJ        -0.0284131        -1.50217         1.63675
LJ          -2.41333         2.59077         1.20453
LJ           2.42461         5.33802        -3.55793
LJ          -2.38654         -1.5034        -4.49866
LJ          -6.10567         1.85007        -5.37946
LJ          -5.73659        -3.52694        -6.29379
LJ           1.30645        0.525967         -1.9601
LJ          -1.95544        -2.50013       -0.545693
LJ          0.210553         1.50216         1.79295
LJ           3.81361         3.19522        -1.92687
LJ           -5.0968          2.2638         4.49124
LJ          -5.84193         1.02738         1.51057
LJ           2.34515        -2.36451         3.86923
LJ           2.05469        -4.68232        -1.27468
LJ           1.23749         -1.3107        -1.76436
LJ           1.00039        -6.21749          1.8391
LJ          0.224745        -2.68498         2.06022
LJ          -4.30546         6.24975         3.08907
LJ          -4.67409         2.91533         2.41972
LJ          -4.44988        -0.70075         2.48432
LJ          -4.72748        -4.06368         1.53129
LJ          -2.74323         -1.5595        0.844419
LJ          0.909358       -0.903725        -6.34908
LJ          0.595539         1.67685        -2.06714
LJ          -2.47828        -1.30402        -2.76349
LJ           2.05985        -4.80018         2.59979
LJ          -1.02259         -4.4161        -1.43191
LJ          0.456828        -1.05205        0.465886
LJ            4.6161        -3.59172        0.542366
LJ         -0.514731        -1.77677        -4.73689
LJ           4.93527        -5.27349         2.25575
LJ           5.61455        -2.45992          5.5004
LJ           1.10506       -0.564703         3.36529
LJ          -5.96614         2.22479        0.113605
LJ          -3.08832         3.49409        0.765372
LJ           1.24458         4.03856        -2.36266
LJ           3.50904        -4.43439        0.665151
LJ           0.68882         1.12358        0.886192
LJ           3.43663         -5.3657         2.27938
LJ          -0.43453         3.78181         4.51364
LJ            2.4173        -5.89072         1.75138
LJ           4.74828         6.04954        -1.24952
LJ         -0.224418        -1.00283         -5.8278
LJ           3.26473         2.72149        -3.25597
LJ           1.30545         5.05764         -4.2987
LJ           1.50651        -5.87788        -4.71837
LJ         -0.625911         5.59715        -5.50024
LJ          -5.19763        -6.32245         4.30228
LJ         -0.055809        -3.40679        -4.02231
LJ          -4.28661         4.92585         2.94352
LJ          -2.67495        -2.02351        -3.40582
LJ          -5.07821       0.0921342         3.62076
LJ           3.17839        -5.88433        -3.06959
LJ           1.63775         1.96377       -0.739453
LJ           5.29718        -6.16921         1.61997
LJ          -5.65609         1.21205         4.15244
LJ            -1.409        -1.35234        -5.90616
LJ          -2.63586         1.75057         4.39354
LJ          0.123427        -4.65868         2.00729
LJ          -4.58824        0.952107        -4.86096
LJ           3.80047        -1.25957        -4.90795
LJ           4.15467        -4.21396         4.66071
LJ         -0.541543        -3.25662        -1.16639
LJ            2.7525         3.11442         2.86183
LJ           1.22243        -0.49953        -2.34988
LJ          -1.00309        -1.32344        -3.78265
LJ         -0.807866         2.38475        -4.71148
LJ          -2.01119        -1.13515         2.49574
LJ          -1.86803        -2.49194         3.49173
LJ           2.39342         1.41031        0.746925
LJ           1.28619       0.0402728       -0.697011
LJ           4.36729        -4.74755         1.18427
LJ           6.39898         2.21831        -4.37964
LJ           4.56033        -2.14688         1.56808
LJ          -2.79879        -5.30189        -4.16713
LJ           -1.6125         0.55973         5.04407
LJ          0.862464         2.31262        -5.97101
LJ           1.67259         3.28031        0.489453
LJ          -4.73693        -2.05023        -2.49114
LJ         -0.991767        -4.67707         1.18807
LJ           5.75578         4.40424         4.55149
LJ          0.342151         4.79306        -5.08047
LJ          -5.02184         1.81297        -5.32458
LJ           4.84177         3.87557         0.15518
LJ          -2.57198         -1.9758         2.04567
LJ            1.5188          1.9574        -2.56356
LJ          -2.12934         -3.1687        -5.99677
LJ          0.844398         5.89937        -3.17885
LJ          -2.96497          3.2624         4.85718
LJ           3.17227        -5.70643         3.44245
LJ         -0.268683       -0.863931         3.25738
LJ          -2.30093       -0.756952        -5.55634
LJ          -4.04303        -3.75685        -4.42476
LJ          -1.36122         3.37234          0.6326
LJ           3.82557         1.43308        -2.39171
LJ           0.12874         2.98495        -4.62136
LJ          -3.58535        -4.83607        -5.29139
LJ          -4.99394         5.24733         -3.3202
LJ          -4.87284        0.294899          5.9696
LJ          -3.35062        -1.09928         1.74331
LJ           4.93868         0.56563         5.09106
LJ           2.84739        -5.30598         5.09016
LJ          -1.69026         5.18053        -1.63341
LJ          -0.82904         1.17167        0.548454
LJ          -1.50815        -3.63192         0.25415
LJ          -5.90642        -5.89398         3.26563
LJ           1.65072        -3.08943        -5.40257
