108
#Comment!
LJ         -0.553992      -0.0358892         1.76633
LJ         -0.582264         4.74689        -1.26766
LJ          -5.26636         5.58851         6.05668
LJ         -0.423897         2.33102        -5.69131
LJ           -4.1932         4.77403        -6.18586
LJ          -2.01053        -2.58256         5.39524
LJ           6.13507         5.35224        -5.23477
LJ           2.36279        -1.06964        -5.19051
LJ          -3.30762         3.94467        -6.13011
LJ           6.10688      -0.0520402         6.33941
LJ           2.54259        -1.56034         4.16317
LJ          0.124146       -0.588832        -1.91331
LJ          -4.73186        -0.33085        -2.37881
LJ          -2.46374         5.48972        -5.85808
LJ           5.78471        0.807101        -3.10508
LJ           6.25173         4.20376        -4.83902
LJ           2.76263        -3.36997         3.16926
LJ          -4.97023        -4.51965        0.909571
LJ           -3.5071        -3.74376        0.486326
LJ           1.08484        -3.17923        -1.45867
LJ          -3.43406        -1.36691         3.58495
LJ          -3.59808         3.23635        0.252221
LJ          -2.11412         2.59494        -4.94221
LJ          -2.94748          3.2765         5.19983
LJ          -1.47083        -2.09034         2.44815
LJ           4.72232        -2.37543          4.3785
LJ          -2.43697         1.30403        -5.14728
LJ           2.85738        -1.82727         5.26544
LJ           4.57036        -2.53362        -2.91235
LJ           3.62177         3.84662         2.28209
LJ           -5.4975         3.98881         6.10742
LJ          -6.27823        0.339323         -4.8688
LJ            2.0962        0.807897         2.08226
LJ          -1.01522        0.542727        -3.41284
LJ          0.389233         1.12765         2.33881
LJ          -5.86524        -5.71134       0.0096399
LJ          -2.02677         3.14375        -2.80376
LJ           5.68692        -5.22034         4.87361
LJ          -6.01309        -2.12961         2.80897
LJ          -3.37549       -0.437549        -4.52466
LJ           4.99809       -0.853608      -0.0863375
LJ          -2.94998         1.24366        0.266333
LJ          -2.82527        -2.01248         4.98448
LJ            5.4897         1.63896         5.59962
LJ           2.18489       -0.121492        -5.72068
LJ           4.26344        -5.75728         3.48531
LJ           6.42378        -2.08651        -4.74634
LJ            5.9812        -1.56711        -2.24328
LJ          -1.68538        -5.34606        -1.42675
LJ          -5.31357        -4.79858        -5.10019
LJ            -6.088         -1.6082        -1.23645
LJ         -0.726126          3.3466         2.41343
LJ          -2.42696        -1.01455        -4.72318
LJ           5.97861         3.19075        -4.15449
LJ           6.12562         3.63082         3.55267
LJ          -5.69019         6.02006         5.21633
LJ          -6.45076         -3.9696         4.97268
LJ          -1.74286        -5.11997        -2.56466
LJ          -1.82209        -1.09767       -0.778409
LJ         -0.792799         2.29681        -3.30279
LJ          -1.97152         3.77803        -4.78721
LJ          -2.76714         5.83963         1.09039
LJ           3.01215        -3.53205         6.08832
LJ           -4.5104         4.46648         1.22677
LJ           2.02173         2.85424        -1.69219
LJ          0.269981        -6.28556        -5.82503
LJ          -3.12377         4.18399       -0.406205
LJ          -1.72356        -1.63102        -2.18777
LJ           5.34945        0.100328        -4.98061
LJ          -6.21034         3.15461         5.47104
LJ           1.33212       -0.296156         4.64029
LJ          -5.97871         4.73089         5.44657
LJ           4.70193         6.34358         -5.7785
LJ          -5.73934          6.1622       -0.640225
LJ          -4.67967         -5.8382        -1.27605
LJ           4.99428         4.71165         3.50145
LJ            5.9768         -3.1689        -1.86048
LJ         -0.558878         4.34752          3.1053
LJ           6.17741         2.17673        -3.75504
LJ          -3.26172         0.67021         2.32682
LJ          -2.88077        -3.81715        -2.71587
LJ           5.17981        0.964399       -0.648437
LJ         -0.312562        -5.86355         1.71762
LJ          -4.21864         4.19324         5.72241
LJ          -2.41006         5.65713         6.00149
LJ           2.44397         4.81568         3.63871
LJ           4.74966         4.08022       -0.693806
LJ          -5.74202        -3.53206        0.364675
LJ          -1.25901        -1.01606         -4.7654
LJ          -1.91019         5.81322         4.45087
LJ           3.01283      -0.0792816       -0.720987
LJ          -2.95926          1.1277        -4.13796
LJ          -5.43766        -3.60566        -6.09821
LJ           3.65435       -0.388469         -3.9555
LJ          -5.08143        -4.45886         5.34359
LJ           5.02294        -4.98079         1.73964
LJ            2.5918         4.61486         5.63873
LJ          -4.39224        -5.33429         1.55922
LJ          -2.26778         5.22958        -0.67471
LJ           5.07279         -5.2635         3.66324
LJ          -3.61362         5.32236         0.56262
LJ           -6.4533        -4.26218         3.03904
LJ          -1.06518         1.02898        0.765239
LJ          -5.97192         3.57249         -5.3067
LJ          -1.86559         2.79094       -0.457701
LJ           6.39753        -4.91328         -4.3912
LJ           2.82098       -0.128226         1.19731
LJ          -3.60641        -4.75505        -3.46896
