108
#Comment!
LJ           5.15407         4.28722        -3.98839
LJ           2.37645        -2.90602        -3.27509
LJ           6.18328         1.97587        -1.08041
LJ          -2.43888        -5.90583        -1.79572
LJ           2.73133         5.87205        -4.71967
LJ           3.39347        -3.11818        -4.20762
LJ           -5.5206        -2.85483         4.19799
LJ            4.4773         2.14108        -2.50116
LJ           6.42178       -0.580397        0.238915
LJ          -2.87933        -4.39896        -6.20223
LJ           4.93016         5.49927         2.44716
LJ          -3.42179         4.54926         3.50293
LJ          0.798555        -6.42214        0.508109
LJ           2.61018         6.44759        -1.59347
LJ           1.27206        -4.76811        -3.35083
LJ           4.08014         2.54602        -4.15746
LJ           4.80218        -1.13682        -1.80253
LJ          0.784155         1.69164          5.4924
LJ         -0.833004       -0.538134         5.82565
LJ           2.44417         2.49387        -5.66587
LJ          -4.76244        -1.89458         5.42096
LJ          -6.00374         5.22906         2.85494
LJ           -3.5762         2.52167         1.91376
LJ          -2.46114         3.07115         1.03261
LJ         -0.624991         3.60304         1.31774
LJ          0.224364         3.33263         5.53992
LJ           1.09402        -5.77277         3.56597
LJ           5.60988        0.887903        -5.42006
LJ          -1.81089         2.53246          4.4219
LJ         -0.884002        0.919536         3.40425
LJ          -1.73033         5.64574         6.14141
LJ          -1.60516          3.3604         3.56523
LJ           3.99012        -6.27537        -1.54692
LJ          -2.13341         1.74901        -2.86014
LJ           2.11743       -0.740275        -1.31304
LJ          -2.36411         4.76928        -3.62668
LJ          0.266382        -4.17965        -2.13271
LJ           5.30077         4.41009        0.832854
LJ           2.41063        0.207837        -2.92415
LJ          -5.25694         -6.4316        -5.61271
LJ           3.35666        -6.16341         4.38286
LJ          -1.51119          -2.869          3.3423
LJ          -4.53016        -5.07942        -2.02771
LJ           6.32247         2.82316         2.08323
LJ           3.47462        -4.85814        -4.00062
LJ            4.7599         2.68043         1.00835
LJ           4.12286         3.07295         2.72405
LJ          -4.46855        -2.39116         4.48232
LJ           4.98325        -4.95748         5.65623
LJ           2.37145         4.80862       -0.771738
LJ         -0.471672         -2.2295        -3.94709
LJ          -5.93514        -3.43177          3.2679
LJ           1.91852       -0.320011        -5.04841
LJ         -0.503472       -0.120765         -3.5409
LJ          -6.04827          1.4211        -1.76898
LJ          -2.64135         6.40801         0.40666
LJ          -1.48385         -4.3724         3.64201
LJ          0.969595        0.127386         2.20388
LJ         0.0989105        -5.81375         2.35166
LJ           4.66778         2.74962         6.07475
LJ         -0.269014         5.73875         -6.0801
LJ          -3.96518        0.894967        -4.78219
LJ           5.46153        -3.94678        -1.41032
LJ           1.76603        -5.85715         1.20596
LJ           6.23701        -4.93756         2.96598
LJ           4.08571        -4.49567         2.74563
LJ          -5.76994        -2.28309        0.990689
LJ           3.18682         3.57589        -5.70436
LJ            1.7318          5.7634         5.72836
LJ          -2.38175        -2.58006         -5.7448
LJ          -5.66028        -2.11627         3.38928
LJ           1.00635        -3.89936       -0.198354
LJ          -5.59484        -6.44852         4.34886
LJ          -1.69006        -4.32373        -6.15718
LJ          -3.73613        -3.08485         3.91294
LJ         -0.931077         4.64392         -6.3361
LJ          -4.04484        0.341888         2.41419
LJ           3.28857        -2.18604          2.9171
LJ          -5.17652         4.31114        -3.26122
LJ            5.9077         -2.4551         3.03149
LJ         -0.919925        -5.16291         5.11529
LJ           6.38797         4.24434        -5.59824
LJ          -4.52588         3.11271        -2.98619
LJ         -0.168241        -1.22649         2.71266
LJ           2.32621        -4.36738         1.21025
LJ          -4.98107        -3.42279        0.133172
LJ          -4.96731        -5.41412        -4.72628
LJ          -1.08797        0.525493         -2.7554
LJ           6.36054        -5.15173        -1.37115
LJ         -0.667334        -4.01283         2.80451
LJ          -5.34685         5.11242        0.431153
LJ           1.94397        -3.09129       -0.202893
LJ          -1.36899         -2.6513        -5.58033
LJ           6.10264        -2.81918        0.978188
LJ          -4.87761         1.79916        -5.19395
LJ          0.812979         2.21452        -2.62397
LJ           2.67154         2.87383        -3.59766
LJ         -0.525211        -1.31191        -2.68998
LJ          -6.29218         1.91078         1.39982
LJ          -2.51016        -3.10006          5.9017
LJ         -0.108613         1.31802        -2.64036
LJ           2.12539         2.61192        0.483298
LJ          -2.80784        -3.80129         3.86503
LJ          0.221068         5.61254         -3.8812
LJ            2.0422        -4.34911       -0.412973
LJ          -4.91092        0.443271         4.93843
LJ          0.219088         4.02954        -1.64879
LJ           6.17225         1.79704         2.52811
