108
#Comment!
LJ           1.04863         6.27523         3.51076
LJ          -3.27972         4.74783         -3.6542
LJ          -2.56441         1.04399        -1.89874
LJ           5.60268        -2.02859        -2.78442
LJ           3.47503         3.75125         6.26628
LJ          -3.57419       -0.265646         5.56627
LJ          -3.90555         6.11397         3.10471
LJ          -5.53953          1.2698        -1.71729
LJ         -0.666868        -3.50119         5.06479
LJ           1.32741        -1.03959        -2.34054
LJ          0.887999        -3.46323        -3.92795
LJ          -4.36498        -2.97182         2.70844
LJ          -6.16619         2.16302         6.07215
LJ          -3.02795        -3.08765         6.23099
LJ          -3.67717         5.13788        -1.36228
LJ         -0.699921        -3.06024         -4.3549
LJ           2.82501        -2.16621         3.30004
LJ           4.61354        -1.22601         6.18136
LJ           1.40011        -1.10197        0.703761
LJ           2.84755         4.35562         3.11744
LJ          -2.03918        -5.43472        -5.72158
LJ          -2.80841         5.77312        -3.43774
LJ          0.675083        -5.80778         4.20496
LJ           2.89003        -4.58461        -2.05945
LJ         -0.023379         4.17525         6.16698
LJ         -0.309942        -5.04462         0.44787
LJ         -0.858057        -3.61427         3.62021
LJ          -2.34664          2.0013        0.514556
LJ           0.22087        -3.02269        -5.11266
LJ           5.09139         5.41082        -5.33024
LJ           -3.8887         1.02643        -1.64522
LJ           4.96057       -0.977263        -2.68429
LJ          0.284462       -0.517373         3.43392
LJ          0.916976        -4.10962        -5.68471
LJ           3.59406         2.25007        -5.43364
LJ           4.67884         2.97921        -6.39028
LJ          -1.01757        -5.03494        -3.59181
LJ           2.42611         1.69827         3.77758
LJ          -4.78535         3.77053         1.79397
LJ          -4.01493        -3.89326        -4.22807
LJ           3.77972        -6.14675         4.38831
LJ         0.0809564         5.22118         2.35543
LJ          -1.84111         4.09747         4.85893
LJ           3.27975         -1.9584         4.36536
LJ          -2.12536        -5.04801        -4.01593
LJ           3.64251         5.02043         5.80146
LJ           3.01614        -2.13395         5.98754
LJ           3.88208         2.09686         3.64565
LJ           6.30269         3.25396        -4.18449
LJ          -2.99731         1.23117       -0.296888
LJ          -5.33995         2.66105        -5.54997
LJ           2.26521        -3.61937         6.34183
LJ          -2.95971         1.86178         5.11756
LJ          -1.12411        -4.08724        -3.88884
LJ           1.02047        -4.01668         6.00854
LJ         -0.858721        -5.80825        -0.62803
LJ           3.00648        -6.38634         3.77935
LJ          -6.31726        -1.45239         2.53468
LJ          -6.01959        -5.56674        -1.31047
LJ           6.14144        -5.17331         2.99255
LJ          -2.72826        -6.14572       -0.417642
LJ           2.03588         2.41028         5.62445
LJ           2.18378        -3.82627        -4.45145
LJ          -5.08656        -5.00113          1.1097
LJ           1.43789         5.71989         2.22896
LJ           2.11475        -3.43721         2.69693
LJ          -5.79951        -4.42652        0.466435
LJ         -0.962403        -3.63365         -2.6525
LJ           5.68463        -1.15554        0.989199
LJ           5.75496        -3.36776         4.75527
LJ           0.93407        -1.31008         4.68484
LJ          -5.15764        -1.85408         2.89293
LJ           2.25831         3.62043        -3.05634
LJ          -5.24146         4.78706        -1.60994
LJ          0.845964         5.93118       -0.241814
LJ          -5.66383         6.27166         4.52577
LJ             -1.77        -2.86922         3.19806
LJ          -2.24002       -0.825844         5.24884
LJ          -1.46223         2.97637        -2.04984
LJ           4.08616         3.19162        -4.07464
LJ           2.14211        -2.20276        -1.70677
LJ           4.85124         4.46865         5.56668
LJ         -0.235031         2.34917        -1.84783
LJ           5.65271        -5.22083        -2.34816
LJ           4.70673         2.50108        -5.15014
LJ           1.93268        -5.92102         -3.9108
LJ          -2.84576        -6.06852        -3.24785
LJ           5.25123        -1.14759        -5.57295
LJ          -2.56845        0.700076         2.58583
LJ           5.53184        -1.70555         5.58358
LJ           4.08801        0.839897         2.56024
LJ          -3.34249         4.88168         0.53893
LJ          0.153811        -3.16573         5.67342
LJ          0.556764        -5.79349          3.1094
LJ          -5.83455        0.667143          2.0668
LJ           3.70151         2.11614         6.01443
LJ           1.75963         1.38632           4.878
LJ          -4.40038           4.806        -5.66777
LJ           5.60947         4.03884         4.09759
LJ           -3.5546         1.49264         3.35071
LJ          -3.66228        -3.35649        -1.81953
LJ          -3.10381        0.821258        -2.96009
LJ           3.46312         5.45014        -2.04529
LJ           5.59603        0.407802         1.20372
LJ         0.0977704        -3.94486        -3.09757
LJ           2.83835        -1.60017        -3.49989
LJ          -4.71004       -0.223368         2.93243
LJ          -5.47883         2.01479         3.21238
