108
#Comment!
LJ           -1.7616        0.777234         3.09055
LJ          -1.97139        -6.43533       -0.579047
LJ          -4.17661        -6.41473         4.83859
LJ            2.9137         3.15613        -4.26618
LJ          -6.34934          5.1665        -4.11769
LJ          -1.70612         -2.1244         4.75295
LJ           5.06117         6.25114        -4.95351
LJ           3.14577        -2.77755        -5.13607
LJ          -3.56091         3.04596          5.8946
LJ           -6.1058        0.947538        -6.27406
LJ           3.53148        -2.40349          5.4965
LJ          0.394321        -1.62574        -1.99149
LJ          -4.79335       -0.911389        -3.21329
LJ         0.0608592         6.16974        -6.21243
LJ          -5.24792       -0.458447         -1.8437
LJ          -5.95249         4.78151        -2.48584
LJ           1.99298        -3.59322         1.35443
LJ          -5.96598        -5.02416         1.36003
LJ          -4.52404         6.41654        0.211745
LJ           2.50308        -5.37833        -1.22986
LJ          -2.17817       -0.888784         4.04171
LJ          -1.59672          1.8544       -0.892214
LJ          -2.47386         1.17297        -5.81893
LJ          -2.35445         2.05156         4.96004
LJ          -1.79161        -2.37258         1.19381
LJ           4.92609        -2.68528         2.54102
LJ         -0.687555         1.82181        -1.57157
LJ           3.95853        -2.71578        -5.80081
LJ           4.05683        -2.22954        -1.30592
LJ           2.72757         4.96327         3.59749
LJ          -4.90389         3.16629        -5.62992
LJ           5.95495        0.947609        -5.52139
LJ           2.41245       -0.984202         2.08005
LJ          -2.06971        -1.53342        -2.93864
LJ           2.64668        0.482042         1.65197
LJ           4.05968        -6.11393       -0.796279
LJ          -3.30311         4.74354        -3.89965
LJ            5.3405        -3.20506         5.35481
LJ            5.3546        -2.29489         1.69774
LJ          -3.83778       -0.644645        -3.60929
LJ           4.63486         0.59186        0.595003
LJ          -3.21867        0.458169       -0.772531
LJ          -1.88202        -1.24509         2.88294
LJ           6.40764         2.42303         6.30332
LJ           3.13195        -1.54988        -4.74135
LJ           3.18992        -6.12516       -0.385081
LJ            4.0336         -1.9819        -4.24801
LJ           -5.6034         -2.8368        -2.79237
LJ          -1.83097       -0.405571        -1.22823
LJ          -4.21809        -3.22797        -5.21246
LJ           4.86196       -0.374893        -1.87313
LJ         -0.467434         2.27396         2.20871
LJ           -3.3085       -0.582448        -4.66457
LJ           5.91005         1.16396        -4.06845
LJ           5.36009         4.67458         3.48639
LJ          -5.12108        -5.48191         5.15745
LJ          -5.99259        -2.52046         4.99242
LJ          -2.37047        -6.02093        -4.32313
LJ           -2.9086        -2.19611        -2.71306
LJ          0.124923         0.56474        -4.30496
LJ         -0.592591         4.22007        -6.24958
LJ          -1.72304         4.71399         2.56955
LJ           1.20153        -1.21574        -3.53507
LJ          -2.82643         5.42061         1.78741
LJ         -0.760722         2.72906       -0.244704
LJ           1.63169         4.82289        -5.48153
LJ          -3.91203         3.99548        -0.82482
LJ         -0.317431        -1.74086        -4.17521
LJ          -5.29638       -0.710979        -4.25922
LJ           4.90273         6.10055         4.54864
LJ          -1.23906       -0.726171         3.46289
LJ          -4.56862          4.8239         3.57242
LJ           3.93343         4.23276        -5.60375
LJ           6.03805        -6.17541       -0.175046
LJ          -4.29532         6.18422        -4.06583
LJ           4.05678          4.9824         2.96273
LJ          -6.35132        -3.93787        -2.20783
LJ          -2.10612         5.38049         3.86791
LJ           -4.5688         2.67477        -4.13699
LJ          -2.09982        0.962808         2.02215
LJ          -2.54202        -6.08911        -1.27696
LJ           6.03718           1.097       -0.284227
LJ         -0.529954         6.35577         1.74497
LJ          -1.96693         4.62244        -5.71069
LJ          -2.71795         4.80579         6.06575
LJ           2.64035         5.17203         4.83204
LJ           4.14241         4.86935       -0.952553
LJ          -6.27212        -5.06506       -0.136653
LJ         -0.862617       -0.898521        -5.10707
LJ        0.00272221         5.59992         4.48224
LJ           2.00048       -0.364599        -1.61289
LJ          -3.72971        0.356883        -3.52439
LJ           6.20836        -3.65724         6.31427
LJ           2.37583         1.91123        -3.62848
LJ          -6.41181        -3.49344         4.84306
LJ           4.26103        -5.10911       -0.211322
LJ           2.82966         5.48578        -5.56041
LJ          -3.30608        -5.41174        0.107652
LJ          -3.39277          5.2053        -1.24058
LJ            2.9025        -2.02746         4.36742
LJ          -3.39489         4.39863         1.62696
LJ           6.08906        -4.32976         4.21761
LJ          -0.89826       -0.999423          1.6322
LJ          -2.86068          1.6286        -4.73216
LJ          -2.66114         4.02002        0.554417
LJ            4.9709        -2.08173        -4.73733
LJ           3.62204         1.74157          2.0334
LJ           -4.4206        -4.86561        -4.43926
