108
#Comment!
LJ          0.685036         6.36663         4.06646
LJ          -1.34717         5.24055        -4.48718
LJ          -2.98004        0.386126         -2.0815
LJ          -5.82847        -3.86639         -2.4291
LJ           4.37916         3.26734        -5.53615
LJ          -2.76332       -0.410372         4.97253
LJ          -5.22317         4.54514         2.42205
LJ          -5.58523         1.69103         1.21606
LJ         -0.948493        -2.37754         5.13311
LJ           1.42171       -0.933771        0.757757
LJ         0.0707028        -3.15703          -3.248
LJ           6.12226         -2.7923         3.04558
LJ          -5.57222         3.38339         5.19036
LJ          -3.89468       -0.402786         6.39745
LJ          -3.91326         3.03633        -1.78018
LJ          0.934038        -1.12524        -3.26342
LJ           3.47678        -2.23521         4.35569
LJ           3.20862        -2.49293          6.1185
LJ           4.33045        -1.64202        0.745538
LJ            5.0769         2.34515         4.88944
LJ          -1.20304        -4.29717         -4.9784
LJ          -2.60257         5.59941        -4.04265
LJ          0.555713        -4.67604         3.64636
LJ          0.595924        -3.96251        -2.80258
LJ          0.457657         4.61801         3.89014
LJ          0.406995        -4.76608         1.47949
LJ         -0.768701        -3.09085         4.22967
LJ          -1.89037         2.85958          -1.322
LJ          0.640322        -2.91539        -4.43241
LJ           6.15552         5.47065         4.77091
LJ          -3.61582         1.50074        -1.48998
LJ           4.69137        -1.29921        -1.28488
LJ          0.478413        -2.30039         3.25164
LJ         0.0118487        -5.06729        -5.31779
LJ           4.04948        0.206602        -6.16248
LJ           4.99082         2.88842        -6.42279
LJ        -0.0647457        -4.05991        -4.44548
LJ           2.45088         1.92667         4.08457
LJ           -5.9422         2.18154         2.67588
LJ           -4.9571        -3.66596        -4.00217
LJ           4.50776        -4.13368         4.92433
LJ          -2.54576         6.15489         2.76504
LJ        -0.0284629          3.6414         2.96193
LJ           4.09323        -1.22432         4.78922
LJ         -0.718901        -5.17323        -4.02836
LJ           2.15966         3.48849         5.04219
LJ           2.34812        -4.08381         6.28795
LJ           5.37398         2.67459         2.69562
LJ          -6.21753         5.77231        -3.00125
LJ          -2.71474         2.89192        0.307608
LJ          -5.17413        0.889885         5.85383
LJ           2.41563        -5.73303        -6.40628
LJ          -2.74663         1.64178         2.50629
LJ          -2.81687        -2.61042        -3.83904
LJ          0.975527        -3.71916         6.33493
LJ           1.25931        -4.78453       -0.349527
LJ           1.09916        -5.75347         5.92027
LJ           5.92591       -0.864509        0.290618
LJ            4.3978          5.2012        -2.42079
LJ             5.774        -5.26442         2.94118
LJ          -1.24555          4.8093       -0.685325
LJ           2.20175         1.39976         6.44156
LJ          0.920389        -4.78098        -4.49258
LJ          -6.08433        -2.82858         1.30135
LJ           2.50954        -5.32229         2.85217
LJ           1.25751        -3.80741         1.01939
LJ          -6.13739        -2.59875        -1.61223
LJ          -1.84362        -3.54889        -4.63484
LJ          -5.41864      -0.0867569        0.676712
LJ           -6.4152        -3.97837         2.63087
LJ           1.11137        -2.81287          5.2454
LJ          -5.23686        -2.62895          3.6398
LJ             3.603         2.61087        -4.21366
LJ          -4.67529         4.29745       -0.573022
LJ           2.69817        -4.82857        0.441465
LJ          -5.09553        -4.80042         3.54022
LJ          -2.40005       -0.451491         4.00874
LJ          -1.73955        -1.40971         5.02382
LJ           -2.4515         2.38633        -2.15464
LJ            3.3003         1.83323        -3.21042
LJ         0.0315873       -0.927036        -1.20797
LJ           2.89949         4.52034         5.22248
LJ          0.917313        0.620863       -0.738484
LJ           5.02443        -5.99038        -1.62459
LJ           5.56556        0.786542        -3.37114
LJ          0.538534        -5.96502         -4.4538
LJ          -5.52784        -5.88841         -2.8533
LJ           5.52561         1.27654        -5.48648
LJ          -1.05693         1.31869         3.59772
LJ          -6.26614        -1.29905        -6.11813
LJ           -5.4677        0.642278         3.72724
LJ          -3.55863         4.38824         -1.4493
LJ         -0.488019        -3.23355        -5.55971
LJ           1.82921        -6.37421         2.05524
LJ          -5.05654         1.72336         2.12739
LJ           4.89603         3.54202         5.56679
LJ           2.08971      -0.0620733        -5.84711
LJ           5.95656         5.72595        -6.28079
LJ            4.4818         3.91576         4.05324
LJ          -2.38245         0.88123         3.55529
LJ          -4.15196         -1.7434        -3.52171
LJ          -3.64125       -0.279697       -0.608834
LJ           3.48524         5.28631        -3.57667
LJ           4.02896     -0.00881904        0.499186
LJ         -0.230962        -3.11344        -1.67883
LJ           2.49132        -3.81497        -4.76687
LJ          -6.21445        -1.10804          2.5504
LJ           5.50266         1.49516         1.87474
