108
#Comment!
LJ           1.08515         6.08809         3.52257
LJ          -2.68851         4.67238        -3.97301
LJ          -2.72446         1.06677        -1.49984
LJ           5.90493        -2.34434        -2.62332
LJ           3.63742         3.56981        -6.38496
LJ          -3.31524      -0.0865426         5.13023
LJ          -4.25917         5.68434         2.91466
LJ          -5.59141         1.21036       -0.907516
LJ          -0.60274        -3.15791         4.99701
LJ           1.34825       -0.865707        -1.43516
LJ          0.727514        -3.48339        -3.86207
LJ          -5.05134        -2.91867         2.69306
LJ          -6.03299         2.52015         5.76691
LJ          -3.27884        -2.36592          6.2915
LJ          -3.78703         4.61085        -1.50376
LJ         -0.047077         -2.8119        -3.76909
LJ           3.02357        -2.15517         3.59416
LJ           4.21049        -1.50013         6.03995
LJ           2.20016        -1.25725        0.722445
LJ            3.3757         3.78376         3.55496
LJ          -1.76074        -5.12698        -5.60113
LJ          -2.77075         5.85344        -3.54236
LJ          0.592473        -5.40551         4.05431
LJ           2.29997        -4.43646         -2.2308
LJ          0.126156         4.30245         5.57824
LJ          0.137231        -5.16978         0.49922
LJ         -0.815542        -3.48578         3.77345
LJ          -2.10182         2.32978       0.0678312
LJ          0.260667        -2.79948        -4.89909
LJ            5.4301         5.44304        -6.01511
LJ          -3.77727         1.14352        -1.66639
LJ           4.98778        -1.21743        -2.32452
LJ          0.335272       -0.975401         3.33984
LJ           1.12268          -4.322        -5.55819
LJ           4.04836         1.91741        -5.76534
LJ           4.67384         2.55904        -6.18055
LJ         -0.718983        -4.78265        -3.83568
LJ           2.41821         1.75026         3.82545
LJ          -5.19442         3.30455         2.02838
LJ          -4.28328        -3.83674        -4.18188
LJ           4.02014         -5.5801         4.53771
LJ         -0.654984         5.46718         2.45799
LJ          -1.37172         3.95642         4.31686
LJ           3.49075        -1.80872         4.56918
LJ          -1.80525        -5.11116         -3.9008
LJ           3.06642           4.686          5.5802
LJ           2.84962         -2.6609         6.08367
LJ           4.31217         2.38611         3.47995
LJ             6.418         3.93872        -3.86076
LJ          -2.89288         1.46797        -0.51202
LJ          -5.25125         2.15024         -5.9011
LJ           2.03689        -4.22723        -6.40479
LJ          -2.91844         1.96097          4.5111
LJ          -1.77116          -3.506        -3.98434
LJ          0.967424        -3.96632         6.13555
LJ         -0.292553        -5.49223       -0.495784
LJ           2.52885         -6.2113         4.42791
LJ           6.38668        -1.31324          1.9023
LJ           6.19344        -6.29755        -1.65306
LJ           6.02156        -5.22256         2.96655
LJ          -2.31269          6.2582       -0.490894
LJ           2.03285         2.07992          5.7988
LJ           1.57928        -4.09735        -4.70211
LJ           -5.3902        -4.49892         1.33222
LJ            1.8197          6.2076         2.61121
LJ           1.88699        -3.52515         2.23733
LJ          -5.90823        -3.93953       -0.185031
LJ          -1.18163        -3.86011        -3.07081
LJ           6.23644       -0.729595        0.847624
LJ           6.03723        -3.42386         4.01242
LJ          0.784422        -1.76308         4.84686
LJ          -5.10319        -1.84687         3.20003
LJ           2.53882         3.42174        -3.37551
LJ          -5.05039         4.63458        -1.37459
LJ            1.1018        -6.24628       0.0901648
LJ          -5.49827        -6.15188         4.27246
LJ          -1.97008        -2.21025         3.34033
LJ           -2.0907       -0.951434         5.22153
LJ          -1.71562         2.84615        -2.11844
LJ           4.06527         2.64007          -3.936
LJ           1.56995        -1.98892        -1.62224
LJ           4.45127         4.54341         5.43315
LJ         0.0937629         1.87566        -1.54341
LJ           5.41657          -5.295        -2.18772
LJ            4.7664         2.11574        -4.49183
LJ            1.5638         -6.0014        -4.04014
LJ          -3.63388        -5.95406        -3.10737
LJ            5.3559       -0.486391        -5.52223
LJ          -2.26616        0.820502         2.91682
LJ           5.89546        -1.61164          5.8989
LJ           5.11021        0.795219         2.79063
LJ          -3.42066         4.71673       0.0783336
LJ         0.0176707        -3.20548         6.21741
LJ          0.717114        -5.82354         2.73132
LJ          -5.67201        0.787338         2.18358
LJ           3.94948         2.64516         5.93002
LJ           1.84973         1.02866         5.55573
LJ          -5.13632         5.05834        -5.91067
LJ           5.37141         3.90631         3.94935
LJ          -3.15021         1.01239         3.54052
LJ          -3.80077        -2.90259        -2.26764
LJ          -3.38328        0.408975        -2.34861
LJ           3.55823         5.41596        -2.38166
LJ           5.11942        0.348766        0.994176
LJ        -0.0454933         -3.3739        -2.92763
LJ           2.76795        -2.19184        -3.84412
LJ          -5.13496       -0.742976         2.91603
LJ          -5.95385         2.09039         2.85409
