108
#Comment!
LJ          -1.58093         2.31114         3.33004
LJ          -2.04132         5.98357        -5.30112
LJ           1.18685        -3.35166         5.02966
LJ           5.61167         4.52075        0.645432
LJ          0.304393        -6.33534         2.08622
LJ          0.547677        -3.99569         2.72085
LJ           2.74934         5.55244        -3.75486
LJ           5.01515         6.20253        -3.91899
LJ          -4.01153         2.62092         4.18809
LJ           -5.0739         1.85896        -3.90176
LJ          0.456845         -2.1979        -4.34219
LJ           1.69034        -3.11684        -2.56724
LJ          -2.85308        -4.65638       -0.893523
LJ           5.22219        -4.06471         6.26374
LJ          -2.11613        -2.16852        -5.33422
LJ          -4.78614         3.53868        -2.73932
LJ          -0.76933        -4.62063        -3.34373
LJ           3.39693        -6.39134        0.379672
LJ          -5.07582       -0.608578        -2.68364
LJ        -0.0279149        -1.87361         5.65412
LJ         -0.952727         4.48465        0.516975
LJ           1.30175         1.73164         2.03891
LJ          -3.98155       -0.169626        -4.65873
LJ          -2.06337        -1.17232        -5.72142
LJ          -2.56728         5.75711        -2.42085
LJ            5.0204        -5.82514         1.32019
LJ          -2.86269         3.48912         3.65006
LJ          -5.96912        -5.01108        -6.22534
LJ           1.41825        -0.41606         2.55865
LJ           4.37078         3.91228         6.27505
LJ           5.96222         1.46439        -4.40017
LJ          -5.99837        0.855723        -3.66945
LJ           5.20544        -5.08473       -0.608462
LJ          -3.22566        -3.87626        -3.11327
LJ          -2.57259        -1.46138         3.58166
LJ           2.61385        -6.12608         -3.9429
LJ          -5.72427         -5.0416         4.82249
LJ           3.04911         1.23435        -4.29836
LJ           -0.4223        -2.73073        -3.46211
LJ          -2.24802        -3.39282        -2.21447
LJ           3.40642         4.77815        0.780814
LJ          -2.12426        -1.30025        -3.80285
LJ          -2.02992       0.0216141        0.523978
LJ          -3.57856         3.48401        -3.20779
LJ           4.32548        -4.68041         5.82825
LJ          -1.42537         2.44794        -2.26328
LJ           6.32322          5.3559        -4.33168
LJ          -2.55336         5.86843        -3.44409
LJ          -1.30749         2.89386        -5.98011
LJ          -3.06566         -1.5979        0.996239
LJ           2.66272         6.43823         2.75243
LJ          -2.68811          1.9347         4.80032
LJ          -2.95652         -1.8119        -5.81249
LJ          -6.00004        -1.72367        -5.76584
LJ           3.75218        -5.34773         4.82944
LJ           -0.2131        -5.59524         5.74593
LJ          -3.24231         4.00791         4.64458
LJ           5.71191         3.98772         5.33412
LJ          -3.51505        -3.87072         5.65591
LJ           3.87715         -4.4914        -4.90432
LJ           1.86047         5.18966          5.9926
LJ          -2.98296         5.14168         1.07201
LJ          -4.25846         5.82373         4.16267
LJ           1.90138         3.17981       0.0783088
LJ           3.99665     -0.00646896       -0.551039
LJ           1.80655        -6.01638        -1.86086
LJ           3.62771         3.59346         1.22535
LJ          -4.42475       -0.573922          1.3991
LJ          -4.40741        -1.76977        -5.47566
LJ          0.710908        0.549433         1.52041
LJ           1.20381         1.28398         1.04682
LJ          -1.42148         5.81125         3.26684
LJ           1.25153         1.56904        -2.99711
LJ          -2.14666         4.84422        -5.19103
LJ         -0.559547         5.47191        0.303889
LJ            1.4694        0.215932         3.28324
LJ          -2.22659        -3.96704        -3.71572
LJ          -4.90833        -3.59098         3.56865
LJ           1.53441         2.35059        -2.14753
LJ         0.0513436         2.43261         5.55032
LJ          -3.36735         5.58381        -4.19295
LJ          -3.67589         0.99875       -0.643473
LJ          -1.90993         2.49443        0.533321
LJ           5.04736        -5.34425         5.37386
LJ          -3.34644         2.72716         5.42854
LJ           4.44774        -6.16364         3.60758
LJ           3.70563        -4.97962        -3.71693
LJ          -2.92462         2.09576         2.15196
LJ           1.80966        -5.57759        -5.80753
LJ           3.50851         2.52373        -4.26922
LJ           1.50861        -1.39883        -2.67535
LJ          -2.93429        -3.06407        -1.04112
LJ           6.34509        -2.82051         2.19469
LJ           2.63076        -3.96141        -5.13438
LJ           3.54406        -1.05965         2.95449
LJ           3.86213        -6.18728        -2.87204
LJ           4.22231         1.91031       -0.979355
LJ          -4.31087         5.11518        -3.96013
LJ           3.79492        -4.68788         1.31281
LJ          -3.41147        -4.68715        -5.01068
LJ          -1.22431        -5.97736        -6.25334
LJ           2.85748      -0.0169302         2.12242
LJ          -4.36378        -1.74621         5.26492
LJ           2.65106       -0.268891         5.39717
LJ          -2.46333         3.97682         6.27557
LJ           3.74478       0.0280558         3.80678
LJ           4.11785         3.82097         3.54282
LJ          -5.96544         6.04177         5.66977
