108
#Comment!
LJ          0.109782        -5.79024         4.91894
LJ          -1.27108         6.23493          -4.986
LJ          -3.82061     -0.00431528        -1.80204
LJ          -4.09515          5.9857        -3.44282
LJ            4.1276         3.70345        -3.72744
LJ          -3.34416       -0.669237         6.26259
LJ           6.38111         4.19755         1.77005
LJ          -5.23559         1.04193         2.53351
LJ         -0.900934        -4.08883         6.44605
LJ           1.42284        -1.26317         4.27245
LJ         -0.865518        -1.85462        -3.08418
LJ           4.31311        -5.20414         3.95603
LJ          -4.90203         4.80283         4.22049
LJ          -5.38953         2.90335         5.90088
LJ          -5.06672          1.6263        -2.29324
LJ           2.18325        0.349309        -2.01791
LJ           3.82006        -2.04924         4.73526
LJ           2.74165        -4.27849        -4.93315
LJ          -5.96777        -2.02101        0.570114
LJ          -4.20849         1.09521        -5.76398
LJ          -1.27348        -3.76703        -4.51418
LJ         -0.160835         5.43884        -5.39839
LJ          0.929437        -5.50698         2.24284
LJ          -1.64647        -1.75391        -2.09969
LJ           1.03837         4.53372        0.403545
LJ           1.38698        -3.14203         3.38727
LJ         -0.213069        -2.50336         4.65704
LJ          -1.88021         3.95615        -2.57315
LJ          0.213087        -2.47152        -2.86998
LJ          -6.43893        -5.42364        0.862824
LJ          -2.72944       0.0927426          -1.337
LJ           5.04099       -0.805857         0.84531
LJ         0.0908632        -2.74726         3.31251
LJ          -2.77954        -4.37636         6.26966
LJ           4.38447        -2.03181        -5.50102
LJ           5.21889         3.71014         5.69209
LJ          0.312535        -3.07728        -3.75089
LJ           2.75194         2.25942         4.59314
LJ           5.95622         0.97369         2.30601
LJ          -6.32551        -3.46119        -3.06325
LJ           5.72308        -1.77771         5.40907
LJ          -5.87692         -5.5724         3.30138
LJ           2.42695         3.96328         1.19487
LJ           4.76397       -0.983375         4.75074
LJ           1.15276        -5.70786         -3.7324
LJ           1.72578         2.63551         4.48089
LJ         -0.238698        -5.36848         6.09844
LJ           4.96111         1.46049         1.18354
LJ           6.19325         5.64917        -1.49807
LJ          -2.07407          5.4676         1.05392
LJ          -5.27864        -1.65039         5.44453
LJ           2.76885          5.6814        -5.25094
LJ          -3.03467         1.26884        0.457287
LJ          -4.48835        -1.29194        -4.00977
LJ           1.14533        -4.69046        -6.07421
LJ           4.01015        -3.19893         1.34549
LJ         -0.628534        -6.26746        -5.93879
LJ           4.75184       -0.569883        -2.17716
LJ           3.51886          3.4004         -1.9781
LJ            5.5332        -6.38522         2.56848
LJ          0.275179         2.03607        -1.20288
LJ           2.55311        -0.96261        -4.97945
LJ        -0.0424693        -6.12767        -5.03054
LJ          -5.30402         1.39454        -0.74008
LJ           2.33206        -3.34817          2.7334
LJ           0.23175        -5.50922       -0.979837
LJ          -5.34391        -2.09293        -3.08295
LJ          -2.88417        -1.75517          5.9884
LJ           -5.1059        -1.57455        0.794964
LJ           5.08856        -4.97529         3.05525
LJ            2.1883        -4.89365         4.79541
LJ          -5.84197        -3.65692         4.17913
LJ           6.30553         1.36579        -5.77866
LJ          -4.11081         3.47739        0.431136
LJ            5.0786        -2.62269        0.493439
LJ          -5.05418         -2.2497         2.10938
LJ          -2.62024         2.54153         5.04965
LJ          -2.48451        -0.13523         3.92651
LJ          -3.14101         1.32953        -3.57476
LJ           2.54457         2.06902        -3.26702
LJ          -1.73601        0.592461        -1.48181
LJ         0.0214772         3.40321         4.67414
LJ           2.08335        -1.88253        0.826227
LJ           4.41234         5.29712       -0.788781
LJ           5.34007        0.563791        -1.26307
LJ         -0.926676        -5.04354        -4.74863
LJ           5.58952        -2.06563        -2.49314
LJ           6.12476         2.97352        -5.76377
LJ         -0.123243         1.84094         4.22605
LJ          -5.25131       -0.662255         -4.4793
LJ          -1.71121         0.19953         5.00601
LJ           -3.3372         3.45837        -3.60332
LJ         -0.149151        -5.53514        -3.85558
LJ           4.60585         6.24374         1.66134
LJ          -1.74544         4.19455         2.97668
LJ           5.92369         3.90007         4.90535
LJ           2.74831       -0.768765         -3.5848
LJ           3.89007        -5.92653         6.15591
LJ           3.43669         4.08811         5.83517
LJ          -1.02101         1.56155         2.48405
LJ          -3.83401       -0.475273        -5.71454
LJ          -2.76749       -0.386105         1.87794
LJ           1.26891         4.90421          5.4441
LJ           2.73068         -1.0383        -0.58071
LJ         -0.185773        -2.85794       -0.658093
LJ           1.95534         5.96445        -5.88556
LJ           6.05698       -0.254851         1.64503
LJ           3.28916        0.408344        0.949637
