108
#Comment!
LJ           2.99379         5.07494       -0.393979
LJ          -6.01254       -0.651536        -4.13964
LJ          -4.71162         5.47085         3.31601
LJ           2.52197         2.94942        -6.11046
LJ          -3.04908         3.64762         4.45257
LJ          -5.56946        -1.18756         6.09489
LJ         -0.684485        -4.52577         5.00642
LJ         -0.981228         2.74624         6.28439
LJ          0.247922         3.86433        -6.45271
LJ           5.99005        -2.40574        -5.87289
LJ         -0.868135          1.9423       0.0965769
LJ          -1.93313         5.40253        -4.59858
LJ           5.79659          4.5129        0.177672
LJ           5.67075           4.514        -3.66198
LJ         -0.745282        -2.52114         4.56081
LJ            5.1719         2.57573        -4.23401
LJ          -4.15438        -3.59067         -4.9445
LJ          -3.12018         6.36044        0.984815
LJ          -1.15909         3.36193         3.69643
LJ          -4.03658        -3.06051        -2.79631
LJ         -0.683658         4.82871         3.39753
LJ           5.07094         2.72868       0.0823985
LJ           0.76318        0.233311        -1.78376
LJ           4.37224        -5.28492        -6.01742
LJ          -2.25623         5.05522         5.39374
LJ           2.19785        -1.35677        -1.46889
LJ           5.59825        -1.05722        -2.23416
LJ          -2.25819         2.91109         3.24081
LJ           2.16732        -4.73026         5.83409
LJ          -4.89705        0.798644         6.37263
LJ          -2.11852        -4.66581        -6.25212
LJ           3.88176        -3.61991        -3.18857
LJ            1.3824         3.71381        -1.77525
LJ          -1.25424         4.31408         6.08947
LJ           3.12966         5.56076         6.31408
LJ          -5.04601      -0.0692367         4.38672
LJ           1.22934         3.78845         3.50171
LJ           -3.4446        0.541294         2.34386
LJ          -4.98875         -5.6335         6.22944
LJ           -2.0447         5.42052        -5.65043
LJ           3.11844        -1.75155         1.63296
LJ          -2.53887         1.38622         1.98427
LJ           -4.8079         6.03948        -4.09619
LJ           2.61027       -0.598406         4.16897
LJ           -1.0655         3.01792         4.71272
LJ          -2.38354         2.39651         1.87992
LJ          -1.27485        -4.62085        -1.03123
LJ           5.79813        -1.64305         3.58453
LJ           3.66962        -6.20137         2.94566
LJ           -5.1346        -3.33836         4.18647
LJ           1.61634        -4.40811        -5.16151
LJ          -3.75422         4.70753         3.97952
LJ         -0.115672       -0.175297          -3.453
LJ          -1.40597         2.03822         2.57224
LJ           2.76994         2.62841         2.81987
LJ          -6.09925         3.70857        0.153478
LJ          -6.05492        -6.45291        -0.33952
LJ         -0.827244        -1.66862        -5.07245
LJ            1.5354        0.972757         1.37998
LJ          0.364607        -4.89544        -6.25784
LJ          -4.64228         1.83975       -0.496333
LJ          0.223368        -4.53245         -2.9497
LJ          -5.42961         5.76172        -3.32194
LJ          0.138885         3.78874        -1.64331
LJ           2.46932         5.52273        -2.22243
LJ          -5.23505       -0.196613          6.4105
LJ           -4.7565         6.04915        -6.16313
LJ           3.43274        -3.15492       -0.915312
LJ           1.57849         5.07225         5.59106
LJ           2.30378        0.749574         5.94711
LJ          -3.23283        -2.07246         -4.6602
LJ          -5.72738         1.95656        -3.48947
LJ          -4.97827        -5.38922        -2.98587
LJ           1.00919        -5.53698        -2.00473
LJ          -4.53024        -5.30426         3.36939
LJ          -4.10438        -2.26918        0.344888
LJ          -5.91897        -4.00504        -3.11306
LJ           3.70089         6.03689       -0.368867
LJ           3.35595         6.19306         -2.1311
LJ           4.98878       -0.195072         4.23525
LJ          -4.08079        -5.77381        -5.32732
LJ           4.11805        0.304076          2.5933
LJ          -1.47939         -3.6161          1.0091
LJ           3.47363        -1.36775        0.548314
LJ          -4.89862         4.69376        -5.07813
LJ           5.81233         6.35227       -0.863511
LJ           5.92553        0.890601        0.655844
LJ          -5.76239        -2.15583         2.11211
LJ         -0.536407        -2.20948        -2.76059
LJ          -1.07793        -4.99835        -6.41096
LJ           -6.1368        0.928475        -1.79451
LJ         -0.535231         4.73938        -6.10947
LJ          -3.07116       -0.835002        -1.27778
LJ           5.01888         2.80304        -6.23188
LJ            5.4193       -0.801693        -5.82587
LJ          -1.63468         4.81584          2.4494
LJ           1.73237         1.28063        0.334478
LJ          -6.21422         4.64142        -1.35287
LJ           4.29832         1.79092        0.180109
LJ          -3.96433         2.49977        0.732214
LJ          -5.86669         3.18853         -1.3062
LJ          -1.20769        -5.76961         5.86567
LJ           6.17884          2.1748        -1.45254
LJ           5.48419         -2.8492        -1.79689
LJ           4.15516         2.34898        -1.21315
LJ          -2.11495       -0.374025        -1.18184
LJ          -1.73643         -4.6445         1.41254
LJ          0.623063        0.699429        -3.60248
