108
#Comment!
LJ          -4.96941         3.90814         -2.4255
LJ           4.75222        -2.79723        -2.93271
LJ           6.18437        0.389842        -2.34733
LJ          0.674401        -4.27384        0.822033
LJ           2.93279         4.22759        0.423034
LJ           1.44522        -5.06662          -3.101
LJ           4.79573       -0.486014         2.29838
LJ           4.49759         3.32634         1.07156
LJ           4.83749         5.52293         6.31073
LJ         -0.607406        -6.03079        -4.37937
LJ          -5.26263         2.77519          2.7371
LJ          -2.12556         5.34985         0.49613
LJ           1.50591         5.72382        -0.40483
LJ            2.9895        -6.01218         1.51455
LJ           0.04709        0.170816        -4.20368
LJ            2.3001        0.401648        -3.09827
LJ           6.31794        0.671849         6.33987
LJ           2.02506       -0.127434         1.71763
LJ          -1.27648         1.11572         5.82833
LJ          0.290886         4.99296        -5.19841
LJ            -2.429        -2.12348         3.84569
LJ           -6.0086         -5.4162         5.71078
LJ           0.26487         2.11626         5.17632
LJ          -2.78867         3.51513        0.157596
LJ         -0.296802        -6.22236         2.27886
LJ          0.331324         4.47011        -6.42853
LJ          -2.62341         5.84833         6.24575
LJ          -6.26787         1.10584         4.11805
LJ          -2.64622         1.50248        -5.43736
LJ          -3.35284        -1.35148         4.37969
LJ          -2.74658         4.70468         3.40554
LJ            -3.296        -4.60918        0.998377
LJ           1.54058          4.2787       -0.246812
LJ           -2.0355         2.01326        -4.54191
LJ         -0.673839        -1.23069       -0.146608
LJ         -0.322058         5.18491        -4.28768
LJ           2.03537         5.74881        -4.28383
LJ          -4.79418         3.09067        -1.71173
LJ           1.52694         1.97482        0.694244
LJ          -4.25771        -6.30569        -3.45607
LJ           4.34528         4.48929         3.80212
LJ          0.143444           -3.01         5.06708
LJ          -3.42574        -3.85689        -2.61811
LJ          -5.97695         3.15543        0.457467
LJ           3.13587         5.18367        -3.81387
LJ          -6.36712         2.13522         0.69248
LJ           3.02505         2.38839         2.65144
LJ           5.67044       -0.193255         3.61745
LJ           3.94274        -4.18204        -3.49202
LJ           4.10175           1.781        0.478687
LJ          0.258362        -1.54618        -6.16879
LJ           5.31579        -5.06461       -0.279651
LJ           2.62462        -2.16889        -4.37679
LJ          0.929804        -1.19287        -1.73661
LJ            5.3501        0.892765        -1.61743
LJ          -1.09212         6.32858        -2.05735
LJ          -1.86206        -1.68982         2.30664
LJ         -0.471608        -2.19715       -0.582406
LJ         -0.426286        -3.44399        0.115217
LJ           1.61577         2.45425        -5.22528
LJ           1.00252        -5.23242         4.15324
LJ            -2.803        -1.46667         -3.9091
LJ           5.91464        -4.51259        -3.13394
LJ           1.48614         -4.8482         1.10222
LJ          -6.17825        -4.51369        -4.20752
LJ           6.00424        -5.60454        0.920423
LJ          -3.35235        -3.62825        -4.55558
LJ         -0.258735         3.36387         5.84595
LJ           1.66521        -2.60421         4.57977
LJ          -1.30264        -1.16082        -4.30842
LJ            4.3738        -1.41797         2.14375
LJ            1.6437        -5.66411        -1.27234
LJ           2.00611         5.31781         4.70522
LJ           -5.0232        -2.47044       -0.211269
LJ          -3.30158        -1.53049         5.56387
LJ         -0.569385         5.29942        -6.22907
LJ          -4.05539          1.9159         5.18308
LJ           2.84311         -2.5169         3.11316
LJ          -5.58557          5.1224        -1.62302
LJ           5.06166        -2.66324         4.63378
LJ           4.37936         4.75367        -6.33515
LJ          -6.17109         3.05989        -4.69426
LJ          -5.56959         2.84552         -2.8139
LJ           3.32625        -1.10518         -1.3352
LJ           1.61487        -5.86225        0.269214
LJ          -5.10812          -2.584         0.76341
LJ         -0.693271        -6.41529        -5.51135
LJ          -1.46392         5.18141       -0.618462
LJ           4.00229        -5.84021         1.80631
LJ         -0.877636        -1.87149         1.79592
LJ          -3.48067         4.57963        -1.95828
LJ          0.478072        -6.16682       0.0457499
LJ          0.535135      -0.0110353        -5.33268
LJ           1.10739        -2.34526         1.79199
LJ          -4.31717        -1.17227        -2.53653
LJ          -1.81189        0.638798        -3.00327
LJ           4.68411         1.42711        -1.01449
LJ         -0.570258         3.73682       -0.513349
LJ          -4.49722         2.20571        -1.35186
LJ          -2.52035        -2.78418         5.79118
LJ           0.77717         3.44811         -4.3872
LJ         -0.188031          1.4259        -0.59409
LJ          -2.95336         0.54687         3.76065
LJ          -1.04136         2.14182        -1.16437
LJ           1.32479        -6.19433         -2.2558
LJ           6.19028         2.15868         5.27094
LJ          -1.64493         2.98782        -1.96149
LJ          -4.89698         4.15261       -0.956637
