108
#Comment!
LJ          -1.72462         2.52538         3.53811
LJ           -2.6001         6.11425        -4.43915
LJ            2.5341        -3.15892          5.1806
LJ           4.55911         4.32994         1.31984
LJ         -0.739862        -5.88289          3.1254
LJ          0.941201        -3.99647         2.23903
LJ           2.15588         5.41643        -3.24904
LJ           5.77342         5.47524        -3.63093
LJ          -4.48828         3.24782          4.1015
LJ          -4.63429         1.05297        -4.01795
LJ           0.28387        -1.73973        -4.91607
LJ           1.73134        -3.63574         -2.4182
LJ          -2.41362        -5.11117       -0.781292
LJ           5.25079        -4.05971         5.85884
LJ          -1.76713        -2.95038        -5.85497
LJ          -4.43191         3.97239        -2.38825
LJ          -1.70222        -5.10701         -3.8503
LJ           2.94455        -5.76998       0.0736223
LJ          -5.38846        -1.65849        -3.24907
LJ         -0.877689       -0.977953         4.77134
LJ          -1.31684         4.48651       0.0522438
LJ           1.41206         1.52502         1.38442
LJ          -4.05996       -0.172141        -5.04419
LJ          -2.31283        -0.43031        -5.36248
LJ          -1.61611         5.72291        -2.95569
LJ            4.7843        -6.15589        0.730676
LJ         -0.935908         3.67255         4.18409
LJ          -5.00561        -4.48407        -5.40349
LJ          0.519805       -0.534702         1.64404
LJ             5.232         2.78416         6.09483
LJ           5.98343         1.71691        -4.37745
LJ          -6.36031         1.00526         -3.2042
LJ            5.6698        -5.98852       -0.961576
LJ          -2.50232        -4.51842        -2.84333
LJ          -1.20076        -1.28607         3.80845
LJ           2.92174         6.14241        -3.85485
LJ          -6.00774        -4.35486         3.62677
LJ           2.29191         1.73905        -3.68001
LJ          -1.32644        -2.93462        -4.04901
LJ          -2.02295        -3.92878        -1.97671
LJ           3.16524          3.8606          1.1512
LJ          -1.81491        -1.98183        -3.96433
LJ          -2.08083       0.0927941         0.33402
LJ          -3.66487         3.35385        -2.44254
LJ            4.7668        -5.00948         6.16658
LJ          -2.74336         2.74683        -2.09939
LJ          -6.28258         4.83839         -4.5347
LJ          -1.92401         4.88788          -3.842
LJ         -0.373064         2.88324         5.67395
LJ            -3.372        -1.53374         2.17935
LJ           2.73055        -5.27307         3.35001
LJ          -3.83524         2.78361         5.05786
LJ          -3.78495        -2.59158        -6.35583
LJ          -5.41729        -1.71003        -5.87683
LJ           3.80929        -4.66276         5.58705
LJ         -0.372341        -6.06663         6.28845
LJ          -2.77456          4.0804         4.03554
LJ           4.84914         3.71679         4.74304
LJ          -2.85729        -3.88051         5.10117
LJ           4.47368        -5.59586        -4.54846
LJ            2.0239         4.13229         5.08592
LJ          -2.79443         5.54255        0.970726
LJ          -4.96986        -5.94122         5.27429
LJ           0.79041         2.73175       -0.595193
LJ           2.62445       -0.135503       -0.604056
LJ           1.07408        -5.38066         -1.3956
LJ           3.74321         4.08542         2.53171
LJ          -5.07232       -0.688935       -0.157706
LJ          -4.48661         -1.7506        -5.17688
LJ          0.451124         1.02959         1.82048
LJ           2.27404          1.5079        0.432902
LJ          -1.20139         5.87046         2.93053
LJ           1.92426         1.68637        -2.73847
LJ          -2.63049         4.02463        -4.31562
LJ          0.722154         5.99805       -0.974841
LJ          -1.05395        0.216951         5.14076
LJ          -2.00137        -3.98869        -3.74245
LJ          -5.05758        -3.87071         3.56193
LJ           2.41046          1.4329        -1.72672
LJ          0.699019         3.11549        -5.70483
LJ          -4.13414         5.54059        -4.49691
LJ          -3.00122        0.694741       -0.944501
LJ            -1.914         1.72632        0.541985
LJ           6.15436        -4.78128         5.16022
LJ          -2.90851         3.32598          6.1428
LJ           3.36754         -6.2092         2.27444
LJ           4.43977        -4.48539        -3.65415
LJ          -2.11805         2.69178         1.26876
LJ           2.10342        -4.90413        -5.93037
LJ            4.1583         1.91864         -4.1944
LJ           1.29795       -0.918024        -2.78438
LJ          -2.38888         -3.9687       -0.934749
LJ           5.70015        -2.56475         1.21438
LJ           2.84633        -3.04675        -5.81691
LJ           2.84221        -0.82455         2.18962
LJ            3.8804        -5.72634        -2.86295
LJ           4.66618         1.20888      -0.0260434
LJ          -5.38317         4.92571         -3.7916
LJ           3.09146        -3.92496          2.1676
LJ          -4.03584        -2.60013        -5.15466
LJ         -0.334278        -6.03992        -5.24765
LJ           1.73064        0.269232         1.04909
LJ          -4.32841        -1.16799         6.45764
LJ           3.10221       -0.420552         5.02621
LJ          -2.08953         3.90265        -5.14701
LJ           4.17318        0.468076          3.8434
LJ           4.02357         3.37272         3.18909
LJ          -5.85144         5.49812         5.22449
