108
#Comment!
LJ           0.60753        0.876453         1.05403
LJ          0.758464         3.54107        -1.71636
LJ           -4.7207         6.41289         -5.1025
LJ          -3.15573         1.67814        -6.20944
LJ          -3.71987         5.21133         4.74968
LJ          -2.84551        -2.50298         5.62566
LJ          -5.24171        -5.80882        -6.41434
LJ           1.66377       0.0929211        -5.40293
LJ          -2.34184         4.00423        -5.63082
LJ           5.55766       -0.804206        -6.07635
LJ           1.74046        -0.89182         3.04373
LJ         -0.271742        0.153119        -1.91509
LJ          -4.65339        0.129233         -1.6843
LJ          -4.82825         4.83274        -6.18009
LJ           4.30631        0.455109        -4.09589
LJ           3.07368         4.13495        -5.58417
LJ           3.48503        -3.20572          4.7188
LJ          -5.21472        -2.96456        0.346634
LJ           -2.1549        -2.08574        0.956311
LJ       -0.00798635        -1.46962        -1.62696
LJ          -3.75997        -2.39354         3.45455
LJ          -3.90227         4.70905        0.506325
LJ          -1.76343         1.98783        -4.17938
LJ          -3.54071         4.87067         6.09215
LJ          -1.75599        -3.54986         3.23268
LJ           4.44681        -2.33238         5.79052
LJ          -3.91447         1.32927         5.68875
LJ            2.0039       -0.907934         4.23325
LJ           3.73941        -3.14182        -4.13752
LJ           4.13685         2.93231        0.650021
LJ           -5.2163          3.1737         4.31162
LJ            6.1617       -0.585088        -4.60177
LJ           2.12324         1.95019         1.58771
LJ         -0.591294         1.85616         -3.9967
LJ          0.514364         2.00586         3.62485
LJ          -5.10822        -4.88962         1.60833
LJ          -2.92101         2.74243        -1.51745
LJ           6.44017         6.25828         4.49181
LJ          -4.84522        -2.29328         3.52702
LJ          -3.45914        0.691664        -4.95528
LJ           5.13414        -1.96076       -0.643599
LJ          -3.06415         2.05445         1.55146
LJ          -3.60209        -2.32158         6.45337
LJ           4.86793         1.22291         5.14687
LJ           1.51613        0.812538        -6.42686
LJ           2.95812         6.21101         5.95055
LJ          -5.17667        -2.45537         6.09616
LJ          -6.20966      -0.0503116       -0.936459
LJ          -1.13613         5.96511        0.413636
LJ          -5.17818        -5.34678        -5.11577
LJ          -4.50706        -2.09687        -0.56388
LJ          -1.20338         3.68074          2.2835
LJ          -1.92218        -1.42412        -4.64159
LJ           5.79534         3.02578        -3.89974
LJ           6.42755         3.23301         3.78022
LJ          -5.37937         4.85209         5.97196
LJ           6.05282        -4.83611         4.58178
LJ          -1.98297        -4.30495        -3.63238
LJ         -0.833099       -0.532281       0.0447417
LJ         -0.600692         3.34571        -3.59389
LJ          -3.24695          3.9906         -3.8387
LJ          -2.74669        -6.05713       -0.782727
LJ           4.71909        -4.78309          3.4009
LJ          -6.30797         4.52135         0.52426
LJ           4.13271         2.93016        -2.81403
LJ         -0.733569        -4.91916        -6.12818
LJ          -3.69562         3.15291       -0.247953
LJ          -2.54751        -1.19371       -0.128409
LJ           4.52833         1.19071        -5.69357
LJ          -5.12106        0.395581         5.02361
LJ           3.33986       -0.446995         5.37133
LJ          -5.84862         4.48297        -5.90319
LJ           5.61094        -5.03473        -5.83031
LJ          -4.50279         6.01032        -0.21086
LJ          -4.62935        -5.67916       -0.199202
LJ           2.53725         2.61404         2.97966
LJ            5.5412        -2.66967        -1.29591
LJ          0.926565         4.66436         2.58334
LJ           4.50336         3.08351        -4.14032
LJ          -3.97923        0.350687         2.51456
LJ          -3.07641        -3.37258         -3.9131
LJ           4.59388        0.765839        -1.00619
LJ         -0.214682        -5.38439         1.72126
LJ          -5.08886         3.81893         5.25664
LJ          -2.66184         5.81928        -6.04512
LJ           2.49984         4.33341         2.69497
LJ           5.21452         3.48015       -0.487311
LJ          -4.56971        -1.87489        0.667422
LJ         -0.869403        -1.09571        -4.34789
LJ          -2.38701         5.85557         5.11806
LJ            3.8973        0.149773        0.047181
LJ          -1.80052         1.80475        -5.65641
LJ          -4.69043        -4.23609        -5.10971
LJ           4.57589        -2.28823        -4.31462
LJ          -4.70555         -4.6027         5.79302
LJ            5.8048        -5.08765         3.24322
LJ           2.45567         3.95767         4.19454
LJ          -4.72559        -5.78751         3.32368
LJ          -1.84757         4.34974        0.248967
LJ          -5.95618         6.32638         3.42739
LJ          -5.10601         4.63296       -0.215551
LJ          -4.64619        -1.77493         1.99694
LJ          -2.36508         2.02211       -0.447647
LJ          -6.01939         2.14685        -5.14327
LJ         -0.915066         1.78508        -1.38981
LJ          -5.88806         5.67071        -3.79792
LJ           1.63384        -1.36063        0.968039
LJ           -2.4265        -3.76452         -2.4882
