108
#Comment!
LJ          -2.23428         3.02686         6.20885
LJ          -5.07835        -4.62434        -2.85249
LJ            4.2938        -1.20985        -4.75573
LJ           1.23148         2.87311        0.648168
LJ          0.253216        -6.40457         3.74112
LJ           3.42468        -4.13037       -0.110876
LJ           2.31443         4.10666       -0.773663
LJ           3.29528         4.37249        -5.51017
LJ           -6.4084         5.41749      -0.0552651
LJ          -2.08166        -2.54907        -4.00321
LJ         -0.907179        0.236063         5.48689
LJ          0.353923         6.24505       -0.607366
LJ          0.275325         5.13407       -0.523357
LJ           5.11049        -2.55382          6.4138
LJ          -1.44187         5.92443        -5.72481
LJ           3.14115        -4.44357        -1.44277
LJ          -4.90812           5.495        -2.16334
LJ          0.432914        -4.53233        -1.28497
LJ           -4.7064        -1.75464       -0.790917
LJ          -4.16332        -5.52409         5.19901
LJ          -1.32137         2.73059        0.536178
LJ         -0.191831        -3.15637        -3.55697
LJ           5.74498         3.37193        -3.69769
LJ          -3.31724         2.61161        -3.80088
LJ          0.615983        0.647733         5.86227
LJ           3.11761          5.1046        -2.52577
LJ            4.6073         4.54282        0.182839
LJ         -0.111092         -1.3282         -2.1841
LJ          -3.10327        0.775082        -1.48418
LJ          -5.45862          -2.164         5.34523
LJ          -4.48983         2.96765        -1.45171
LJ          0.611715         3.87651        -1.49126
LJ          -4.30885        -5.50656        -1.67997
LJ         -0.435292         4.17856        -2.55267
LJ           4.87313        -2.14767         1.06429
LJ           3.25165         3.77784        -3.79363
LJ           5.25313        -1.83898        -5.90896
LJ            0.1444         2.84164        -4.03945
LJ         -0.127924        -6.39035         5.51736
LJ            -1.335        -5.65967        -1.27877
LJ           4.11134         2.02819         4.05866
LJ          -3.03059        -1.33879        -5.11969
LJ          -2.56687        -1.70642        -1.42271
LJ          -4.43112         1.97536         -1.0078
LJ           5.21224        -2.82317        -5.28907
LJ          -3.70864         1.71311        0.174124
LJ           4.35725         3.98372        -4.86716
LJ          0.586341         3.50893       -0.386351
LJ           3.32417       -0.881335         2.38619
LJ          -4.55959        -1.23978         3.26356
LJ           1.61317       -0.235228         3.39985
LJ           4.96875        -6.35699         -4.8295
LJ           4.84561        -5.32147        -4.41682
LJ          -6.17587        -1.37827        -3.55263
LJ           4.65787        -2.06599        -4.18873
LJ           1.02189         6.32442        -2.28039
LJ          -2.67667         2.59093         2.34369
LJ         -0.246835        0.523417         2.70738
LJ          -1.83803         1.18466         3.35676
LJ          -4.95348         4.28983        -2.06389
LJ           2.23791      -0.0759532         2.36413
LJ          -1.11616        -5.42941      -0.0155648
LJ          -5.78076        -5.31367        -6.31499
LJ          -5.57625         1.77437        -1.95719
LJ           1.01052        -2.26696         1.07696
LJ          -2.86868        -4.56238       0.0733397
LJ           1.72436        -4.88787        -1.88284
LJ           4.96896       -0.864925         5.25422
LJ            5.5324         2.15316       -0.473201
LJ          0.694306        0.779859       -0.603058
LJ           3.47402         2.50544        -1.85827
LJ         -0.502413         5.53663        0.321827
LJ           6.20684         2.72332         2.11083
LJ         0.0100459        0.107579        0.426142
LJ           6.35529        -4.09963         5.00173
LJ          -5.74219        -2.73893         6.14644
LJ           -3.3023         5.49798        -5.48935
LJ          -2.00255        -3.48641         4.13303
LJ           4.44066        -2.79791       -0.687018
LJ           3.62373        -5.29168          1.5968
LJ           5.40703        -4.65794         -5.7499
LJ          -1.74844         1.52188        -2.35284
LJ          -2.85794        0.879248        -2.83107
LJ            6.4167         -3.5786          4.1935
LJ          -1.49403         6.00439        -4.21267
LJ          -1.90591        -4.18015        -4.01941
LJ           5.82865        -5.10792        -3.72608
LJ          -0.04472         6.37171        -2.55658
LJ           4.03442        -2.49499         5.70342
LJ          -4.64733        0.105476        -1.80918
LJ           0.15917         1.49771        -2.87774
LJ           1.03654         5.05804        -1.21615
LJ           2.75615       -0.480308        -2.58895
LJ           -6.3163       -0.684447         4.26525
LJ          -1.48124         3.61291        -1.57403
LJ          -6.26702        -2.59724        -2.81974
LJ           6.26854        -1.61699         4.78242
LJ           -1.1482        0.365483         1.71279
LJ          0.178328        -1.48064        -6.17253
LJ          -2.67883        -2.02622         6.23991
LJ          0.866831          4.7162        -2.29197
LJ         -0.163799         1.40114       -0.359541
LJ          -3.99854        -6.11539        -5.11218
LJ           6.40121        0.256866         1.78541
LJ         -0.658759         4.29511        -3.73478
LJ           5.63663         1.01628         4.67305
LJ           5.27342        0.881282         2.71208
LJ          -5.57802         5.12333        -5.88277
