108
#Comment!
LJ          -1.77369         2.96873          4.9841
LJ          -4.09362        -5.71222        -2.83579
LJ           5.44992        -2.29298         6.31142
LJ           2.48849         3.44599         1.41765
LJ         -0.879691        -5.38173         4.68312
LJ           2.40646        -4.01263        0.985509
LJ           1.34392         5.30067        -2.15082
LJ             4.447         4.60221        -4.74619
LJ          -5.79054         4.83737         2.09205
LJ          -3.28241        -1.96718        -4.93699
LJ         -0.417979       -0.573591        -6.40661
LJ           1.70431        -5.33937        -1.71858
LJ         -0.907274         6.08577       -0.189661
LJ            4.6403        -3.75077         6.10294
LJ          -1.62644        -5.50345         6.46215
LJ           5.68063        -5.80778        -1.84946
LJ          -4.15056        -5.67924        -4.04362
LJ            1.2292        -4.69304       -0.369736
LJ          -5.44879        -2.94665        -3.16835
LJ          -3.12674         3.88356         5.08699
LJ          -1.84847         4.22033       -0.698761
LJ           1.15939        -1.24623        -1.81042
LJ          -5.50576         3.27577        -3.06407
LJ          -2.97167         1.44995        -4.51845
LJ         -0.127586         3.09185        -5.79136
LJ           3.92683         5.84152        -1.15802
LJ           2.80242         4.67934         2.55532
LJ          -2.14459        -2.67575        -3.34911
LJ          -2.71371        0.258138       -0.753679
LJ          -5.59482       -0.610332         6.11512
LJ          -5.82384         2.11851        -3.53724
LJ           3.64937          2.1782         -2.5537
LJ          -5.76757         4.77931        -2.21888
LJ          -1.72549          4.9173        -1.51105
LJ           2.33323        -1.77173         2.13848
LJ           2.31874         4.02698        -3.80412
LJ           6.15552        -2.69161        -1.79905
LJ          0.956625         3.16016        -3.87948
LJ         -0.511948        -4.78663        -5.99148
LJ          -1.22839         -5.6458        -1.60786
LJ           4.39087            2.41         3.37439
LJ          -3.08538       -0.911698        -4.39159
LJ          -2.63945        -1.24293       -0.674813
LJ          -3.98991         2.24845        -1.66613
LJ           5.08607        -4.55471        -6.17808
LJ          -3.71469         1.97105       -0.668757
LJ           5.46324         4.20603        -4.89663
LJ         -0.240588         3.69863        -1.82843
LJ           2.17654        0.911727         3.81913
LJ           -3.7313        -1.35501         4.25639
LJ            2.9737        -1.80841         3.97472
LJ          -5.82206         5.48717        -6.30752
LJ          -6.43135        -3.61371        -5.09348
LJ          -4.69668        -1.11072        -6.46088
LJ           5.48591        -3.27347        -5.35432
LJ          0.575913         5.87881        -2.86624
LJ          -2.30024         3.61308         2.72755
LJ           1.94844         2.62898          2.6986
LJ          -2.64046        -1.57164         4.05911
LJ           6.01183         4.83459        -2.54773
LJ           2.88969         1.68466         2.35711
LJ          -1.95244        -6.30902        0.358627
LJ          -6.29009        -4.84391        -5.89444
LJ          -2.52614         1.40089        -2.16781
LJ         -0.157623        -0.40427       -0.144455
LJ          -1.17099        -4.27759       -0.284718
LJ           2.07732         6.22063        -5.82611
LJ           6.07403       -0.925943        -4.62277
LJ          -6.11637         2.76655        -2.48985
LJ          0.863957        0.817218         1.11861
LJ           3.22065         3.05594        -1.20709
LJ          -1.16081         5.45012         1.59896
LJ           3.48581          1.7426         1.01716
LJ          -1.77164         1.93162       -0.721355
LJ           4.16937        -5.58764        -4.89996
LJ           -5.9526        -1.56163        -6.44085
LJ          -2.28373        -5.67405         -5.2497
LJ          -3.33259        -3.74055         3.86747
LJ           3.90868       -0.753345       -0.668472
LJ           2.77092         5.37993        -1.14989
LJ           6.37281        -6.20892        -4.98377
LJ         -0.835453        0.622263        -1.57957
LJ          -1.37691        0.527016        -0.39724
LJ           6.09914        -3.63986         5.12575
LJ          -2.04249         4.84256        -5.40193
LJ          0.167357        -5.11987        -1.70095
LJ           6.38524        -4.72441         -4.0428
LJ         -0.738964         5.18919        -1.24071
LJ            3.3394        -2.72048        -6.44507
LJ            6.3429        0.567612        -3.17879
LJ          0.722369        0.465723        -3.01325
LJ         -0.587275         -6.0161       -0.817509
LJ           3.87362         -1.7784        -1.52773
LJ           4.34251        -1.07463         4.50557
LJ          0.342906        0.997008       -0.615245
LJ           5.30624        -3.78818        -2.67788
LJ           5.77557        -0.80538         2.69937
LJ          -3.21258         2.87723       -0.317369
LJ           1.15462        -2.49882         4.89089
LJ          -3.14195        -2.15909          -5.941
LJ          0.607615         6.02977        -4.29297
LJ          0.304472         1.65634        0.256915
LJ          -4.64613        -3.87393        -4.58108
LJ           4.67678       -0.521536           3.723
LJ        0.00451453         3.46366        -3.96271
LJ           4.98939         1.30921         4.20981
LJ           3.89623         1.11325         2.87657
LJ          -5.52862         4.88068          5.5555
