108
#Comment!
LJ          -3.93405         3.90325        -3.14801
LJ           5.45249        -3.08746        -2.91622
LJ           5.73008      -0.0736158        -1.98625
LJ          0.722723        -2.76476        0.876461
LJ           2.90575         4.11098         1.90495
LJ           0.76585        -5.46977        -2.26024
LJ           4.15797        0.391052         1.72397
LJ           3.34207         3.50583         2.60322
LJ           5.10549         5.57526        -5.28006
LJ        -0.0511502        -6.16296        -3.94139
LJ           -4.1109         2.11696         3.19899
LJ          -2.04474         5.47346        0.115441
LJ           1.77638          5.6047         -0.2361
LJ           3.32287           -5.59         2.12694
LJ         -0.167507         1.84837        -5.14614
LJ           1.95739       -0.480578        -2.42849
LJ          -6.10875         1.57836         4.49295
LJ           2.50228       -0.748511        0.337886
LJ          -2.25518        0.766234          4.6142
LJ         -0.840284         6.39489        -6.07446
LJ          -1.68452        -1.05336          3.1897
LJ          -5.31204        -4.81856        -6.18586
LJ           1.24159         2.40126        -6.44335
LJ          -3.11469         3.60269       -0.553273
LJ       -0.00305842        -4.94887         2.64941
LJ           0.57268         3.77895        -5.77683
LJ          -3.74126         5.29128        -5.42461
LJ            5.3678         1.56653         2.18482
LJ          -2.96069        0.977134        -4.72764
LJ          -4.16029        -2.60249         4.59518
LJ          -3.02687         4.41578         2.46725
LJ          -3.93726        -2.88603        0.413007
LJ        -0.0953167         2.53882       -0.154877
LJ          -1.06119         2.55199        -4.15898
LJ          -2.24682        -2.00392       -0.543016
LJ          0.287616         4.76885        -3.97194
LJ           2.66983         4.02759        -5.39658
LJ          -4.00231         2.85257        -2.36971
LJ           1.10443         2.80784         1.71265
LJ          -3.81803        -6.25761        -2.69065
LJ            4.6745         3.79082         3.87017
LJ         -0.284385        -2.90714         5.70673
LJ          -3.07111        -3.04976        -3.02411
LJ           -5.8447         2.98446        0.307237
LJ           2.43715         4.47176        -4.22638
LJ          -5.75345          1.9215        0.135185
LJ           3.50797         3.14325         3.71865
LJ           4.37415        0.566739          3.1157
LJ           3.74341        -3.72139        -2.03667
LJ           5.32633         0.24917         1.16087
LJ          0.449615       -0.727986          6.0658
LJ           4.66218         -5.9003         -1.2699
LJ           2.83974         -2.8426        -4.08866
LJ           1.34597        -1.74005        -1.10685
LJ           5.19229        0.893132        -2.39556
LJ         -0.387579         6.33218        -2.86855
LJ          -2.25219       -0.608706         2.24063
LJ          -1.11227        -1.91214        -2.31928
LJ         -0.677606        -5.32614        0.332069
LJ          0.833243         2.05788        -3.98226
LJ            1.6557        -4.16595         2.78513
LJ          -1.83102        -2.75448        -3.14808
LJ           6.38899        -4.69004        -3.93377
LJ           2.87693         -6.0858         0.49736
LJ             6.035        -4.39929        -6.41104
LJ          -6.27297         -5.5232        0.533541
LJ          -2.17612        -4.32582        -6.11941
LJ          0.208528         2.49175         5.31668
LJ           2.49522        -1.37904         3.87556
LJ         -0.925944       -0.595349        -3.63058
LJ           4.10861       -0.976908         1.55159
LJ           1.28574        -6.18037        -1.33508
LJ          0.210825         4.81536         4.17635
LJ           6.37917        -1.92079      -0.0289861
LJ          -3.28803        -1.77165         4.99181
LJ          -1.74157         6.10122         6.30127
LJ          -4.09657         2.41338         6.17801
LJ           1.70567        -2.80005         3.66218
LJ          -5.98732         6.17032        -1.05222
LJ           4.96217        -2.51914         4.95807
LJ           4.95337         1.40321        -4.81599
LJ          -5.88588         2.60064        -4.35651
LJ          -4.74901         2.69636        -3.42446
LJ           4.70962       -0.589997         -2.9106
LJ           1.18608        -5.80099        -0.11169
LJ          -5.06351        -2.19331         2.69343
LJ          0.679035        -5.91283        -4.90356
LJ         -0.496283        -6.24843        -1.33461
LJ           4.09679        -5.42017          3.3482
LJ         -0.886905        -1.45807         1.11015
LJ          -2.65988         4.25923        -2.35334
LJ          0.615446         5.56783        0.218203
LJ          0.838406        0.742987        -4.53901
LJ         -0.562165        -2.22819         2.30812
LJ          -3.83574        -2.32725        -1.91241
LJ          -2.78812       0.0372424         -3.2245
LJ           5.24627          1.0707        0.307531
LJ          -0.63337         5.77319       -0.485971
LJ          -3.16266         1.28022        -2.04825
LJ          -2.46856        -2.26021         5.93558
LJ           1.37111         4.93276        -4.14864
LJ         -0.774679         1.34435        -1.13867
LJ           -2.7516         1.86067         4.63431
LJ          -2.48348         1.83617       -0.130468
LJ          0.740883         6.19421        -2.18964
LJ           5.95172         2.04433         5.38531
LJ          -1.77039         1.85238       -0.942404
LJ          -5.25786         4.85191        -2.10882
