108
#Comment!
LJ          -3.36293          3.4463        -4.47082
LJ           6.19295        -3.55871        -2.89858
LJ           4.80083       -0.304264         -2.2963
LJ          0.618409        -0.91484          0.9307
LJ            2.2036         4.93402         2.52782
LJ           1.97552        -5.10635        -2.33483
LJ           3.48169         1.33303         1.21835
LJ           3.12516         3.04707         5.24594
LJ           5.44486         5.66451        -3.68102
LJ        -0.0926659        -5.29042        -4.05211
LJ          -2.62641         1.40735         3.88892
LJ           -1.7053          5.6882        -0.21227
LJ           1.80061         5.48799       -0.470588
LJ           4.04821        -4.92055         3.30758
LJ         -0.572573         3.48425        -5.65126
LJ           1.61136         -1.7302        -1.32659
LJ          -5.78865         2.88592         2.50168
LJ           2.81201        -1.68491        -1.36099
LJ          -3.38849        0.216925         3.08447
LJ          -2.22291        -5.43296         6.19772
LJ         -0.928095         0.04031         2.46125
LJ           -3.7204        -4.47966         -5.4206
LJ           2.37433         2.73397        -5.25959
LJ          -3.40408         3.61349        -1.58336
LJ           0.51349        -3.29435           3.123
LJ           1.29937         3.44893        -4.37486
LJ          -5.02717          4.5656        -3.83991
LJ           3.50273         1.11867       -0.050323
LJ          -3.09182        0.557388         -3.7165
LJ          -4.26543        -3.17152         5.08927
LJ          -3.36033         4.05385         1.32722
LJ          -4.53997       -0.862892       -0.434341
LJ          -1.96151       0.0815718       -0.584552
LJ          0.615118         2.67815        -4.06191
LJ          -4.01332        -2.58072       -0.573208
LJ          0.565405         4.95033         -3.7081
LJ           3.29317         1.95783        -5.98511
LJ          -2.76911         2.61375        -3.14082
LJ          0.636139         3.88182         2.88047
LJ          -3.30606        -6.24804        -1.75915
LJ           4.52986         2.78389         3.87564
LJ         -0.856341        -2.74567        -6.45788
LJ           -2.5272        -2.26989        -2.85432
LJ          -5.67344         2.58606        0.101808
LJ           3.47673         3.05913        -5.43891
LJ          -5.03622         1.80685       -0.487964
LJ           4.06337         3.82399         5.38887
LJ           2.95192          1.8535          2.2804
LJ            3.6099        -3.06791       -0.334895
LJ          -6.30797       -0.865849         1.64048
LJ          0.682112        0.298914         5.22998
LJ            3.8985         6.02325        -2.39981
LJ           3.11327        -3.66148        -3.70514
LJ           2.07878        -2.05309       -0.476123
LJ           5.23297        0.018909        -3.24836
LJ          0.385099         5.95348        -3.12547
LJ          -2.42278        0.612316         2.00066
LJ          -1.58485        -1.50766        -4.76616
LJ          -0.90515         5.55451         1.32658
LJ         -0.811405          2.1664        -2.65926
LJ           2.32318        -2.76529         1.22145
LJ          -1.33131        -3.66222        -2.05057
LJ          -5.97495        -4.84155        -4.94175
LJ           4.23127         5.17576       -0.210603
LJ           4.35886         -3.8215         4.39519
LJ          -5.32011        -5.36884        0.209316
LJ         -0.682304        -4.67231         4.59181
LJ            1.2482         1.21421         5.09255
LJ           3.43846       -0.329398         2.69314
LJ         -0.717755     -0.00552188        -2.67982
LJ           4.15162      -0.0768016        0.601289
LJ          0.691953          5.8014        -0.38111
LJ          -1.94651         4.19303         3.55363
LJ           4.54281        -1.16208        0.234839
LJ          -4.29957        -2.65457         3.98436
LJ          -3.36539         -5.5122         6.02552
LJ          -4.10058         2.98287        -5.54645
LJ          0.351862        -2.92331         4.44182
LJ           6.17432        -5.47322       -0.669902
LJ           4.84889        -2.44484         5.34752
LJ           5.03721         -1.3767        -5.67474
LJ          -4.99871         2.11721        -3.51716
LJ          -4.09094         2.66861        -4.42275
LJ          -5.83994       -0.671679        -1.29584
LJ          0.269334        -5.71671       -0.879972
LJ          -4.70518        -1.92009         5.14805
LJ             2.304        -5.49855         -4.0354
LJ         -0.192614        -5.93402        -2.39969
LJ            3.6659        -5.00644         4.43615
LJ          -1.33973       -0.773505        0.259287
LJ           -1.4442         3.82334        -2.59796
LJ           0.90258         4.75526       -0.122991
LJ          0.965737         1.71119        -3.98118
LJ          -2.28437        -2.07307         3.04996
LJ          -3.11649        -4.21238        -1.96896
LJ          -3.94174        -0.66431        -3.35315
LJ           5.87005        0.231551         2.24794
LJ         -0.792892         -4.5188        0.062865
LJ          -1.61426        0.323067        -3.09177
LJ           -2.3899         -1.8182         6.00083
LJ           1.37773         5.90397        -4.14094
LJ         -0.639866        0.839635        -1.16153
LJ          -2.67676         3.44871         5.59841
LJ          -4.14911         1.66988        0.673142
LJ          -0.13377         5.32229        -2.00118
LJ           5.94352         1.70368          5.2379
LJ          -3.18259         1.17746        0.464679
LJ          -5.48074         5.54442        -3.18953
