108
#Comment!
LJ           5.03274         4.30444        -4.01951
LJ             2.257        -2.92918        -3.30077
LJ            6.2191         1.97698        -1.00375
LJ          -2.57116        -5.99712        -1.90942
LJ           2.71073          5.9991         -4.9878
LJ           3.48325        -3.00211        -4.24151
LJ          -5.37152        -3.00543         4.14992
LJ           4.39405         2.05501        -2.62083
LJ          -6.44008       -0.279307      -0.0316693
LJ          -2.96467        -4.24115        -6.28371
LJ           4.82069          5.6949         2.58572
LJ          -3.43103         4.50819         3.61743
LJ          0.761659        -6.36533        0.656013
LJ           2.67713         6.46081        -1.76815
LJ           1.32177        -4.99031        -3.30784
LJ           4.33175         2.58664        -4.10299
LJ           4.73107        -1.22064        -1.57322
LJ          0.720248          1.7904         5.67254
LJ         -0.884474       -0.707613         5.71632
LJ            2.4996         2.50335        -5.79402
LJ          -4.81911        -1.83761          5.4001
LJ          -6.00083         5.12924         2.74377
LJ          -3.74071         2.55748         1.74635
LJ          -2.56248         2.92976         0.98289
LJ         -0.578263         3.50124         1.29884
LJ          0.147902         3.32863         5.51699
LJ           1.34059        -5.75233         3.64994
LJ            5.3396        0.911347        -5.39448
LJ           -1.7867          2.5162         4.32264
LJ         -0.787754         1.01949         3.34188
LJ          -1.62953          5.6693         6.30229
LJ          -1.52139          3.2379         3.74267
LJ             4.072        -6.27593        -1.58449
LJ          -1.98295         1.80585        -2.66854
LJ           2.12916       -0.877833        -1.51392
LJ          -2.51549         4.70809        -3.45755
LJ          0.136094        -3.96174        -2.19442
LJ           5.23277          4.4379        0.826084
LJ             2.451        0.139396        -3.09214
LJ          -5.29323        -6.43434        -5.71617
LJ           3.31629        -6.04162         4.43763
LJ          -1.69746        -2.89879         3.30598
LJ          -4.58612        -5.12079        -2.00254
LJ           6.22106         2.72894         2.18832
LJ           3.47615        -4.69683        -4.00535
LJ           4.65181         2.65762         1.05878
LJ           4.29338         3.24308         2.86309
LJ          -4.27718        -2.53851         4.64362
LJ           5.03194        -4.99501         5.47857
LJ           2.30787         4.92583        -0.80855
LJ         -0.529589        -2.23197        -3.85844
LJ          -5.91819        -3.51577         3.41578
LJ           1.87991        -0.23265        -5.07461
LJ         -0.465129       -0.365805        -3.75133
LJ          -6.05161         1.58894        -1.79415
LJ          -2.70268         6.43441        0.511371
LJ          -1.32629        -4.46807         3.68374
LJ           1.04689        0.195011         2.34313
LJ        0.00283234        -5.89672         2.27958
LJ             4.835         2.73825         6.04121
LJ         -0.333503         5.67157        -6.03438
LJ           -4.0284        0.964986        -4.74444
LJ            5.4666        -3.95409        -1.30978
LJ           1.75575        -5.92136         1.12396
LJ           6.15377        -4.97687         3.31924
LJ           4.02807        -4.39978         2.89431
LJ          -5.83961        -2.26927         1.29632
LJ           3.38211         3.52048        -5.70617
LJ           1.72419         5.52986          5.7861
LJ          -2.43834        -2.63034        -5.69729
LJ          -5.47227        -1.95411         3.46192
LJ           1.08213         -3.7462        -0.14647
LJ          -5.33647        -6.41302         4.26332
LJ          -1.73351         -4.6185         6.45749
LJ          -3.85296         -3.1869         3.82149
LJ         -0.963515         4.62765        -6.41282
LJ          -4.04536         0.27005         2.28575
LJ           3.28233        -2.19009         2.91035
LJ          -5.17235         4.23056        -3.33234
LJ           5.95002        -2.45557         2.93791
LJ          -1.13585        -4.99022         5.01884
LJ           6.37142         4.29098        -5.66908
LJ          -4.38863         3.17815        -3.13859
LJ         -0.260082         -1.0968         2.84933
LJ           2.37792        -4.32092         1.39724
LJ          -4.96149        -3.34355        0.111255
LJ          -5.14717        -5.35758        -4.67771
LJ           -1.1394        0.491608        -2.74357
LJ          -6.40804        -5.04989        -1.52006
LJ         -0.747989        -4.25855         2.87794
LJ          -5.42802          5.1317        0.554099
LJ           2.00079        -3.13599        -0.21926
LJ          -1.31264        -2.59084         -5.5631
LJ           6.35353        -2.83511        0.951082
LJ          -4.81212         1.88195         -5.3743
LJ          0.869714         2.21707        -2.64649
LJ           2.55829         2.94725        -3.69242
LJ         -0.500833        -1.49229        -2.89879
LJ          -6.31193         1.81245         1.56058
LJ          -2.49869        -3.18939         5.82072
LJ         -0.116363         1.38465        -2.37764
LJ           2.23222         2.69546        0.519886
LJ          -2.84718         -3.9416         3.94823
LJ          0.231854         5.77603        -3.96767
LJ           1.95638        -4.24726       -0.423743
LJ          -4.81006        0.344879         4.92499
LJ          0.338553         4.04729        -1.62894
LJ           6.02642         1.83172         2.63467
