108
#Comment!
LJ          -1.86471         3.05116         3.86043
LJ          -3.18146          6.2692        -3.81049
LJ           3.80835        -3.03126         5.45282
LJ           3.98471         4.30357         1.32753
LJ          -1.32862        -4.95968         4.00534
LJ           1.35781        -4.00162         1.81655
LJ           1.66456         5.31927        -2.81749
LJ           5.74594         4.95488        -3.83933
LJ          -5.07889         4.04951           3.849
LJ          -4.29417        0.119584        -4.24953
LJ         0.0735884        -1.34952        -5.40738
LJ           1.75457        -4.13217         -2.2693
LJ          -2.03324        -5.91116       -0.706427
LJ           4.98355        -4.34787         5.39779
LJ          -1.53722         -3.7203        -6.17001
LJ          -5.08555         5.30414        -2.13623
LJ          -2.60079        -5.49427        -4.06485
LJ           2.57161        -5.21874       -0.160287
LJ          -5.65238        -2.59958         -3.8187
LJ          -1.64054        0.493681         4.84024
LJ          -1.66483         4.51041       -0.346753
LJ           1.82991        0.848677        0.260022
LJ          -3.76477         0.18697        -5.36739
LJ          -2.72972        0.261628        -5.08149
LJ         -0.976168         5.27252        -3.96364
LJ           4.51495        -6.45177        0.142479
LJ          0.615905         4.02464          4.2296
LJ          -4.09823        -3.94243        -4.67678
LJ         -0.301524       -0.360194        0.763942
LJ           5.88816         1.70044         6.09633
LJ           6.03274          1.7662        -4.05526
LJ            6.1756         1.35233        -3.12276
LJ           6.05373         6.10101        -1.23241
LJ          -2.26342        -5.74178        -2.22799
LJ        -0.0529529        -1.42919         3.29545
LJ           2.86845         5.51755        -4.02278
LJ          -6.22599        -3.80355         1.85789
LJ           1.88673         2.10597        -3.80247
LJ           -1.0198        -3.40812        -4.95849
LJ           -1.7893        -4.28727        -2.02704
LJ           3.42355         3.13267         1.79539
LJ          -2.08449        -1.66402        -4.01914
LJ          -2.33184      -0.0332933      -0.0748075
LJ          -3.74042         2.93591        -2.24477
LJ           5.02031        -4.96816         6.29842
LJ            -2.999         2.43639        -1.55643
LJ           6.40638         4.53361        -4.80165
LJ          -1.34284         4.16692        -3.35927
LJ          0.349417         2.49875          4.8563
LJ          -3.65679         -1.4606         3.25844
LJ            2.9928         -4.1557         3.68114
LJ          -4.43814         3.57208         5.67462
LJ          -4.77179        -2.96563        -6.26265
LJ          -4.75051        -1.88925        -6.40496
LJ           4.36934        -4.05936         6.36773
LJ         -0.503459         6.43958        -5.61532
LJ          -2.25944         3.92018         3.52513
LJ           4.10317         3.48552         3.88266
LJ          -2.26529        -3.86888         4.62113
LJ           4.94324        -6.36742        -3.92655
LJ           2.17341         3.16527         4.24296
LJ           -2.5753         5.88577        0.861757
LJ          -5.77775         -4.9029         6.29861
LJ         -0.198896         2.28026        -1.20029
LJ           1.33969       -0.115411       -0.589792
LJ          0.423945        -4.91218       -0.972594
LJ           2.81116         4.67248         3.74867
LJ           -5.6444       -0.798665        -1.58365
LJ          -5.45274       -0.037943         -4.1626
LJ          0.485536         1.16389         1.92037
LJ           2.73591         2.30734      -0.0691372
LJ          -1.38068         5.40359         2.69609
LJ           2.27615         1.75239        -1.64377
LJ          -2.70883         3.28874         -3.1147
LJ           1.88755        -6.36637        -2.17541
LJ          -3.28877       -0.131546        -6.20571
LJ          -2.00982        -4.30335        -4.18319
LJ          -4.54067        -3.86339          3.6615
LJ           3.11382        0.560825        -1.41108
LJ           1.41882         3.71908         -4.2008
LJ          -4.92388         5.92989        -4.69201
LJ           -2.2609        0.394386        -1.01652
LJ          -1.73201         1.16346        0.387448
LJ           6.40313        -4.47018          5.7685
LJ             -2.62         3.82845        -6.33744
LJ           2.19102         -6.0985         1.11402
LJ           4.98432        -4.55485        -3.63952
LJ          -1.45377         3.35709        0.665719
LJ           2.42618        -4.23138        -6.05618
LJ           4.94928         1.49228        -4.12047
LJ           1.10687       -0.479324        -2.88602
LJ          -1.84684        -4.43147       -0.760863
LJ           5.10918        -2.33227        0.318836
LJ           3.05802          -2.314         6.37367
LJ           2.14202       -0.524192         1.45508
LJ           4.38066        -5.00495        -2.83101
LJ           5.04163        0.552986        0.847446
LJ          -5.39803         4.38773        -2.86623
LJ           2.41081        -3.38118          3.0403
LJ          -3.80843        -2.27991        -5.71468
LJ           0.42867        -6.11487        -4.80864
LJ          0.726833        0.367282        0.649735
LJ          -4.19289        -1.16133        -5.62083
LJ            3.5728        -0.51466         4.61554
LJ          -1.39721         3.69426        -4.54386
LJ           4.48794        0.806344         3.91495
LJ           4.16274          2.5948         3.31101
LJ          -5.66383         5.08074          4.7895
