108
#Comment!
LJ          0.168186         5.85071        -5.29647
LJ          -3.77672        -5.43004        -4.22206
LJ          -3.64038        -2.26559        0.363803
LJ            3.5575        -3.10393        -4.21644
LJ         -0.890079         3.52089         4.35948
LJ          -5.12057        -1.86171          6.1591
LJ            1.0292        -2.64496         5.75849
LJ          -3.23891         1.74409       -0.487777
LJ          -1.62722        -5.52368         6.30194
LJ           3.59396        -2.39409        0.251937
LJ        -0.0892905        -6.37055        -2.51986
LJ         0.0763764         -1.4635         1.25269
LJ           -3.3161        -3.64057         2.62438
LJ           1.37622         3.89296        -4.89801
LJ           -5.5599         -3.8913         1.73838
LJ         -0.857887         4.03377         1.20625
LJ          0.904169       -0.341986        -2.05532
LJ          -3.53238       -0.460351        -1.64698
LJ           5.51797         0.19154          3.4009
LJ          -5.07096        -2.95445         4.88766
LJ          -2.28229         4.33891         5.76232
LJ           6.39963         5.58932        -1.47201
LJ           1.54699         3.00145         2.88091
LJ          -3.61254        -3.65881        0.331695
LJ        -0.0549513        -2.28893       -0.203026
LJ           -1.1926        -3.13793          1.3555
LJ            4.2914        -3.55157         5.40281
LJ           2.80662         1.48171         5.40396
LJ          0.518677        -4.41229         3.96597
LJ          0.564366          1.8615         1.32103
LJ          -1.53772        0.410623        -6.19304
LJ          0.363237        -6.10966         -3.3898
LJ           1.03032         6.06719        -6.14977
LJ           1.23664        -3.68111         6.12816
LJ          -5.35861        -5.90447         6.44654
LJ            5.3345         4.34651         5.37647
LJ           6.40894        -1.86507        -4.35001
LJ         -0.789322        -1.06153        0.770798
LJ          -3.91271        -5.69266        -1.62799
LJ          0.135165        -5.04205        -5.66999
LJ           4.52237         0.86579         3.37669
LJ         -0.971238         6.32611         3.27858
LJ          -5.31639         4.05791        -2.99956
LJ            1.5062        -2.19046          2.4159
LJ          -2.69605         4.24338        -4.96115
LJ          -1.22256         1.88485        -3.63066
LJ           -5.3758         1.85315          4.4376
LJ          -6.00077        -2.25176         6.01695
LJ          -1.46864        -2.87315        -1.33942
LJ          -4.35591        -1.29459         2.43818
LJ          -6.06211        -5.31986        -5.07463
LJ          -1.68829         4.18706         3.49641
LJ           -1.8852         2.67887        -4.13861
LJ         -0.895957         6.11904         -3.5916
LJ          0.308484        -2.07831          3.9513
LJ          -4.54717        -2.29693       -0.397077
LJ          -4.76762         5.58888        -5.26721
LJ          -1.58255        -1.33581        -4.50423
LJ           2.12469        0.900452         1.72691
LJ          -4.70363         -4.8198         2.75247
LJ            5.9936        -4.41367         1.26212
LJ           2.25055         2.87272       0.0464476
LJ           5.83962         2.05876        -3.47658
LJ         -0.890771         1.28277        -2.46881
LJ         -0.275489       -0.909817        -1.65447
LJ            4.9629         5.02264         -5.9129
LJ          -5.38214         2.16962        -4.47133
LJ           3.80199        -4.40211        -5.02659
LJ           1.27641        -3.53849         4.42753
LJ           1.93809        -5.71904         6.27224
LJ          0.769961        -1.62394       -0.209927
LJ          -5.42504        -2.70028         -1.8521
LJ          -2.79125         5.93564        0.815517
LJ           2.85651        -5.84959        -0.72471
LJ          -3.42768        -3.11859        -6.37676
LJ           2.44956        -6.04631        -3.08242
LJ          -3.94044         6.37514        -2.29248
LJ          -6.25344        -1.57762        -2.39513
LJ          -6.21563         4.41169        -1.78736
LJ           5.44611        -1.18739         4.84534
LJ          -2.42497        -5.47488        -3.43466
LJ           3.23748        0.173777         5.98839
LJ          -4.63054         -4.9884        0.295712
LJ          -3.25073        -3.61108        -2.84464
LJ           6.30497         5.00654        -6.03254
LJ            4.7752         5.55919        -4.69169
LJ           3.96755         1.36569         1.69605
LJ           3.57554         2.35881       -0.586681
LJ           3.14073        -3.09276         -1.3323
LJ         -0.679694        -1.75394         5.04171
LJ          -4.40672         2.33475        -1.66939
LJ          -2.55436        -6.17831        -5.90074
LJ          -0.87936        -2.10199         2.00727
LJ           2.79401        -4.33152         4.47864
LJ          0.319708        0.727913         5.81265
LJ          0.774306        -2.53659        -1.86646
LJ           1.60965         -4.3796          1.4496
LJ          0.908561         2.54171        -2.66047
LJ            3.1353         1.66912        -6.43722
LJ          -2.45088         3.46182         2.91979
LJ          -5.27551        -1.43349        -1.73363
LJ         -0.991965        -1.74598        -6.04069
LJ          -6.18294        -2.92231       -0.592906
LJ           0.92369         3.18327       -0.298272
LJ           5.34138         6.28004        -1.03249
LJ           1.70522        -5.20166          0.8857
LJ            -4.665        -3.04809        0.475353
LJ           1.33206        -0.89715        -6.26308
