108
#Comment!
LJ           1.13953         6.11746         3.42497
LJ          -2.88823         4.67676        -3.87341
LJ          -2.66621         1.09654        -1.51795
LJ           5.74633        -2.15449        -2.66364
LJ           3.56799         3.64186        -6.46315
LJ          -3.41193       -0.141505          5.2774
LJ          -4.14044         5.82734          2.9775
LJ          -5.57858         1.23059         -1.1767
LJ         -0.634925        -3.26987         5.02162
LJ           1.33339       -0.904464        -1.73929
LJ          0.796941        -3.47446        -3.87281
LJ           -4.8148         -2.9571          2.6915
LJ          -6.08173         2.40078         5.86012
LJ          -3.19579        -2.60703         6.27168
LJ          -3.73701         4.78723        -1.46016
LJ         -0.264064        -2.91041        -3.90561
LJ           2.95134        -2.16171            3.48
LJ           4.33247        -1.40456         6.08846
LJ           1.93352        -1.20528        0.716557
LJ           3.19848         3.97572         3.40791
LJ          -1.85415        -5.23092        -5.64769
LJ          -2.77265         5.82914        -3.50659
LJ          0.611668        -5.53023         4.07182
LJ           2.49728        -4.48614        -2.17288
LJ         0.0770713         4.26024         5.77543
LJ        -0.0055509        -5.11672         0.50028
LJ         -0.826004        -3.53856         3.70695
LJ          -2.17315         2.23253         0.22847
LJ          0.247447        -2.85786        -4.99938
LJ           5.31796         5.43374        -5.78536
LJ          -3.84371         1.10937        -1.65535
LJ           5.03689        -1.22187        -2.45762
LJ          0.316652       -0.819917         3.36663
LJ           1.04403        -4.26767        -5.58169
LJ            3.9525         2.04678        -5.63321
LJ           4.67127         2.67954        -6.24491
LJ         -0.847002         -4.8947        -3.76791
LJ           2.41947         1.73295          3.8024
LJ          -5.05738         3.46155         1.94901
LJ          -4.19483        -3.85533        -4.19801
LJ           3.94836        -5.76507          4.4881
LJ         -0.413924         5.38236         2.42219
LJ          -1.52908         4.00351         4.49689
LJ           3.42842        -1.85291          4.5116
LJ          -1.88244        -5.09806        -3.93193
LJ            3.2398         4.81396         5.64942
LJ           2.90341        -2.48487         6.05518
LJ           4.17181         2.29177         3.53582
LJ           6.38038         3.71105        -3.96775
LJ          -2.90889         1.34785       -0.539703
LJ          -5.27511         2.32001        -5.77589
LJ           2.14321        -4.02705         6.45889
LJ           -2.9298          1.9336         4.72161
LJ          -1.57786        -3.68818        -3.97181
LJ          0.910938        -3.93047         6.06247
LJ         -0.490586         -5.6045       -0.558146
LJ           2.68422        -6.27177         4.21374
LJ           6.45671        -1.36438         2.12108
LJ           6.43989        -6.06085        -1.53241
LJ           6.06084        -5.20647          2.9745
LJ          -2.45141         6.43366       -0.466373
LJ           2.02036         2.14397         5.72553
LJ             1.803        -4.01246        -4.61943
LJ          -5.28202        -4.67287         1.26876
LJ           1.64339         6.04589         2.57473
LJ           1.96186        -3.49765         2.38886
LJ          -5.87869        -4.09541       0.0208931
LJ           -1.1083        -3.77739        -2.89843
LJ           6.05306       -0.877339        0.880216
LJ           5.94308        -3.40555         4.26021
LJ          0.836155        -1.61273         4.79662
LJ          -5.12421        -1.84842          3.1106
LJ           2.44315          3.4884         -3.2683
LJ          -5.12939         4.68384        -1.45333
LJ           1.02074         6.42673      -0.0209945
LJ          -5.55362        -6.31959         4.35814
LJ          -1.91073        -2.42328         3.28915
LJ          -2.13018       -0.914622         5.23014
LJ          -1.63371         2.89261         -2.0972
LJ           4.09373           2.809        -3.99594
LJ           1.76816         -2.0787         -1.6471
LJ           4.60255         4.51972         5.47368
LJ        -0.0118413         2.03166        -1.64407
LJ           5.48644        -5.26346        -2.24803
LJ             4.689         2.24722        -4.70416
LJ           1.68696         -5.9769        -3.99668
LJ          -3.38224        -5.97732        -3.14718
LJ           5.32397       -0.703975        -5.53226
LJ          -2.35142        0.772921         2.79493
LJ           5.78833        -1.64653         5.78846
LJ           4.76903        0.807633         2.71483
LJ          -3.39401          4.7707         0.23669
LJ          0.125866        -3.23951          6.0515
LJ          0.654006           -5.79         2.89178
LJ          -5.72713        0.746171         2.13831
LJ           3.86929         2.45226         5.93735
LJ           1.82543         1.19113         5.35149
LJ          -4.89083         4.97459        -5.82998
LJ           5.45373         3.95027         3.99545
LJ          -3.30167         1.17582         3.47988
LJ          -3.75472        -3.05345        -2.11749
LJ          -3.29132         0.53099        -2.58388
LJ           3.52672         5.42755        -2.26922
LJ           5.27286        0.377969         1.06141
LJ          -0.01018        -3.52978        -3.01064
LJ           2.79235         -1.9939        -3.73016
LJ          -4.98681       -0.555644         2.92287
LJ          -5.79667         2.07041         2.97888
