108
#Comment!
LJ           6.44276         3.50805        -3.70775
LJ           1.37362         2.20308       -0.839839
LJ          -3.40071         1.70746          2.3274
LJ            1.5065         3.19578        -1.88062
LJ          -3.16432         2.36983        -4.05588
LJ           2.96181         2.41063         5.69483
LJ           6.12976        -3.67328        -4.97915
LJ          -0.87928       -0.636567        -2.49262
LJ          -3.90355        -4.46775        -5.83497
LJ         -0.357556       -0.831903          3.4876
LJ           1.17703         1.25695         2.38482
LJ           5.54952        -2.12752         1.15919
LJ           -5.5898         4.35774        0.901342
LJ           1.70148         1.79457        -2.21059
LJ           1.85298         3.28249        0.990719
LJ           6.39289         -1.9893        -2.46153
LJ           3.03839        0.351932         3.39948
LJ           3.78085        0.958962        -2.37661
LJ          -6.46055         3.29637         4.76195
LJ          -4.86815         3.66017         2.78544
LJ          -3.60345        -2.95675        0.279122
LJ          -2.47843         4.37506         -1.1452
LJ          -1.69024        -3.13093         4.23103
LJ          0.359894         1.89859        -6.20529
LJ          0.549616         2.71498         2.39554
LJ          -3.17343        0.143645        -1.65441
LJ           1.58369        -3.53009         2.60392
LJ         -0.560798         5.79386         2.61953
LJ           2.17674        -1.68397       -0.217454
LJ           2.26198        -1.44344         1.36778
LJ           -1.6382         3.29968        -4.67246
LJ          -3.55295        -1.75914         1.10554
LJ           5.95087        0.400843         4.20937
LJ          -1.58317        -5.62163         2.90062
LJ          -4.70226        -4.90288        -5.41033
LJ         -0.208164         3.32632         4.53415
LJ           1.42793         4.53297       0.0315089
LJ           1.69708        -2.51146         1.41736
LJ         -0.516565          1.5228        -1.80802
LJ           1.31594        -4.35254         1.86562
LJ           1.87338        -0.76461        -1.62163
LJ           3.66879        -6.34121        -1.71936
LJ           4.43848         5.87715       -0.930107
LJ           1.72577        -2.18246         5.60881
LJ           3.25148        -5.36646        -2.49859
LJ           2.72636         -5.9569        -1.88931
LJ         -0.489309         4.12126        -4.02692
LJ           2.20353      -0.0555307         6.33071
LJ          -2.03568         3.92075         2.19811
LJ           1.96507        -1.72459         2.31533
LJ          -5.96504         3.08537         1.87209
LJ          -4.58916        -2.37753        -1.90778
LJ           6.28711         2.83966         2.71647
LJ           -1.5105         3.96005       -0.499863
LJ          -5.32909         6.02821        -2.34812
LJ           2.31062       -0.623854        0.562801
LJ          0.877196        -0.26759          1.2547
LJ          0.574579        -5.52195        -6.44552
LJ          -5.98328         4.93142         5.02784
LJ           4.18074         1.26571        -3.29275
LJ           4.84555        0.594371        -0.24108
LJ          -1.30859        -4.87188        -3.89885
LJ           1.55935         -3.3189        -5.67429
LJ          -2.54727        -4.08658         4.38745
LJ           -4.9333         4.86663         1.64385
LJ           1.39635       -0.572914        0.077197
LJ          -2.80279         1.21797        -4.41353
LJ            1.1877        -1.92863       -0.359323
LJ          -5.80696         2.70721        -5.71929
LJ          -5.07724         1.71253       -0.733831
LJ            3.4434        -5.45083        -4.16482
LJ          0.172611          2.1038        -1.12128
LJ            2.9154        -2.29064         1.96766
LJ           3.94908          1.9899         5.22426
LJ          -2.11202        -5.84707         1.82943
LJ          -6.40676         -2.6703        -5.59394
LJ          -3.24046         1.54945        -5.21065
LJ          -1.95121        -2.91215         5.31977
LJ           5.67645        -2.21357        -5.58833
LJ           5.15721        -1.20356         -3.3136
LJ           2.68717         4.27366        0.710483
LJ           -5.9619         3.75472         3.51165
LJ           2.47932         6.06972        -3.27297
LJ          -2.51049          5.8104         3.84454
LJ          -3.28946        -6.05657         3.22379
LJ           4.29181        -5.16337       0.0688087
LJ           2.45347         2.34474        -3.93124
LJ          -5.09391         5.55817         5.23562
LJ           2.43277        -6.08824       -0.786365
LJ          -3.67517         4.52686         4.14502
LJ           2.72752         -5.5776       0.0602468
LJ          -2.37703         -6.1763         0.78679
LJ          -3.51163        -2.93642        -2.16525
LJ            -4.606        -1.40524          2.9378
LJ          -6.40215        -3.95424        -2.67386
LJ          -5.44615       -0.186114         1.08106
LJ           1.23261         6.43623       -0.924344
LJ          -6.09615         4.73474         -3.5736
LJ         -0.227534        -4.12714       -0.617956
LJ           5.39134         2.63894         1.70459
LJ          -3.38978        -1.55979       -0.194593
LJ            5.6161         -1.0848        -6.26974
LJ            1.9081          5.9933        -6.05354
LJ           6.01954        -4.50209        -5.76894
LJ           -2.0608         5.66014         1.55061
LJ          -1.90284        0.952311        -3.27253
LJ          -3.71845         5.55894        -2.87244
LJ           5.36911         2.92961         0.57499
