108
#Comment!
LJ          -2.19477         1.83538         3.80362
LJ          -1.32051        -6.02034         2.47547
LJ           -3.0427        -4.67523         4.50227
LJ           6.13139         3.72719        -2.76389
LJ           4.61484         5.38081        -1.75127
LJ          -1.01171        -3.19102         4.44546
LJ           3.76151        -5.99641        -4.67883
LJ           3.44453        -3.67889        -4.39449
LJ          -3.67152         2.68102         4.99362
LJ          -5.69973          1.7225         -5.1359
LJ           3.38766        -3.05952        -5.84015
LJ           0.91755        -2.03414        -2.46833
LJ          -4.28146        -2.21324        -2.31722
LJ           2.65891        -6.45424         6.00461
LJ          -3.03281        -1.89195       -0.746907
LJ          -5.27265         3.62682        -3.48721
LJ           1.24963         -3.7952       -0.525516
LJ           5.69531        -5.58741         1.26188
LJ          -4.13119         3.66066       -0.452202
LJ           3.24873        -5.07432        -3.91192
LJ          -1.38514        0.514685         3.07756
LJ         -0.144822         2.67851        0.456605
LJ          -3.01131      -0.0454119        -5.03919
LJ          -2.01883        0.933933          5.4527
LJ          -3.11755        -4.90788       0.0833828
LJ           4.46602         -3.6254         1.87915
LJ           3.02229         2.67606         1.41362
LJ           5.78779        -2.78132        -5.49802
LJ            3.0385        -2.27018        0.281233
LJ           2.22399         6.08298         4.97977
LJ          -4.63505         1.42038        -4.41527
LJ           5.92666          1.3736        -5.47142
LJ            3.2181        -2.76163         1.88038
LJ          -2.78015          -2.693        -2.78689
LJ           5.52416       -0.283147         2.20908
LJ            3.1917         6.11299         -2.8672
LJ          -4.12127         5.99097        -4.70241
LJ           4.55845        -1.28105        -6.42992
LJ           3.94309        -2.12592       -0.401571
LJ          -3.83519        -1.35703        -2.99594
LJ            4.5613         2.51756        0.775156
LJ          -2.63599         0.15973        -2.13142
LJ          -2.64349       -0.991184        0.521252
LJ          -5.57839         3.41596         -5.6316
LJ           1.91285        -2.24398        -6.03496
LJ          0.375726         3.26165      -0.0572373
LJ           4.43966        -4.78001        -3.76626
LJ          -3.82972        -4.09644        -2.57723
LJ          -4.32995         3.28054        -1.57685
LJ          -2.63098          -2.117         -3.8089
LJ           3.61274         1.86744       -0.412607
LJ          0.185145         1.41882         2.34617
LJ           -3.9088        0.646676        -4.66159
LJ            6.1844         -1.3198        -4.98502
LJ           4.82263         5.67967         3.83504
LJ          -2.25528        -4.81205         5.64123
LJ          -5.36391      -0.0201861         5.08347
LJ          -3.83371         5.69724         -6.0842
LJ          -4.50547         -3.5568        -4.77765
LJ           1.32291        -1.19489        -5.02114
LJ         0.0564457          5.1173         6.14314
LJ          -2.62508         3.57054         2.13747
LJ          -1.13405         1.29048       -0.377712
LJ         -0.452634         4.39354         1.11723
LJ          -3.70755          1.3449       -0.146843
LJ           3.74035         4.79892        -4.68615
LJ          -5.09618         3.93528        -1.19452
LJ         -0.967961         -1.4208        -6.35466
LJ          -4.09787        -1.11703        -5.88475
LJ           3.14625        -3.75405         2.89471
LJ         -0.841131         1.43965          3.0158
LJ          -3.21055         4.71024         3.92661
LJ            2.9798          2.0039        -5.24436
LJ           3.06213         5.92269         2.57885
LJ          -3.84716         6.12706         5.36849
LJ         -0.430344         3.03207         1.56926
LJ          -5.28218        -4.27968        -2.79103
LJ           -3.4281        -5.70557         3.44583
LJ          -2.32929           3.232        -4.71405
LJ          -1.57231        0.584893         1.72587
LJ          -3.79653         6.03624        -1.65257
LJ          -5.98079         1.49455      -0.0557764
LJ          -1.40162         5.26907         1.62177
LJ           1.22425         4.69521        -6.22555
LJ          -2.79723           3.447        -6.09888
LJ           3.22498         5.70455         5.68841
LJ           3.45059         6.34254        -1.43778
LJ           -5.0648        -2.15859           1.073
LJ         -0.334521        -2.17536        -4.87913
LJ           2.24726         4.83863        -5.81916
LJ           1.44526        -1.09351        -2.28982
LJ          -4.10903       -0.342451        -2.56269
LJ           5.74126        -3.33109         5.15812
LJ           1.36801         4.76742        -3.63497
LJ           6.00366        -2.51603         4.37552
LJ           3.63394         -5.8939        -2.48073
LJ           2.61696         4.59055        -4.16236
LJ          -2.97998        -6.35829        -2.38932
LJ          -5.26636          5.0963       -0.987444
LJ          0.505394         1.63849         5.88427
LJ          -2.51532         5.69838         3.13908
LJ           4.68351        -2.61172          3.5665
LJ          -2.17901        -1.81565         2.66641
LJ         -0.181657        0.115498        -5.61142
LJ          -2.39783          4.6768         1.85862
LJ            3.4746        0.313709        -5.47315
LJ            3.9894         3.13246         2.82345
LJ          -5.16101        -4.97157        -5.44096
