108
#Comment!
LJ           4.60362         4.32781        -4.13678
LJ           1.88094        -3.01839        -3.42016
LJ           6.34328         1.97783       -0.741693
LJ          -3.04167         -6.3159        -2.30648
LJ           2.63524         6.44142        -5.92877
LJ           3.75071        -2.64257        -4.31996
LJ          -4.81315        -3.16423         4.31586
LJ           4.11702         1.79229        -3.11409
LJ          -6.21779        0.796009       -0.982868
LJ          -3.19413         -3.6616         6.39317
LJ           4.44253         6.37629            3.07
LJ          -3.46035         4.36171         4.01726
LJ          0.533669        -6.16677         1.22203
LJ           3.01997        -6.41639        -2.34469
LJ           1.49614        -5.76428        -3.15119
LJ           5.18357         2.72695        -3.85087
LJ           4.48154          -1.514        -0.76982
LJ          0.475302         2.19417         6.28947
LJ          -1.06595        -1.30404         5.33418
LJ           2.79619         2.63744        -6.21665
LJ          -4.95628        -1.73307         5.22128
LJ          -5.99228          4.7827         2.34056
LJ          -4.20387         2.69704          1.1041
LJ          -3.02567         2.42024        0.870103
LJ         -0.422178         3.14241         1.23381
LJ         -0.110006          3.2709         5.45525
LJ           2.22424        -5.68188         3.94733
LJ           4.39089         1.00336        -5.30269
LJ          -1.97302         1.62789          4.6773
LJ         -0.451361         1.37015         3.12857
LJ          -1.52514         5.76024        -6.14921
LJ          -0.94592         3.63353         3.65721
LJ           4.23845        -6.29194        -1.74087
LJ          -1.39286         1.93655        -2.00156
LJ           2.17399         -1.3536        -2.23396
LJ          -3.05578         4.48738        -2.86675
LJ          -0.30891        -3.19521        -2.41945
LJ           4.99443         4.51809        0.814403
LJ           2.58249       -0.109485        -3.67938
LJ          -5.41756        -6.39908        -6.03198
LJ           3.15418        -5.60869         4.61198
LJ          -2.36214        -3.08348         3.20705
LJ           -4.8296        -5.25635        -1.90784
LJ           5.96278         2.63424          2.3195
LJ            3.4743        -4.08222        -4.02454
LJ           4.29574         2.59605          1.2578
LJ           4.91074         3.82729          3.3276
LJ           -3.7982        -3.09583         5.07263
LJ           5.07057        -5.13668         4.93174
LJ           2.08521         5.35142       -0.950417
LJ         -0.833084        -2.75096        -4.20911
LJ          -5.99364        -3.87218         3.76462
LJ           1.74843       0.0752849        -5.14965
LJ         -0.363312        -1.33369        -4.33888
LJ          -6.06225         2.15874        -1.86954
LJ          -2.91721        -6.39962        0.876205
LJ          -1.00297        -4.85813         3.92651
LJ             1.299        0.424684         2.83766
LJ         -0.301341        -6.16185         2.00037
LJ           5.41077         2.70304         5.93795
LJ         -0.325629         5.25208        -5.81491
LJ          -4.31735         1.30354        -4.68921
LJ           5.52951        -4.01972       -0.968888
LJ           1.79212        -6.10582        0.840043
LJ           6.01085        -5.06912         4.47102
LJ           3.82284        -4.06481         3.41408
LJ          -5.65819        -1.92477         2.56422
LJ           3.97689         3.21899        -5.72322
LJ           1.69532         4.71414         5.99354
LJ          -2.59684        -2.85968        -5.61792
LJ           -4.8176        -1.56229         3.79317
LJ           1.04245        -3.14718        0.113174
LJ          -4.43694         -6.2881         3.95875
LJ          -1.97582        -5.62889         5.34638
LJ          -3.95532        -3.64903         3.48039
LJ           -1.0444         4.74087         6.26973
LJ          -4.04961       0.0212238         1.83724
LJ           3.26332        -2.21291         2.88553
LJ          -5.05385         3.83589        -3.56663
LJ            6.2094        -2.47767         2.60472
LJ          -2.05628        -4.32056         5.02349
LJ           6.30787         4.45265        -5.91102
LJ          -4.00392         3.52345        -3.68811
LJ          -0.57393       -0.627215         3.32727
LJ           2.54574        -4.17405         2.02743
LJ          -4.93839        -3.05287        0.063209
LJ          -5.77961        -5.20679        -4.55334
LJ          -1.25644        0.448255        -2.70701
LJ           -5.8458        -4.66431         -2.0341
LJ         -0.742001        -5.02612         2.71457
LJ          -5.71987           5.195         1.00173
LJ           2.31344         -3.0809       -0.245986
LJ          -1.16695        -2.39867        -5.48583
LJ          -6.11568        -3.21325        0.688939
LJ          -4.51615          2.0819        -5.92546
LJ          0.970339         2.15359        -2.68527
LJ           2.17549         3.19487        -4.03199
LJ         -0.315749         -1.4688        -3.10091
LJ           6.39213         1.59377         2.33164
LJ          -2.40498        -3.53278         5.53589
LJ         -0.134231         1.64694        -1.53733
LJ           2.61161         2.98948        0.648412
LJ          -3.02775        -4.31527         4.22656
LJ          0.270877         6.35036        -4.27805
LJ           1.85375        -4.18193       -0.547165
LJ          -4.45814      -0.0128048         4.87741
LJ          0.764761         4.10518        -1.56095
LJ           5.53709         1.61333         3.02103
