108
#Comment!
LJ           3.04622         5.06273       -0.344832
LJ          -6.11381        -0.59314        -4.09971
LJ          -4.71857         5.47625         3.13682
LJ           2.53542         2.78225        -6.17954
LJ           -3.1147         3.62485         4.43363
LJ          -5.62669        -1.24931         6.08163
LJ         -0.784019        -4.60096         5.07611
LJ          -0.94828         2.77402         6.23559
LJ          0.264457          3.8564        -6.39199
LJ           5.99552        -2.39051        -5.93489
LJ         -0.840893         1.89225        0.137108
LJ          -1.92254         5.32283         -4.5721
LJ           5.72211         4.45836        0.265757
LJ           5.72582         4.50868        -3.65889
LJ         -0.673373         -2.4777         4.62279
LJ           5.30745          2.5973        -4.31092
LJ          -4.21735        -3.61511        -4.97665
LJ          -3.08539         6.20142         0.99476
LJ          -1.17609         3.38059          3.7304
LJ          -3.97403        -3.05241        -2.74028
LJ         -0.695307         4.94829          3.4009
LJ           5.17251         2.77693       0.0889381
LJ          0.737635        0.173478        -1.84743
LJ           4.45525        -5.31971        -5.92994
LJ          -2.28678         5.09596         5.49464
LJ           2.22819        -1.37107        -1.54925
LJ           5.61014        -1.05898        -2.14418
LJ          -2.23115         2.94754         3.16749
LJ           2.20365        -4.69992         5.85885
LJ          -4.96005        0.832252         -6.4532
LJ          -2.08531        -4.79353        -6.32674
LJ           3.91564        -3.58036        -3.20967
LJ           1.39835         3.64342        -1.68495
LJ           -1.2799         4.21764         6.12246
LJ           3.07789         5.52279         6.31946
LJ          -5.04178       -0.139205         4.35271
LJ           1.35259         3.76906          3.4015
LJ           -3.4342        0.548575         2.37596
LJ          -4.98924          -5.589         6.15902
LJ          -2.08322         5.36597        -5.74907
LJ           3.15138        -1.73244         1.57357
LJ          -2.62081         1.48126         1.96357
LJ          -4.81223         6.08283        -4.07712
LJ           2.64209       -0.573678         4.18178
LJ          -1.04365         3.05434          4.6205
LJ          -2.30901         2.44144          1.7307
LJ          -1.30853        -4.54934       -0.915919
LJ            5.8178        -1.59849         3.54169
LJ           3.56144        -6.25816         2.97467
LJ          -5.14237        -3.34544         4.23741
LJ           1.49891        -4.40297        -5.15316
LJ          -3.71634         4.64772         3.96611
LJ         -0.134376        -0.25371        -3.48857
LJ          -1.48886         1.97864         2.67091
LJ           2.86143         2.63736           2.793
LJ          -6.12043         3.75137        0.213607
LJ          -6.10824          6.4624       -0.473207
LJ         -0.858047        -1.70236        -5.08137
LJ           1.55839         0.97376         1.36804
LJ          0.387214        -4.91413        -6.17086
LJ          -4.62365         1.93462       -0.473112
LJ           0.17694        -4.56584        -2.92841
LJ          -5.43436         5.77847        -3.37952
LJ          0.183744         3.84718        -1.63345
LJ           2.48781          5.4597        -2.24565
LJ          -5.13707       -0.251036         6.41131
LJ          -4.71513         6.00831        -6.00518
LJ            3.3039        -3.10952       -0.820956
LJ           1.62602         4.98043         5.58933
LJ           2.27994        0.823191         5.95772
LJ          -3.31912        -2.06407        -4.67631
LJ          -5.74781         2.05649        -3.49815
LJ          -4.97964        -5.34259         -3.0428
LJ          0.908702        -5.52412        -2.01181
LJ          -4.53116         -5.3089         3.31298
LJ          -4.02834        -2.21557        0.400946
LJ          -5.95775        -4.00544        -3.09804
LJ           3.68763         5.95035       -0.286824
LJ           3.39013         6.17781        -2.16942
LJ           5.04789       -0.189335          4.1952
LJ           -4.1057        -5.69577        -5.34786
LJ           4.09101        0.329084         2.51986
LJ          -1.43183        -3.64002         1.00967
LJ           3.55032        -1.29931        0.618671
LJ          -4.88127         4.66694        -5.11128
LJ            5.8083         6.30885       -0.812562
LJ           5.80701        0.948432        0.647949
LJ          -5.70003        -2.04789          2.1642
LJ         -0.554787        -2.19385        -2.75572
LJ          -1.05063        -5.03911        -6.37662
LJ          -6.16695        0.911845        -1.76531
LJ         -0.497777         4.72324        -6.19604
LJ          -3.09851       -0.897522        -1.35479
LJ           5.00949         2.91348        -6.20684
LJ           5.49424       -0.830439        -5.80466
LJ          -1.65037         4.73515         2.52023
LJ           1.72755         1.30762        0.356286
LJ          -6.18232         4.72573        -1.39556
LJ           4.28634         1.73866        0.260641
LJ          -4.01006         2.54449        0.700342
LJ          -5.87152         3.19552        -1.29163
LJ           -1.2437        -5.79061         5.81347
LJ             6.228         2.22201        -1.49963
LJ           5.50974        -2.74064        -1.82321
LJ           4.09013         2.33532        -1.23414
LJ          -2.16047       -0.292567        -1.22201
LJ          -1.72542        -4.64374          1.3954
LJ           0.58548        0.732044        -3.55094
