108
#Comment!
LJ          -4.76292         3.12957         -4.4646
LJ          0.968854         1.16948       -0.641979
LJ           -3.4308         2.20049         2.43681
LJ             1.543         4.13869        -2.08527
LJ          -1.84341       -0.167724        -3.43151
LJ           4.32426         2.28997         6.20215
LJ           6.28906        -3.76263        -5.57251
LJ         -0.640696       0.0131977         -2.4203
LJ          -2.23327        -2.80611        -3.79409
LJ          0.854362        0.159924         1.99928
LJ           2.19014         2.60985         0.19812
LJ          -6.00361       -0.238951         2.34518
LJ          -4.19218         2.52853         0.67366
LJ          0.537717      -0.0138005        0.422665
LJ           1.39234         4.55798       -0.877695
LJ           4.14281        -1.84249        -2.18453
LJ           2.17838         3.03743         2.81923
LJ           2.61077       -0.608048        -0.27576
LJ          -5.44864         4.48917          4.1543
LJ          -4.01017         3.51974         2.12233
LJ           -3.0894        -2.21542        0.386201
LJ           -4.2989         4.71198         1.28515
LJ          -2.16505        -1.85749           1.678
LJ        -0.0124326         0.91282          5.0074
LJ          0.848527          2.7288         1.22182
LJ          -2.21358        -0.81661       -0.811159
LJ           3.43844         -5.0211         2.87097
LJ          -1.05921        -5.57106        0.872527
LJ           1.59413       -0.541982        0.815859
LJ           3.14192        -2.44976        0.678296
LJ         -0.986775         1.42515        -4.77971
LJ          -5.80088        -3.04755         1.88359
LJ           5.90235       -0.973986         4.60948
LJ         -0.303951        -4.58201         3.37948
LJ          -6.24788        -1.52436        -3.56949
LJ           -1.5804         2.81911         2.95485
LJ            2.2742         3.37995         -1.4891
LJ           2.54666        -3.32964        0.337658
LJ           -1.2422           1.478         -1.3667
LJ            2.8151        -5.71973         2.22917
LJ           1.30128         -4.7963        -3.86338
LJ           3.27788        -6.06114        0.235172
LJ           4.17697         5.31361        -1.54207
LJ          0.942846        -3.34505          6.4622
LJ           3.48445         5.39814        -3.04113
LJ           1.21493         4.94355        -2.83991
LJ          0.593113        -5.20805        -5.67054
LJ          0.847253         2.69712        -5.52347
LJ          -3.07136          5.4385         3.09244
LJ           1.14603        -2.19636         4.91914
LJ          -5.16213         4.19403         1.58556
LJ          -3.40458        -2.45682        -3.26445
LJ           6.23532          2.1493         2.82602
LJ         0.0976197         5.63148        -1.65312
LJ          -2.29233          4.3869        -1.78804
LJ           4.04891        -2.52582         1.70115
LJ           -1.4687        0.685722         3.14516
LJ         -0.778865        -4.26985        -6.01093
LJ          -4.44876         3.40455         5.30811
LJ           2.20862        -1.26248        -1.37875
LJ           6.43876        0.933448        -2.42052
LJ          0.805034        -3.14483        -4.34165
LJ           1.38311         -3.4645         4.58898
LJ          -1.34838        -2.04966         2.36493
LJ           5.51303         4.44408         2.10757
LJ          0.189494         -1.1311        -1.22718
LJ          -1.41032        0.871851        -2.59859
LJ          0.188751        0.605686         -2.3077
LJ          -4.86954         1.23555         5.80453
LJ          -3.91309         1.11292          1.0455
LJ           3.09174        -3.23654        -1.08867
LJ        -0.0897573        0.789388       -0.835411
LJ           3.90632        -3.30896        0.844867
LJ           5.29897          2.0631        -5.95508
LJ          -4.50013        -4.30914         1.52406
LJ          -4.59882        -3.59773        -5.18111
LJ          -2.77856         1.21121         6.18007
LJ         -0.881991       -0.919838         5.96318
LJ           3.75891     -0.00466751         4.30722
LJ          -6.21302        -1.63068        -2.40864
LJ          0.655213         5.26569         1.37713
LJ           5.83345         4.16886          3.9922
LJ           1.55152           5.161        -4.06337
LJ          -3.55603         4.23242         5.79405
LJ           6.08076        -6.06113         2.57877
LJ           1.40073        -3.39753         3.68216
LJ           2.59955         2.91635        -2.48157
LJ          -3.79744        -5.54877         5.83864
LJ           2.70053         6.07458        -1.24751
LJ          -3.03016         3.90567         4.23247
LJ           2.30885        -5.75146        0.870461
LJ          -1.41427        -3.49673         2.50671
LJ          -2.88229         -1.8627         -3.9733
LJ            -4.387        -2.32844         5.30948
LJ          -4.36674        -6.39898        -1.21339
LJ           5.22442         1.13565       -0.751238
LJ           2.47049         5.28785        -2.56196
LJ           -5.3382         6.01063        -4.15533
LJ          -2.23615        -5.61175        -1.81788
LJ          -6.03436        0.955255         3.84367
LJ          -3.08009       -0.804389      -0.0605406
LJ           5.42335       -0.214935         6.26286
LJ            2.3379        -6.32064         6.05292
LJ           2.64318        -6.14605        -4.69862
LJ         -0.627223         1.34701        0.361484
LJ          -2.80725        -1.71028        -1.21386
LJ          -4.70605         6.27993        -5.77001
LJ           3.62438         -6.3504        -1.26322
