108
#Comment!
LJ           -1.7312         2.99402         4.68703
LJ          -3.87248        -6.02103         -2.9158
LJ           5.28992        -2.63497         6.07509
LJ           2.80001          3.5546          1.7075
LJ          -1.18011        -5.12363         4.97955
LJ           2.13909        -3.99455         1.23444
LJ           1.31242         5.39027        -2.29783
LJ           4.69508         4.67389        -4.51531
LJ          -5.63694         4.69078         2.62757
LJ          -3.67142        -1.46986        -4.82108
LJ          -0.28721       -0.774639        -6.14721
LJ           1.76577        -5.00513        -1.94345
LJ          -1.33435         6.25613       -0.305748
LJ           4.53509        -4.07387         5.77542
LJ          -1.50648        -5.09158         6.06016
LJ            6.3057        -6.15197        -1.95528
LJ           -3.7968        -5.61533        -4.20142
LJ            1.6975        -4.73283       -0.278906
LJ          -5.68605        -3.26284        -3.79572
LJ          -2.79873         2.96726         5.05478
LJ          -1.96672         4.24491       -0.586699
LJ           1.45269        -0.73452        -1.36126
LJ          -4.91229         2.53644        -3.68751
LJ           -2.8883         1.15032        -4.67807
LJ         -0.322784         3.70336         -5.4317
LJ           4.09134          6.0143       -0.809032
LJ           2.33034         4.65363         3.10626
LJ          -2.64419        -3.01891        -3.66857
LJ          -2.15662      -0.0116681       -0.455803
LJ          -6.02325       0.0208561         6.10392
LJ          -6.19017         2.11771        -3.80847
LJ           4.52808         1.89872        -2.64959
LJ          -6.05363         5.01021        -1.86445
LJ          -1.89689         5.52385        -1.70246
LJ           1.70293        -1.67307         2.42955
LJ           2.49794         4.43409         -3.9247
LJ           6.30597        -2.98201       -0.838418
LJ           1.23198         2.84492        -3.85986
LJ         -0.593423        -4.38784        -5.73652
LJ          -1.46461        -5.22599         -1.8645
LJ           4.21059         2.55814         2.96196
LJ          -2.68983        -1.05979         -4.2124
LJ          -2.64159       -0.977589       -0.502349
LJ          -3.92809         2.36261        -1.94265
LJ           5.08551        -4.75688        -6.39032
LJ          -3.51653         2.01279       -0.884993
LJ           5.78539         4.25461        -4.91834
LJ         -0.513755         3.81006        -2.20181
LJ           1.65779         1.29839         4.13694
LJ          -3.96127        -1.37009         4.59061
LJ           3.25892        -2.22154         4.11395
LJ          -5.42345         4.94088         6.38583
LJ          -5.92761        -3.24313          -5.509
LJ          -4.45334        -1.31702           5.833
LJ           5.68732        -3.65623        -5.59093
LJ          0.109752         5.98816        -3.46833
LJ          -2.20094         3.86843         2.82274
LJ           2.62252         3.13626         2.59455
LJ          -2.41603        -2.28778         4.17273
LJ           5.68046         5.32371        -2.91157
LJ           2.56182         1.98718         2.85441
LJ          -2.07578         6.39924        0.481545
LJ           -6.4394        -4.34712        -5.56734
LJ          -1.84837         1.56921        -2.04686
LJ         -0.203758       0.0504429       -0.463174
LJ         -0.709987        -4.31766       -0.412873
LJ           2.14414         5.74589         6.14397
LJ           6.39471       -0.923148        -3.82732
LJ           -6.1565         2.08341        -2.71978
LJ          0.737801        0.982313         1.36025
LJ           3.11092         2.96299       -0.925668
LJ          -1.30793          5.2793         1.98815
LJ           3.16151         1.67121         0.32959
LJ          -2.08338         2.34899        -1.20648
LJ           3.57953        -5.77738        -4.18993
LJ          -5.29528        -1.21701        -6.33195
LJ          -2.17381        -5.30773        -4.96057
LJ          -3.66342        -3.78925         3.80567
LJ           3.72496       -0.383822       -0.861474
LJ           2.51916         4.82349        -1.88648
LJ          -6.12184        -6.42595        -4.91234
LJ         -0.925924        0.308581         -1.1725
LJ          -1.18108        0.667402       -0.050692
LJ            5.9575        -3.63068         5.45366
LJ          -2.20799          4.5829        -5.65204
LJ          0.624821        -5.49831       -0.970155
LJ           6.02964        -4.72946        -3.93616
LJ         -0.712445         4.68742       -0.681997
LJ           3.06831        -3.11185        -6.32421
LJ           5.89375        0.695763        -3.53229
LJ          0.821735        0.221257              -3
LJ         -0.903784         -5.5644       -0.729112
LJ           4.20246        -1.96766        -1.05828
LJ             3.742        -1.62167         4.81368
LJ           0.73822        0.353059       -0.134322
LJ           5.01501        -4.07706        -2.65971
LJ           5.59685       -0.455236         2.20215
LJ          -3.83353         3.44576       -0.916435
LJ           1.40755         -2.7423         4.42069
LJ          -3.23064        -2.24453         -5.9959
LJ          0.724378           6.317        -4.58048
LJ          0.398299         1.47211         0.43672
LJ          -4.47337        -3.01112        -4.77005
LJ           4.40354       -0.509014         3.92466
LJ         -0.416308         3.45509        -4.06258
LJ           4.89497         1.23316         4.15924
LJ           4.04878         1.42281         2.99713
LJ          -5.56756         4.91833         5.25575
