108
#Comment!
LJ           2.96682          4.1155        -4.66042
LJ           1.03656        -2.83584         -3.9415
LJ          -6.15038          2.6776       -0.732315
LJ          -4.94207         5.30132        -3.82038
LJ           2.70821        -4.32164          2.8952
LJ           4.76364        -1.16609        -4.61028
LJ          -3.65472        -2.83314          5.2217
LJ           2.68633        0.928717         -5.7406
LJ          -4.67287         1.96694        -4.91801
LJ          -3.14727        -2.18163        -5.10359
LJ           3.88158        -3.50898         5.73325
LJ          -3.55089         3.75128         5.58471
LJ          0.450797        -5.35307         2.55144
LJ           4.71007        -6.17362        -3.95469
LJ           2.28156         4.05177        -2.37464
LJ          -5.19778         4.32744        -2.76652
LJ           3.52252        -2.65219         2.08712
LJ          -1.08705         2.58867        -5.49538
LJ          -1.99063        -3.62987         3.94085
LJ           5.31612         3.14018          6.0786
LJ          -4.07312        -1.76183         5.23018
LJ          -6.13467         2.52821         1.76633
LJ          -4.63734         2.33669        -1.22982
LJ          -6.08665         1.43057       0.0908354
LJ         -0.498384         2.11561         2.43105
LJ         -0.781779         2.74358         6.05514
LJ           2.64801        -5.78689           3.437
LJ           2.11411         2.19752        -4.38232
LJ          -2.05241       -0.885364         4.80545
LJ          0.726014         2.64989         2.03281
LJ          -1.84864         5.54123        -5.48507
LJ           1.24354         5.05079         3.44587
LJ           4.22796        -6.38188        -2.97953
LJ         -0.202459         2.32755       -0.345419
LJ           1.71136        -3.65995         -5.2738
LJ          -5.17622         3.55558       -0.988228
LJ          -1.21691        0.417114        -3.85449
LJ            4.2921         5.17873        0.704262
LJ           2.61672       -0.623451        -6.24844
LJ          -5.88473        -6.09491         5.61442
LJ          0.705325        -3.40202        -6.00847
LJ           -4.9368        -3.61694         3.51314
LJ          -5.86981         -5.5548        -1.67967
LJ           4.93485         1.12761         3.73429
LJ           3.28912        -1.69191        -3.95128
LJ           2.84943         2.63574         1.94208
LJ          -5.53019          5.9946         5.05176
LJ          -2.20825        -5.38093         5.66942
LJ           4.61697         -6.2478         4.77916
LJ           1.19241        -6.09719        -1.55114
LJ          -1.50954        -4.08119        -6.44265
LJ          -5.81735        -4.81622         5.26694
LJ          0.841885        0.152474        -5.17291
LJ          -1.44398        -4.87991        -5.15255
LJ           6.21994         5.45548       -0.972673
LJ          -3.89628        -6.11996           1.955
LJ          0.183398        -6.42568         3.60074
LJ           2.09057         1.37445         4.74443
LJ          -1.84298         5.64344         1.77685
LJ          -5.42931         2.66525         5.69134
LJ          0.343371         5.42504        -5.04486
LJ          -5.55713         3.02248        -4.86158
LJ           5.98334        -4.29996        0.344827
LJ           1.43245         6.22429       -0.108031
LJ            -3.226         -5.1947         6.20912
LJ           3.02067        -2.95627         5.73767
LJ           5.50642       -0.729378         4.66492
LJ           4.93762         2.05593         6.26645
LJ           1.48408         1.50203        -5.89098
LJ          -3.13488        -3.94981         6.41905
LJ          -3.10513        -2.62302         4.35974
LJ           2.24236        -1.68001        0.322729
LJ         -0.488773        -5.94953         2.94754
LJ          -3.34585         4.24742         1.06206
LJ          -2.37709         6.03741         3.20456
LJ          -1.08266         6.01967        -6.17118
LJ          -4.14063       -0.976581       0.0961272
LJ           3.08073        -2.99212         3.26424
LJ          -3.45555         2.57002        -4.58734
LJ          -4.71451        -2.20423         1.45399
LJ          -2.87182        -5.66907          4.5582
LJ           6.05615         5.03661         6.03299
LJ          -3.28263         4.81059        -5.26819
LJ          -1.95425         1.22483          5.3948
LJ           3.43707        -3.57942          4.2565
LJ          -4.82014        -1.81658      -0.0386785
LJ           4.71334        -4.76951        -4.13235
LJ          -1.53892        0.486208        -2.50028
LJ          -3.62722        -3.38261        -3.84643
LJ         -0.989953         5.16283           2.232
LJ             6.125         6.25702         1.75734
LJ           2.42846        -2.99426      -0.0788277
LJ          -1.70824        -2.26853        -5.34868
LJ          -4.47066        -4.67031       -0.222572
LJ          -3.32468         2.56973         5.52334
LJ           1.10104         1.84683        -2.63331
LJ           1.08886          3.5867        -5.35221
LJ            -0.348        -1.17782        -3.72098
LJ           5.04785         1.55859         4.73218
LJ          -3.10872        -1.12469         -5.3687
LJ           2.03717          2.1292         1.07733
LJ            4.1879         3.47081         1.48875
LJ          -5.83871        -4.35057         3.60476
LJ              1.58        -5.48993        -5.66032
LJ            1.2991         -2.9963       -0.434401
LJ            -2.798       -0.580441         6.14816
LJ           2.55411         4.62612        -1.27534
LJ           3.95005         1.35876         4.10785
