108
#Comment!
LJ           1.29643         6.27673        -3.76851
LJ          -3.49994        -4.15016        -4.85203
LJ          -5.02017        0.109076         1.10079
LJ           2.81645        -3.83263        -3.99025
LJ          -1.84976         3.42452         3.67273
LJ          -4.58002       -0.644197         6.13998
LJ           2.30587        -2.57187         4.96104
LJ          -2.23269         1.95076        -2.28097
LJ          -2.91204        -5.81592         6.14222
LJ           4.69217        -2.34897        -2.08391
LJ            -1.205         4.76411        -1.62056
LJ         -0.591219        -3.24293       -0.661045
LJ          -3.41578        -5.63077         1.16626
LJ           2.72317         4.28687        -4.26254
LJ          -4.55657        -5.25119         1.57345
LJ          0.216641         2.55067        0.144253
LJ         -0.613237        -1.25989        -3.07275
LJ          -3.47576       -0.546631        0.296818
LJ          -5.15587       -0.224656         2.72516
LJ          -6.35088        -2.26905         6.42608
LJ          -1.59388         3.84196         5.39477
LJ           5.22838         4.72525        -1.17922
LJ           1.61209         2.40398         1.54093
LJ         -0.993001        -3.85474         2.23741
LJ          0.730699        -5.42752        0.456853
LJ           0.32589        -2.31695         1.65017
LJ           5.62663        -2.00359         6.35932
LJ         -0.174821        0.760632         5.68122
LJ           1.27686        -5.12354         4.39417
LJ         -0.776156         1.20953          2.7499
LJ          -0.85972        0.148489         6.13205
LJ           1.36255        -4.90921         -2.9082
LJ          0.677316         5.90846        -5.05376
LJ          0.323632        -4.79284         5.95381
LJ           5.57131        -5.12905         6.16222
LJ           6.03992         3.08045         5.34949
LJ          -4.65103        0.235332        -6.25544
LJ          -1.18743       -0.576556         1.15016
LJ          -4.09505        -6.22766        -2.49688
LJ          0.290077        -6.10503        -6.21408
LJ           3.32691        -0.54429         2.69673
LJ            -1.454        -4.19937         3.30885
LJ          -4.77071         4.55596        -3.09166
LJ           1.64328        -1.91184         3.01112
LJ          -2.33467           2.865         -5.5371
LJ           -2.2909         1.59487        -5.25985
LJ          -2.47131         4.09316         6.04782
LJ           5.00065        -3.62179         6.09682
LJ          -3.82555        -3.59281      -0.0261796
LJ          -4.63588        -2.51281         2.32477
LJ          -5.44186        -4.91713        -6.09581
LJ          -2.62161         4.95718         4.40139
LJ         -0.405458         2.52663        -3.56603
LJ         -0.105695         5.27724        -2.19348
LJ          0.105275       -0.272441         3.33581
LJ          -4.92094        -0.24178       -0.932275
LJ          -4.02969        -6.13584         5.87849
LJ          0.127937       -0.448876        -4.50576
LJ           1.41023         1.35083         1.11773
LJ          -3.34518        -4.58395         3.11247
LJ          -6.22042        -2.66268        0.107872
LJ           1.95832       -0.399859        -2.12339
LJ           6.13242         3.98127        -3.21609
LJ          -1.14118         1.75772         -2.2266
LJ          0.072423        -3.49204         -1.7784
LJ           5.43726         3.46597        -6.16862
LJ          -5.74218       -0.192484        -3.05632
LJ           4.72719        -3.91932        -5.53389
LJ          0.712326        -4.16748         4.94108
LJ           1.89241        -3.92233         6.45104
LJ         0.0600596        -1.72531         -1.5082
LJ          -5.28677        -1.93366        -2.12528
LJ          -4.48383        -6.01005        0.614902
LJ           1.73059        -5.45629       -0.462201
LJ          -4.64613        -4.90265         6.31928
LJ           4.59862        -5.12173        -2.28865
LJ          -4.74237        -5.66176        -3.16879
LJ            5.7081        -3.23986        -1.49576
LJ            5.5687         4.69662        -2.72893
LJ           4.76173       -0.345816         4.47777
LJ          -2.32148         5.88383        -5.24205
LJ            4.1476        -0.72388          6.1467
LJ          -3.97409        -3.94007         1.66232
LJ          -1.61559        -3.05597        -2.09658
LJ          -6.04712         4.99187         -5.2007
LJ           5.46513         5.68089        -3.71762
LJ          0.405351        0.097291        0.537854
LJ           4.30805          5.0115        0.264391
LJ           1.81932         -3.5724        -2.36933
LJ           -1.0908        -2.17293         5.72467
LJ          -5.17628         2.10095        -2.84338
LJ          -3.16184        -6.11985        -5.15955
LJ          -1.77467        -0.64499         2.41078
LJ           3.75469        -3.15814         5.13523
LJ           2.02761        0.660906         6.37655
LJ         -0.253729        -4.27266       -0.363677
LJ           1.64059        -1.29592         1.01502
LJ           2.78951         2.62549        -1.98158
LJ           1.80339        0.590355         -4.9841
LJ          -2.39847          2.7021         2.41735
LJ          -5.69985      -0.0971635        -2.03186
LJ          -1.01251        -4.11081        -5.96649
LJ          -5.77322       -0.601438      -0.0407633
LJ          -1.83942          5.2975       -0.390466
LJ           5.91171         4.98652      -0.0897026
LJ          0.861752        -3.69587          0.7849
LJ          -3.48855        -3.06018        0.913471
LJ           2.06564       -0.537402        -5.53723
