108
#Comment!
LJ           5.09345         4.29611        -4.00379
LJ           2.31555        -2.91729        -3.28691
LJ           6.20216         1.97582        -1.04311
LJ          -2.50492        -5.95148        -1.85261
LJ           2.72106         5.93558        -4.85373
LJ            3.4396        -3.05972         -4.2257
LJ          -5.45048        -2.93454         4.17216
LJ           4.43578         2.09779        -2.56023
LJ           6.45414       -0.429775        0.103583
LJ          -2.92545        -4.32121        -6.24205
LJ           4.87525         5.59721         2.51653
LJ          -3.42648         4.52882          3.5602
LJ          0.777844        -6.39505        0.580496
LJ           2.64177         6.45419        -1.68117
LJ           1.29705        -4.87949        -3.32965
LJ           4.20646         2.56613        -4.13097
LJ           4.76664        -1.17873         -1.6879
LJ          0.752434         1.74036         5.58248
LJ         -0.858725       -0.622841         5.77097
LJ           2.47025         2.49655        -5.73014
LJ          -4.79055        -1.86586         5.41089
LJ          -6.00218         5.17906         2.79934
LJ           -3.6596         2.53916         1.83084
LJ          -2.51084         3.00086         1.00684
LJ          -0.60141         3.55221         1.30829
LJ          0.186086         3.33112         5.52835
LJ           1.21765        -5.76253          3.6084
LJ           5.47477        0.899522        -5.40728
LJ           -1.7878         2.55874         4.34181
LJ         -0.835881        0.969435         3.37302
LJ          -1.68268         5.65959         6.22062
LJ          -1.57435         3.26482         3.68451
LJ           4.03306        -6.27539        -1.56555
LJ          -2.05902         1.77832        -2.76435
LJ           2.12324       -0.809168         -1.4132
LJ          -2.43978          4.7387        -3.54212
LJ          0.200835        -4.07055        -2.16338
LJ           5.26682         4.42433        0.829209
LJ           2.43093        0.173754         -3.0083
LJ          -5.27535        -6.43425        -5.66563
LJ           3.33651        -6.10257         4.41027
LJ          -1.60439        -2.88179          3.3239
LJ          -4.55801        -5.10007        -2.01519
LJ           6.26988         2.76983         2.14113
LJ           3.47554        -4.77807        -4.00297
LJ            4.7054         2.66866         1.03307
LJ           4.20783         3.15811         2.79396
LJ          -4.37021        -2.46336         4.56489
LJ           5.00763        -4.97621         5.56749
LJ           2.33965          4.8669       -0.789961
LJ         -0.500492        -2.23218        -3.90427
LJ          -5.92463        -3.47426         3.34421
LJ           1.89921       -0.276371        -5.06166
LJ         -0.483131        -0.24325          -3.649
LJ          -6.05082         1.50561        -1.78055
LJ          -2.67202          6.4212        0.459074
LJ          -1.40242        -4.42063         3.65984
LJ           1.00854        0.161415         2.27337
LJ         0.0503602        -5.85547         2.31542
LJ           4.75153         2.74387         6.05777
LJ          -0.29876         5.70754        -6.05605
LJ          -3.99527        0.928319         -4.7624
LJ           5.46318         -3.9494           -1.36
LJ           1.76307        -5.88891         1.16622
LJ           6.19513        -4.95782         3.14248
LJ           4.05687        -4.44773         2.81997
LJ          -5.82178        -2.28687         1.13915
LJ           3.28584         3.55037        -5.70536
LJ           1.72804         5.64661          5.7572
LJ          -2.40236        -2.60431        -5.71821
LJ          -5.56566         -2.0315          3.4242
LJ           1.04565        -3.82551       -0.173262
LJ          -5.46556        -6.43073         4.30626
LJ          -1.70878        -4.47212        -6.31272
LJ           -3.7958        -3.13457         3.86669
LJ         -0.947307         4.63142        -6.37435
LJ          -4.04508        0.305895         2.34996
LJ           3.28541        -2.18798         2.91375
LJ          -5.17568         4.27283        -3.29716
LJ           5.92661        -2.45464         2.98421
LJ           -1.0274        -5.07719         5.06759
LJ            6.3798         4.26767        -5.63381
LJ            -4.456         3.14349        -3.06195
LJ         -0.214307        -1.16188         2.78103
LJ           2.35259         -4.3436         1.30458
LJ          -4.97074        -3.38361        0.121767
LJ          -5.05699        -5.38454         -4.7008
LJ           -1.1163        0.507702        -2.74822
LJ           6.44024        -5.10186        -1.44563
LJ         -0.708841        -4.13677         2.84307
LJ          -5.38736         5.12209        0.492543
LJ           1.97388        -3.10963       -0.210814
LJ          -1.34828        -2.62064        -5.57276
LJ           6.24469        -2.81609        0.969066
LJ          -4.84637         1.84217        -5.28509
LJ          0.843358         2.21758        -2.63549
LJ           2.61429         2.91076        -3.64472
LJ         -0.513038        -1.40246        -2.79157
LJ          -6.29992         1.85975         1.47623
LJ          -2.50447        -3.14376         5.85866
LJ         -0.112394         1.35124         -2.5081
LJ           2.17877         2.65365        0.501605
LJ          -2.82688        -3.87329         3.90695
LJ          0.226466         5.69428        -3.92432
LJ           1.99619        -4.29906       -0.418503
LJ          -4.86049        0.394183         4.93172
LJ          0.278724         4.03852        -1.63881
LJ           6.09968         1.82222         2.58035
