108
#Comment!
LJ          0.618927          3.4668        -4.88898
LJ          0.253946        -2.47612        -6.01672
LJ           3.16926         2.75245       -0.236906
LJ           5.68325         4.87332        -4.21319
LJ           4.62056         -2.3271       -0.753645
LJ           5.00789        0.326764        -4.68261
LJ          -4.40321        -3.06552         5.62428
LJ           1.30896        0.386151         3.32655
LJ          -3.78744        0.838056         4.26652
LJ          -1.14834       -0.499445        -1.62316
LJ           3.99578       -0.748117        -5.16891
LJ          -4.72194         2.61116        -6.08747
LJ            2.5471        -2.60017          2.1867
LJ            5.3886         -5.1915        -4.65418
LJ           2.92267        0.497408        -1.81251
LJ          -2.93691        -5.03656        -2.07303
LJ           2.64111        -4.11444         2.48047
LJ          -1.78355      -0.0868719         5.64534
LJ          -3.28963        -4.86641         3.18753
LJ           -5.4004         1.84043         5.80721
LJ          -4.15009        -1.03318         3.91944
LJ           -6.4294       -0.240848         1.12965
LJ           -4.6323         1.32499        -5.21071
LJ           3.26668       -0.343375       -0.854685
LJ         -0.323708         1.80331         5.61057
LJ          -1.66562          1.7921         -5.2035
LJ           2.02489        -4.71896         2.98802
LJ            1.3846         4.48912        -3.70753
LJ          -1.03328        -1.27641         2.65571
LJ           1.94195         4.47856         0.88172
LJ          -1.61372         5.85711        -5.54674
LJ           2.39615        -6.35987         3.11142
LJ            4.6009         -5.0699        -5.54575
LJ          0.344741         2.03927        0.808669
LJ         -0.810754        -6.25057         4.28067
LJ          -4.41475         3.88406       -0.238195
LJ         -0.960421         4.47937         -4.9691
LJ           4.16101        -6.03775        0.222585
LJ             2.873       -0.206467         4.06968
LJ            5.4138        -5.92723         4.02951
LJ          -1.04004         -1.4783        -2.50501
LJ           5.14743        -4.13021         4.24542
LJ           5.72321        -5.92283        -1.13042
LJ           2.58426         1.38621         5.31616
LJ           3.90151         1.13385        -4.30842
LJ           2.50231         4.20435         4.27078
LJ          -2.42738        -5.31413        -5.74205
LJ          -1.02737         5.69012         6.09633
LJ           5.06274         5.85844         4.23604
LJ          0.563207        -5.68987        -1.17084
LJ          -3.09834        -4.94145         4.75892
LJ          -4.91845        -3.89379        -5.71008
LJ          -1.33136       -0.758934        -5.77732
LJ          -5.65521        -5.23808        -4.72955
LJ           5.77829        -3.46786       0.0256643
LJ          -5.42747        -6.16342         2.09758
LJ           1.67931         4.27443          3.4872
LJ           2.73239         1.47686        -6.37803
LJ           -1.9386         3.36907         3.12843
LJ          -3.05017         4.18042         4.86473
LJ          -0.26014        -3.97521        -4.62622
LJ          -5.89394         2.39724        -5.24074
LJ          -6.41391        -4.80577         1.86745
LJ          0.638756        -6.36053        -2.40496
LJ          0.159269         5.23204         5.18588
LJ            1.9304        -1.47032        -4.59047
LJ           2.16834        -1.26341        -6.42245
LJ          -5.81096         2.84915         5.57154
LJ          0.826329        -1.67095        -3.71772
LJ          -1.81548        -5.71427         6.00369
LJ         -0.612556        -5.43017         2.75136
LJ           3.00375        -1.30859      0.00780098
LJ           2.95378         5.21301         3.23291
LJ          -4.72488          2.6562        -2.17337
LJ         0.0521707         2.56032         3.12211
LJ            -1.919        -6.23999        -4.53587
LJ          -2.66189       -0.683853        0.289816
LJ           1.84694        -5.74951        -6.45932
LJ          -2.11661         4.39519        -3.55195
LJ          -3.80997        -1.86072       -0.847433
LJ          -2.19421        -6.01037          4.9267
LJ           5.76082         5.02316         5.01004
LJ          -2.05227         6.23193         6.44753
LJ          -2.91544         2.44161        -5.46388
LJ           4.68855        -1.79384        -5.19277
LJ           -4.5258          -2.217        0.982045
LJ           2.69987        -6.45432        -3.68259
LJ          -1.33782      -0.0781923        -3.78613
LJ          -2.22663        -3.77228         -4.2231
LJ          -2.66325         3.68372         2.20874
LJ           4.91834        -5.11641          2.3668
LJ           2.01067         -1.8358        -0.11875
LJ          -2.50921       -0.692531         6.33957
LJ          -2.85416         -6.2075        -1.50073
LJ          -1.91354         3.15302         4.49191
LJ           1.57325         1.70621        -2.65459
LJ           1.38421         2.55485         6.46179
LJ          -1.57714        -1.22304        -4.16541
LJ           4.36373         2.28928        -5.87019
LJ          -3.73728       -0.666502        -2.77734
LJ           4.75668          1.1067         1.31332
LJ           4.60757         2.32526         3.00036
LJ           4.23962        -4.36516         2.63793
LJ           5.47709         6.40083         5.06721
LJ          0.895777       -0.607284        0.115052
LJ         -0.222027        -2.41776        -4.10798
LJ           4.63189         5.49495       -0.464455
LJ           1.74965        0.268386         4.89325
