108
#Comment!
LJ          0.480521         3.44493        -4.84819
LJ          0.260148        -2.47655        -6.23035
LJ           2.93479         2.77089       -0.210848
LJ           5.53098         4.92355        -4.20236
LJ           4.81864        -2.27799       -0.923842
LJ            5.0315        0.389596        -4.70844
LJ          -4.45229        -3.08033         5.65314
LJ           1.32038        0.375496         3.12422
LJ          -3.71965        0.739121         4.06955
LJ          -1.10072       -0.350106        -1.39541
LJ            3.9853       -0.558683        -5.07198
LJ          -4.89135         2.53641        -6.05687
LJ           2.72081        -2.44971         2.16835
LJ           5.33299        -5.13551         -4.7437
LJ            2.9489        0.249579        -1.76401
LJ          -2.78261        -4.82841        -1.98451
LJ           2.65368        -4.12752         2.41769
LJ          -1.78781       -0.281601          5.5121
LJ          -3.33716        -4.91525         3.18182
LJ            -5.322         1.80314         5.78443
LJ          -4.14981       -0.996815         3.84239
LJ           -6.4521       -0.418756         1.08609
LJ          -4.67112         1.21603        -5.59884
LJ           3.01417       -0.478549       -0.905145
LJ         -0.311959         1.78674         5.81549
LJ          -1.68747         1.69434        -5.08929
LJ           1.89455        -4.68858         3.02461
LJ           1.31701         4.62077        -3.71372
LJ         -0.968967        -1.30281         2.51854
LJ           2.05837          4.6312        0.853828
LJ          -1.51188         5.86755        -5.42773
LJ           2.41269        -6.37358          3.0809
LJ           4.68582        -4.93861        -5.65139
LJ          0.345614         1.98612        0.843321
LJ           -1.0008        -6.44214         4.08278
LJ          -4.36066         3.88884       -0.207596
LJ          -0.94238         4.72462        -5.03552
LJ           4.16114        -5.95237        0.172136
LJ           2.88478       -0.132181         3.94061
LJ           5.29275        -5.88887         3.95412
LJ          -1.09369        -1.31597        -2.23194
LJ           4.93668        -4.18645         4.26092
LJ           5.62663        -5.93817        -1.07343
LJ           2.32866         1.41412         5.45572
LJ           3.91431         1.32615        -4.33158
LJ           2.45099         4.17571         4.50511
LJ          -2.16709        -5.26132        -5.60966
LJ          -0.95029         5.62422         6.24071
LJ           5.02853         5.88666         4.15806
LJ          0.537102        -5.73389        -1.17708
LJ          -3.20341        -5.04935         4.68584
LJ          -4.84752         -3.8281        -5.58484
LJ          -1.46572       -0.772492        -5.88365
LJ          -5.92157        -5.23286          -4.705
LJ           5.75465        -3.21753       0.0887511
LJ          -5.53529        -6.15463         2.10556
LJ           1.87252         4.15902         3.45092
LJ            2.6934         1.43151        -6.35829
LJ          -1.91475         3.16193         3.14095
LJ          -2.94117         4.32783         4.80559
LJ         -0.317322        -3.73764        -4.60651
LJ          -5.87342         2.26755         -5.3221
LJ          -6.40444        -4.86306         1.96994
LJ          0.575625        -6.26954        -2.52421
LJ          0.229878         5.06957         5.06225
LJ           1.96409        -1.40733        -4.51216
LJ           1.92524        -1.33513        -6.29317
LJ          -5.57907          2.8665         5.58041
LJ          0.655565        -1.85488        -3.51652
LJ           -1.7159        -5.60329         5.79296
LJ         -0.486521        -5.65135         2.65791
LJ           3.05004        -1.19313      -0.0282522
LJ           3.17009          5.2897         3.21515
LJ          -4.79057         2.63817        -2.25081
LJ          0.184074         2.34925         3.08519
LJ          -1.98285        -6.25316        -4.49358
LJ          -2.52752       -0.653245        0.575671
LJ           1.77159        -5.92996          -6.258
LJ          -2.04203         4.62764         -3.3578
LJ          -3.81897         -1.8764       -0.934454
LJ          -2.08479        -5.88225         4.84642
LJ           5.76857         4.93411         5.03038
LJ           -2.0184         6.08717         6.44043
LJ          -3.00788         2.42923        -5.43655
LJ            4.7571        -1.65489        -4.93625
LJ          -4.44179        -2.23641          1.0369
LJ           2.61215         6.32155         -3.6734
LJ          -1.30608      -0.0971727        -3.84708
LJ          -2.16757        -3.85281         -4.1847
LJ           -2.7713         3.62835         2.36087
LJ           4.92539        -5.06131         2.38206
LJ           1.93674        -1.75153       -0.156026
LJ          -2.48387       -0.512029         6.22937
LJ          -2.76135        -6.28494        -1.63344
LJ          -1.78381         3.17935         4.40191
LJ           1.63331         1.69904        -2.64752
LJ           1.40865         2.46891          6.3844
LJ          -1.63577        -1.37733        -4.16609
LJ           4.42727         2.35779        -5.70991
LJ           -3.7936       -0.630686        -2.94226
LJ           4.93049         1.04594         1.32394
LJ           4.62208         2.24212         3.09078
LJ            4.0039        -4.29983         2.61652
LJ           5.77651         6.31653         4.85037
LJ           0.86809       -0.443647        0.141186
LJ         -0.141858        -2.48264        -3.93912
LJ           4.76502         5.58096       -0.392128
LJ           1.62735        0.182656         4.92463
