108
#Comment!
LJ            1.1152         3.56062        -5.02134
LJ          0.255166        -2.47974         -5.2494
LJ           3.98854         2.68611       -0.326096
LJ           6.21665         4.69745        -4.25239
LJ           3.91113        -2.48897       -0.140282
LJ            4.8388        0.109999        -4.59971
LJ          -4.23521        -3.02619         5.53909
LJ           1.33936         0.41591         4.13527
LJ          -4.02733         1.17527         4.95943
LJ          -1.29643        -1.13591        -2.55465
LJ           4.06577        -1.36781        -5.46249
LJ          -4.22769         2.78419        -6.19814
LJ           1.95044        -3.21296          2.2647
LJ           5.47056        -5.38155        -4.46266
LJ           2.84707         1.30917        -1.91626
LJ          -3.46747        -5.85057        -2.33312
LJ           2.95488        -3.71041         2.42763
LJ          -1.78141        0.540208         6.16007
LJ            -3.112        -4.70039         3.26556
LJ          -5.65731         2.04897         5.94516
LJ           -4.1478        -1.14965         4.19382
LJ           -6.3541        0.383743         1.28209
LJ          -4.52258         1.77445        -3.89148
LJ           4.09166        0.113468       -0.684569
LJ         -0.363176         1.86365          4.8954
LJ          -1.59018         2.14612        -5.62152
LJ            2.1807        -5.18746         3.12583
LJ           1.59947         4.00553        -3.72372
LJ           -1.2582        -1.18312         3.13596
LJ           1.53618         3.94186        0.982495
LJ           -1.7192          5.6858        -5.49355
LJ           2.34835        -6.33211         3.22057
LJ           4.43007         -5.5384        -5.05643
LJ          0.343153         2.22667        0.690805
LJ         -0.192091        -5.59039         5.00281
LJ           -4.6041         3.86354       -0.351028
LJ          -1.06016         3.64267        -4.72561
LJ           4.18075        -6.37877        0.373271
LJ           2.72478       -0.394319         4.58369
LJ           5.78626        -6.21485         4.44661
LJ         -0.883963        -1.89728        -3.43935
LJ           5.87281        -3.96409         4.16126
LJ           6.04882        -5.87435        -1.31873
LJ           3.39269         1.21007         4.95369
LJ           3.90536        0.411989        -4.25726
LJ           2.62467         4.04347         3.56852
LJ          -3.20911        -5.62892        -6.30797
LJ          -1.43428          6.0311         5.69012
LJ           5.02913         5.95214         4.34681
LJ          0.666766        -5.62217         -1.2682
LJ          -2.66942        -4.65792         4.99622
LJ          -5.16485        -4.13944        -6.14566
LJ         -0.953747       -0.716121        -5.39887
LJ          -4.72886        -5.23137        -4.83716
LJ           5.85025        -4.33912       -0.195983
LJ          -5.07062        -6.16731         2.06657
LJ           1.18515         4.71511          3.6397
LJ            2.8789         1.64535         6.32486
LJ          -2.10136         4.09737         3.03979
LJ          -3.35017         3.60322         5.04425
LJ        -0.0690924        -4.76793        -4.68906
LJ          -5.87619         2.83346        -5.01124
LJ           6.45217        -4.63831         1.52455
LJ          0.849852         6.33229        -1.87216
LJ         -0.193867         5.84893         5.65366
LJ           1.98698        -1.77394        -5.03603
LJ           3.02249        -1.00708         6.06812
LJ           6.35387         2.75149         5.58165
LJ           1.16224       -0.997679        -4.30062
LJ          -2.06155        -5.26098         6.37707
LJ          -1.05666        -4.66871         3.10477
LJ           3.09926        -1.52738       0.0912637
LJ           2.04477         5.26885         3.14302
LJ           -4.4941         2.72291        -1.89797
LJ         -0.417836         3.30492         3.25428
LJ          -1.68788        -6.27879        -4.85806
LJ          -3.16427       -0.831678       -0.731518
LJ           2.10982        -5.11915         5.76195
LJ          -2.34073         3.58385        -4.26933
LJ          -3.75414        -1.76625       -0.516629
LJ          -2.52029        -6.37686         5.37561
LJ           5.82228         5.33977         5.05664
LJ          -2.48127         6.09222         6.27282
LJ          -2.61291         2.47318        -5.54676
LJ           4.43181          -2.268        -6.11804
LJ          -4.81064        -2.14332        0.772153
LJ           3.00474        -5.92814        -3.71516
LJ           -1.4357        0.118503        -3.46355
LJ          -2.42064        -3.49427        -4.36286
LJ          -2.19751         3.85022         1.82871
LJ           5.16496        -5.58183         2.21235
LJ            2.0191        -2.21162      -0.0104409
LJ          -2.49826        -1.27524        -6.16968
LJ          -3.18705        -5.85059        -1.08957
LJ          -2.43842         3.13874         4.73491
LJ             1.379         1.72148        -2.67159
LJ           1.31162         2.84354        -6.17669
LJ          -1.32161       -0.876919        -4.27509
LJ            4.1008         2.02294        -6.43401
LJ          -3.53283       -0.795789          -2.192
LJ           4.15059         1.32423         1.28216
LJ           4.55499          2.6093         2.67524
LJ           4.80126        -4.30725          2.8329
LJ           4.53266        -6.24291          5.6995
LJ           1.04163        -1.22265       0.0160794
LJ          -0.48535         -2.1176        -4.66287
LJ           4.15917         5.24735       -0.694636
LJ           2.29914        0.609368         4.68103
