108
#Comment!
LJ          0.246762         5.86259        -5.13358
LJ          -3.74168        -5.37113        -4.33978
LJ          -3.74042        -2.44488        0.459955
LJ           3.48233        -3.15497        -4.18397
LJ         -0.951626         3.46451         4.28783
LJ          -5.11133        -1.80449         6.12406
LJ           1.13145        -2.76633         5.67397
LJ          -3.15307         1.76556       -0.644561
LJ          -1.79053        -5.48189         6.25423
LJ           3.69453        -2.38287       0.0473728
LJ         -0.136477         6.43347        -2.43568
LJ         0.0470388        -1.57258         1.06064
LJ           -3.2696        -3.82544         2.52331
LJ           1.50079         3.92576         -4.8402
LJ          -5.47665         -4.0462          1.7737
LJ         -0.769692         3.89086         1.13169
LJ          0.791349       -0.395986        -2.16452
LJ          -3.49666       -0.450117        -1.47185
LJ           5.66224        0.067823         3.46377
LJ          -5.20715        -2.84697         5.08132
LJ          -2.22157         4.29729          5.7437
LJ           6.29215         5.52186        -1.45406
LJ           1.55994         2.96149          2.7686
LJ          -3.46021        -3.32207        0.487047
LJ         0.0241029        -2.61899       -0.213988
LJ           -1.0554        -2.96068         1.48949
LJ            4.3992        -3.39368         5.48674
LJ           2.53224           1.444         5.35897
LJ          0.609807        -4.43955         4.01737
LJ          0.524468         1.77243         1.43304
LJ          -1.48316        0.387902         -6.2482
LJ          0.425167         -6.0129        -3.26716
LJ            1.0923         6.20266        -6.14086
LJ           1.15124          -3.685         6.11065
LJ          -5.56841        -5.78911         6.37729
LJ           5.39996         4.22645         5.36119
LJ          -6.35228         -1.6668        -4.51267
LJ         -0.842605        -0.97722        0.794957
LJ          -3.89913        -5.72607         -1.6462
LJ          0.215523        -5.13619        -5.73475
LJ           4.39506        0.748154         3.31293
LJ          -1.01508        -6.38436         3.28355
LJ          -5.22984         3.92133        -2.95734
LJ           1.53177        -2.17684         2.42601
LJ          -2.66949         4.12453        -5.01447
LJ          -1.25622          1.7226        -3.57714
LJ          -5.11119         2.05312         4.58012
LJ          -6.08785        -2.44366         6.01777
LJ          -1.67821        -2.94299        -1.22665
LJ          -4.38342        -1.40162         2.44225
LJ          -6.00335        -5.27123        -5.12094
LJ           -1.8787         4.19803          3.4825
LJ          -1.74984         2.74357        -4.10129
LJ         -0.852063          6.0165        -3.53687
LJ          0.222518        -1.92046         3.83282
LJ          -4.55668        -2.16267       -0.421073
LJ          -4.66178         5.70399         -5.3923
LJ          -1.42946         -1.2524        -4.49994
LJ           1.93774        0.978083         1.70148
LJ          -4.64423        -4.79635         2.71586
LJ           6.03663        -4.25686         1.15192
LJ           2.20341         2.62976       -0.205198
LJ           5.85423         2.22374        -3.45858
LJ         -0.966128         1.37491        -2.63047
LJ         -0.284132        -1.16983        -1.67229
LJ           4.94915         4.98702        -5.72876
LJ          -5.37901         2.03265        -4.29504
LJ           3.90572        -4.36882        -5.11096
LJ           1.21875         -3.5797         4.46576
LJ           1.79739        -5.71153         6.36737
LJ          0.721967        -1.69986       -0.339687
LJ           -5.4256        -2.68059        -1.92558
LJ          -2.95295         6.02863        0.808492
LJ           2.73457        -5.81309        -0.68741
LJ           -3.4733        -3.32191        -6.41494
LJ           2.64778        -5.96352        -3.01128
LJ          -4.04709         6.43775        -2.42786
LJ          -6.22336        -1.70107        -2.24961
LJ          -6.31652         4.41531        -1.88407
LJ           5.46557        -1.03363         4.69129
LJ          -2.37964         -5.6306        -3.57315
LJ           3.22679       0.0455059         6.05202
LJ          -4.54512        -4.90758        0.433618
LJ          -3.10491        -3.56059        -2.78819
LJ           6.39663         5.00749        -5.96182
LJ           4.84774         5.46531        -4.79794
LJ           3.67874         1.22851          1.5707
LJ           3.65724         2.60119       -0.509865
LJ           3.01948        -3.13937        -1.43312
LJ         -0.728213        -1.78638         5.10305
LJ          -4.52684         2.40949        -1.88086
LJ          -2.70133        -6.13373        -5.79254
LJ          -0.92373        -2.09488         2.05459
LJ           2.89363        -4.23313          4.5323
LJ          0.461676        0.717858         5.91506
LJ          0.692373        -2.64959        -1.69973
LJ           1.62334         -4.0714          1.4585
LJ           1.09143         2.49117        -2.54516
LJ           3.02096         1.59652        -6.28888
LJ          -2.36644         3.49923          2.9642
LJ          -5.44751        -1.34962         -1.7303
LJ         -0.996385        -1.96928        -6.02578
LJ          -5.98766        -2.74856       -0.457624
LJ          0.672476         3.38801        -0.32292
LJ           5.38075         6.19069       -0.907937
LJ           1.63861        -5.07801        0.901244
LJ          -4.67476        -2.83677        0.313481
LJ           1.50924       -0.860394        -6.24209
