108
#Comment!
LJ          0.325458        -6.16451         4.84158
LJ          -4.05497        -6.38074        -2.27123
LJ          -3.50111        0.758142        -3.64291
LJ           5.16233        -2.51335        -4.03373
LJ            1.6381         4.93643         4.61318
LJ          -3.54783        -1.12336        -6.05067
LJ          -1.83501        -4.35274         4.07627
LJ          -4.83947         1.51076        -6.33437
LJ         -0.347174        -5.03142         4.95005
LJ           1.92435        -2.36823          5.3233
LJ         -0.381467        -4.57789        -4.29714
LJ         -0.987285        -2.54786         2.89634
LJ          -5.56118       -0.200923         5.95902
LJ          -1.79298         5.25692          6.3332
LJ          -4.77623        -4.11749       -0.273183
LJ          -2.10369        -5.58417         5.53236
LJ            2.1445        -2.07306         2.61332
LJ           -5.6937         -1.0404        -5.88177
LJ          -3.20387       -0.168646        0.659445
LJ         -0.374565        -5.08322       0.0119317
LJ          -3.12652         6.25661        -6.26004
LJ          -4.02621         5.27822        -2.82739
LJ           1.33945         5.08962         5.77872
LJ           6.24263        -5.41204        -1.21835
LJ         -0.106811         3.07284          -3.421
LJ           -3.1166        -5.55754        -1.04079
LJ          0.519459        -4.90024          4.1796
LJ          -2.91915         1.34298         1.55633
LJ           0.35541        -4.07029         5.80349
LJ           2.98614         4.32822        -2.22862
LJ          -2.36436        0.547285        -3.03007
LJ           2.86608          2.4396        -4.23967
LJ         0.0385482          1.9551          4.8117
LJ          0.827941        -2.98605         5.84975
LJ          0.428171         4.05441        -5.32277
LJ           4.21566         5.13115         4.96987
LJ          0.609232        -5.05767        -1.07894
LJ          0.171683        0.954762          2.6537
LJ          -3.92067         5.56775        0.451793
LJ           -2.2047        -4.19291        -4.58418
LJ           4.65916         4.26765         4.21782
LJ          0.334117         3.91137         2.89526
LJ          -4.42277         4.91598        -4.80603
LJ           2.06167        -1.20201         3.36467
LJ          -2.97471        -5.83516        -3.82022
LJ          -5.45191         4.89486        -6.14647
LJ           4.23645       -0.495881         4.86028
LJ           5.01501        0.742018         4.69446
LJ            4.6382        0.186337         -4.2961
LJ          -3.77988        0.223222         1.72228
LJ          -6.45983         5.36198        -3.65796
LJ           1.87746       -0.351188         5.13972
LJ          -3.23146         1.22985        -4.61125
LJ         -0.202871        -4.49956        -3.19144
LJ           1.57305        -3.44777        -6.13625
LJ          -3.08782        -6.26154      -0.0784082
LJ           4.50386         4.94698       -0.350637
LJ          -5.10612         -2.0054         5.84507
LJ          -1.40988        -2.04036        0.269095
LJ          -6.04291        -4.79527         3.02215
LJ          -5.59352        -6.06063         1.64251
LJ           2.20776         3.90434         3.82073
LJ           4.40427        -1.97165          -3.559
LJ          -2.63411         4.67374       -0.114871
LJ           2.13572         4.11164       -0.137523
LJ           3.07473        -4.65397         5.03427
LJ          -5.65345         6.00144         3.75234
LJ           1.25904        -3.66641         -2.8987
LJ           2.44839        -3.07235         2.27708
LJ           4.92435        -5.52892          5.8346
LJ           1.56509        0.989625         3.21799
LJ          -4.71044        -2.24104         1.07706
LJ          0.522333         4.60951        -1.25886
LJ           6.39596         5.58479        -2.70257
LJ         -0.507602         1.81227        -2.43347
LJ          -4.28315         5.11411        -6.12606
LJ          -2.22215        -5.47047         1.67082
LJ          -4.67306      -0.0693443        -6.43155
LJ          -3.12055         5.15809        -1.61193
LJ           4.50433        -6.28521        -5.18925
LJ           5.43688        -2.93162        -2.24691
LJ           5.83963         4.03078         5.90371
LJ            1.3785         3.88474        -3.06972
LJ          -5.71323        -4.92916         -2.9669
LJ           5.05603         4.94313         5.99439
LJ           3.62228        -5.35349        -3.17367
LJ          -2.24339         4.03895        -5.92201
LJ           3.51205        -1.33046        -3.90825
LJ          -5.79192        -1.02451         1.50764
LJ           2.81149        -1.61988         5.24888
LJ          -1.82301         1.33331         1.43484
LJ          -1.38248        -6.07012         2.99533
LJ         0.0827827        -3.59671          2.9901
LJ         -0.264114        -5.72607         3.52789
LJ          -3.67233        0.551015         3.72249
LJ           2.38728        0.406627        -5.30628
LJ           1.46734         2.78912         3.19957
LJ          -1.45417         3.63653        -4.38065
LJ           5.10727         3.57901         5.12164
LJ          -4.01729         2.75177         2.00176
LJ          -2.77998         -3.8263       -0.640906
LJ          -1.87051         3.18333        -5.60033
LJ           3.47961         6.28572        -1.26898
LJ           5.88324        -0.11553        0.782644
LJ           2.83641        -6.20826        -3.64638
LJ           3.08705         1.70462        -1.51986
LJ          -3.76434         3.71808         3.05536
LJ          -3.30994        0.843757         4.92674
