108
#Comment!
LJ  -0.30136258865859156   -0.2694597974115418   -0.1324119977083065
LJ  0.25082306023779971   0.1027242173620635   -0.49489171194003295
LJ  -0.26388846983651565   0.29822895036170777   0.04213140903989588
LJ  -0.33224519814701226   -0.46939617613792467   0.49541958359463267
LJ  -0.13567367252287935   0.18572036029260819   0.41148586661304021
LJ  0.014560941078308904   -0.358781834730591   -0.39160294677136193
LJ  0.16714530305087971   -0.33432114741962055   0.24270948988751095
LJ  0.11907032515632067   -0.47621511568226915   -0.061093234316553793
LJ  -0.27845209838588991   0.02546035172850929   0.30606918119625515
LJ  0.45573564856453314   -0.46427624011703378   -0.474314752317333
LJ  -0.14478709892691852   -0.42173676799634519   0.47780067343632682
LJ  -0.041287828115085821   0.0017249369386184363   0.30722038201492624
LJ  0.4937437603829542   0.212829385187812   -0.28934634889271549
LJ  0.10435157616109228   0.2098753591235514   -0.33415435552689088
LJ  0.011525951763386139   0.20518675734387287   0.25331209589460663
LJ  -0.29658809628946242   -0.16323867204519238   -0.43209019773212803
LJ  -0.31544205897609728   0.27579961631089417   0.27323201113623219
LJ  -0.21462657116596773   0.021759076373240864   -0.29128774601599194
LJ  -0.48009336769682809   -0.25561381131991068   0.48637943471261008
LJ  0.21689850908053257   -0.30514839938242883   0.44596726478345539
LJ  0.49881571468390523   -0.15923393893486859   -0.039493078663496634
LJ  -0.0022217768610722556   0.31200058318466573   -0.20289881153457712
LJ  0.18505613072327479   0.29478244419496547   -0.12629422988151304
LJ  0.43307732649958769   0.018593261289798119   0.10196989591280568
LJ  0.1893918342673519   0.48548206601305843   0.13768958683590099
LJ  -0.1081070528698647   0.44372471515541373   -0.094882894652667277
LJ  0.25955099200886134   -0.1633697205959091   -0.069333787330153135
LJ  -0.051067015429148294   -0.1582663501324007   -0.41986841605765102
LJ  0.28952370372256647   -0.11509323046997111   -0.4792790351802626
LJ  0.31972349822018969   -0.40465819711347129   -0.11925619056431695
LJ  0.016263454423329951   -0.29276426704765895   0.40480503478326074
LJ  0.16555630487874506   -0.096816927480523091   0.35626464327099899
LJ  -0.068308365355732426   -0.46861310441854626   0.089810082981366751
LJ  0.40010592653413996   0.26485484024847739   -0.46210867452083199
LJ  -0.23424508258237603   0.23569620282742845   -0.18732841493179214
LJ  -0.057237840686143411   -0.11323413318661726   0.059875932275931382
LJ  0.39879681412144624   -0.17819716081486972   0.3264664798916993
LJ  0.44629770948204101   -0.17465215849499449   -0.27187503956373416
LJ  -0.24600847490640143   -0.063949893588110721   0.0076972783762271433
LJ  0.4668895028259395   0.30705102159373437   0.19552834386315104
LJ  0.022798617926165957   0.091925451000132344   0.036945672959588248
LJ  -0.45796573207314045   0.20250288936869962   0.053108643490835231
LJ  -0.18499319382502874   -0.36232283831944684   0.26207723700833024
LJ  -0.35154214314465704   0.071566303525349026   0.15404471523604218
LJ  -0.35962640106355614   0.27035615839247373   0.46635748381781
LJ  0.19475142111469862   0.47299601861945895   0.33288410844023447
LJ  -0.13671083508809567   -0.1710664032945084   0.39323697481001635
LJ  0.34236505846778781   0.18943408656173211   0.094638552766489609
LJ  -0.45186968540549788   0.14902536670932809   0.31255439235381244
LJ  -0.3936879198298705   -0.31764358902433087   0.31380674802805247
LJ  -0.35797761246447096   0.11534735838542354   -0.093912286340232243
LJ  0.42037519226366155   -0.3761491261353721   0.34399951415366636
LJ  -0.098669733900283829   -0.18413220999770263   -0.21325533549371969
LJ  -0.029377535056821114   0.0060338792722105673   -0.29395563847247391
LJ  0.13305001298243879   0.48904874354430633   -0.29277253028861244
LJ  -0.013478070506786543   0.45434496041353639   -0.43196086139034617
LJ  0.37246523327331166   0.42768920695612717   0.010505755616034179
LJ  -0.43913371701365445   0.45473688791927208   0.064880284278576811
LJ  0.16867866436086312   0.076322865936625656   0.24115568643670729
LJ  0.053821549949097519   -0.27801078075730101   -0.0056741136131626888
LJ  0.45399774367624235   0.014971562990235658   0.43417289327932512
LJ  -0.18983506530710476   0.37390639110563367   0.45250274927128303
LJ  0.35422608359305846   0.47212009461915899   0.23395175673550672
LJ  0.16702337766256464   -0.017561495939976569   -0.29217997835456133
LJ  0.34772308446851896   -0.030548071100029484   -0.18940452202643845
LJ  -0.26494027720803826   -0.47640402821985156   0.033199680946308811
LJ  0.44618849395710286   -0.00021948042077664853   -0.36212332354660315
LJ  -0.12059141424737732   0.20704320903760254   -0.37477808834407689
LJ  -0.16089292821579201   0.11118547695893639   -0.052664804635294105
LJ  0.080288889235698963   -0.071254832140345489   -0.11282568430090285
LJ  -0.49424933801483428   0.39939097219614594   0.38990631571927903
LJ  -0.35526234758704467   0.46526227134949227   0.25929437878701095
LJ  -0.16938790763548572   0.15895519369857039   0.17142688918753529
LJ  0.018061247580512644   0.13958002529079291   -0.14390085208856099
LJ  -0.4640953593545078   0.42173516672550232   -0.32474873055341896
LJ  0.14815164974698436   -0.14142770452435846   0.14106001902099757
LJ  -0.15379611554726938   0.0082335356529318997   -0.4850162070003915
LJ  0.21095005792565272   0.37968261501106298   -0.44911061621179116
LJ  0.058842658410383497   0.050252723259300511   0.48539542086336507
LJ  0.21794598424849107   0.064944980734470498   -0.035279614601179163
LJ  0.14950880657619736   0.29145764760354154   0.16457968411401355
LJ  0.36211058898596682   0.40936950577655795   -0.20708193246519138
LJ  -0.0031508417291932177   -0.48305514566409452   0.28487863995013546
LJ  -0.3835154582069949   -0.06756518614264645   -0.25188886602704735
LJ  0.28760775150900075   0.23002559033210418   -0.28555571277365382
LJ  -0.34014999787842765   0.096756635386767612   -0.46112681700644875
LJ  -0.39599830824242943   -0.31735073595771079   -0.3004318938876307
LJ  -0.021447235123896676   -0.28132807906144142   0.18776126609037697
LJ  -0.29729179844811565   0.43298527240442441   -0.15945578946513855
LJ  -0.018735527241185952   -0.35858026333553833   -0.18451257785823463
LJ  0.4551215847292806   -0.33445492320490555   0.13118010909512789
LJ  0.067370074015918893   0.31962675642593175   0.43088846721997093
LJ  -0.4622027674449371   0.307996811170616   -0.122546681372754
LJ  0.17301728468802471   -0.20396861583656653   -0.3431983858804683
LJ  -0.42164500584283637   -0.426343477905826   -0.10021693917351904
LJ  0.25000416383951651   -0.39094648075473648   -0.38210587405058044
LJ  -0.26212190384710465   0.34926770531068202   -0.35370926942339698
LJ  -0.35085528542505884   -0.2891638822748453   0.091032114074537582
LJ  0.021109512844919673   0.32213165110679798   0.013750656989941747
LJ  -0.46492886643428499   -0.12405280388957159   0.20471194873488896
LJ  0.33701782752629822   -0.17714117397218493   0.11508003282754947
LJ  -0.21415882227813271   -0.16816127679388382   0.20964712104332922
LJ  0.36982694251528803   0.19818209504250595   -0.11005254888127054
LJ  -0.11820554793955261   0.36037446049843097   0.19243951100057988
LJ  0.23253519302766101   -0.33187531612203253   0.066973813420105985
LJ  -0.15820708457873997   -0.45180457385173911   -0.30265298858464634
LJ  0.30312440724819295   0.27191237842402521   0.34358705884321494
LJ  -0.15660235186296423   -0.30718115068020574   -0.014514329034643112
