108
#Comment!
LJ           1.08096         6.17582        -4.08792
LJ          -3.50829        -4.46528        -4.81464
LJ          -4.99512       -0.505172        0.769519
LJ           2.94825        -3.68724        -4.02868
LJ           -1.7454         3.33426         3.62505
LJ          -4.67392       -0.941796         6.06043
LJ            2.0549        -2.61317         5.05276
LJ          -2.46964         1.92387        -1.93313
LJ          -3.04969        -5.53447         6.13447
LJ           4.46257        -2.33858        -1.64792
LJ          -1.02308         5.09624        -1.73087
LJ         -0.446477        -2.81774       -0.323508
LJ          -3.24902        -5.31596          1.4928
LJ           2.47827         4.20907         -4.3801
LJ          -4.82536         -5.2386         1.50879
LJ        0.00722063         2.81101        0.364081
LJ            -0.324        -1.06712        -2.88911
LJ          -3.39905       -0.496972      -0.0542311
LJ          -5.62933       -0.217891         2.96077
LJ          -6.12623        -2.32231         6.18938
LJ          -1.74991         3.94625          5.5264
LJ           5.38864         4.85596        -1.27389
LJ            1.6006         2.46281         1.77275
LJ          -1.48219        -3.72263         1.85971
LJ          0.798208        -5.01733        0.080029
LJ         0.0311531        -2.46762         1.65003
LJ            5.3635         -2.2374         6.17455
LJ          0.370496        0.950402         5.51708
LJ           1.18498        -5.03136         4.26492
LJ         -0.441069         1.29451         2.47801
LJ          -1.00833        0.189504          6.2487
LJ           1.17532        -5.12326         -2.9794
LJ          0.791107         6.02239        -5.23758
LJ          0.529328        -4.49992         5.89912
LJ            5.7764        -4.86844         6.18831
LJ           5.91846         3.30412         5.32489
LJ          -5.01387       -0.114723        -5.85114
LJ          -1.13111       -0.620264         1.03226
LJ          -3.99237        -6.10691        -2.20861
LJ             0.349        -5.94669        -6.15968
LJ           3.53785       -0.277652         2.81618
LJ          -1.36431        -4.65576         3.32422
LJ          -4.82492         4.26386        -3.00762
LJ           1.63957        -2.01452         2.81107
LJ          -2.41091         3.14116        -5.42856
LJ          -2.09271         1.54367        -4.91094
LJ           -2.9759         3.66014         5.71588
LJ           5.41627        -3.90685         6.30112
LJ          -3.36152        -3.48626       -0.324389
LJ          -4.59026        -2.27953         2.37644
LJ          -5.54535        -4.98447        -5.84545
LJ          -2.50235         4.87061         4.19938
LJ         -0.653637          2.6358        -3.68466
LJ         -0.223683         5.43287        -2.55966
LJ        -0.0190898       -0.629653         3.31567
LJ          -4.74729       -0.601615       -0.941268
LJ           -3.9495        -6.29213         6.32079
LJ         -0.189634       -0.609163        -4.52161
LJ           1.42798         1.44327         1.31499
LJ          -3.66072        -4.55093         2.80733
LJ          -6.36887        -2.99043        0.323985
LJ           1.98498        0.307311        -1.83851
LJ            6.0675         3.57053        -3.29969
LJ          -1.06149         1.66016        -2.30731
LJ          0.013372        -3.10883        -1.82215
LJ           5.30235         3.77569        -6.04896
LJ          -5.58678        0.471837        -3.12429
LJ           4.68457        -3.97551        -5.70408
LJ           0.73543         -4.0389         4.99946
LJ           1.77522        -4.32081        -6.42904
LJ          0.176772        -1.74341         -1.2157
LJ          -5.29102        -2.12493        -2.13572
LJ          -4.25461        -6.09598        0.773039
LJ            1.7193        -5.47319       -0.366079
LJ          -4.12454        -4.76566         6.28475
LJ           4.20534        -5.29496        -2.43495
LJ          -4.66815        -5.84977        -3.12701
LJ           5.90606        -2.97383        -1.65389
LJ           5.80032         4.66229        -2.59429
LJ           4.95956       -0.429733         4.44018
LJ          -2.24731         6.11739        -4.85344
LJ           3.79443       -0.624725         6.21099
LJ          -4.03616        -4.11691         1.63233
LJ          -1.92745        -3.15964        -2.25619
LJ          -6.11552         5.00148        -5.35872
LJ           5.32777         5.65039        -3.95921
LJ           1.10077        0.249332        0.696708
LJ           4.16069         4.51674        0.118164
LJ           2.06862        -3.47923        -2.17679
LJ          -1.02259        -2.08727         5.58968
LJ          -5.14141         2.11152        -2.83632
LJ          -3.29574         -6.0937        -5.28743
LJ          -1.47844       -0.917318         2.52358
LJ           3.60163        -3.38982         5.00251
LJ           1.76303        0.706775        -6.44467
LJ         -0.095885        -3.89594       -0.636581
LJ           1.65959        -1.79019         1.19432
LJ           2.46896         2.50577        -1.99472
LJ            1.9951        0.825915        -5.36265
LJ          -2.28892         2.90676         2.67487
LJ          -5.71025       -0.422505        -1.82359
LJ          -1.01741        -3.68103        -5.96155
LJ          -5.59871       -0.844066       0.0618949
LJ          -1.33994         4.91929        -0.34699
LJ           5.84678            5.29       -0.133256
LJ           1.07421        -3.95567        0.900199
LJ          -3.84578        -2.94525        0.744344
LJ           2.14569       -0.643187        -5.75383
