108
#Comment!
LJ           2.16811         2.22143        0.437052
LJ           2.15745         2.02979        -2.22337
LJ          -4.46442         5.42098        -4.06257
LJ          -5.69249         1.27842        -6.18714
LJ          -4.50078         3.78893         4.38983
LJ          -4.72977        -2.36021        -6.43447
LJ          -3.24558        -5.06282        -4.96299
LJ           0.36584         1.55045        -5.93548
LJ          -1.31663         3.81138        -5.07731
LJ           4.83386        -1.44232         -5.8102
LJ          0.883202       -0.066916         2.08663
LJ         -0.874617         1.51188         -2.4671
LJ          -5.26425        0.913612       -0.285863
LJ          -4.81579          4.5504        -4.63394
LJ           2.61657       -0.465859        -5.43589
LJ         -0.590991         3.70417        -6.22089
LJ           4.64622        -3.24763        -6.31732
LJ          -4.40663        0.227817        0.100411
LJ         -0.978319        0.218254         1.32052
LJ          -1.46565        -1.14807        -1.43577
LJ          -2.76745        -3.81714         3.20633
LJ          -4.58815         4.63651        0.540389
LJ          -1.08394        0.716121        -3.91245
LJ          -4.71991        -6.14691        -5.23318
LJ          -2.21646         -5.1578         4.10557
LJ            3.7855        -2.10077        -5.25737
LJ          -6.14559        0.906152         3.14791
LJ           1.03051         0.77707         2.92342
LJ             3.817        -3.27417         -5.7765
LJ           5.16578         2.04314        -1.92297
LJ          -3.20617         3.73886         4.19452
LJ           5.47885        -1.62257        -4.16188
LJ           1.57785         2.58706         1.31604
LJ         -0.152918         2.71152        -5.05819
LJ          0.916382         2.80605         4.85197
LJ          -5.14517        -3.44233         2.63687
LJ          -5.33524         2.76609       -0.104277
LJ          -4.99025         4.59097         3.44932
LJ          -4.89552        -2.81736         4.05247
LJ          -3.00203           2.041        -5.22141
LJ           4.43229        -1.61715       0.0753639
LJ          -3.85329         2.64129         2.88983
LJ          -4.14642        -2.91687        -5.72007
LJ           4.14411        0.650971         4.77547
LJ          0.963832         1.81377         5.76443
LJ           1.42557         5.02096        -4.12657
LJ          -3.39859        -3.08163         3.58914
LJ          -5.85529        0.263526        0.725193
LJ         -0.276203         5.34987          2.3744
LJ          -5.53064        -4.74911        -6.31866
LJ          -2.89614         -2.9067        -2.30725
LJ          -1.88874         4.03975         2.35038
LJ          -1.33399        -1.84517        -4.49649
LJ          -6.12274         2.48653        -5.98259
LJ           5.69349         2.97749         3.21287
LJ           6.28061         4.77676         4.17456
LJ           6.31805        -4.97531        -5.69197
LJ          -1.73737        -3.36856        -4.44795
LJ          0.211233       -0.132708        0.558016
LJ         -0.275087         5.10217         -4.2245
LJ          -4.87959         4.26624        -3.14273
LJ          -2.48292        -5.08635         -2.9695
LJ            5.4426        -5.63047        0.184647
LJ            4.3455         4.70517       -0.347935
LJ           4.20934         3.47954         -2.9847
LJ           -1.9522        -3.33143        -6.45178
LJ          -4.49252         1.90954        -1.15113
LJ          -2.17671        -1.18449          2.2588
LJ           3.74114         2.27169        -6.30376
LJ          -3.20745        -1.79682         4.42529
LJ           5.47901        -1.35227         6.18807
LJ          -5.58294          4.1799        -3.89098
LJ          -5.78867        -3.34881          -5.864
LJ          -2.79389        -6.43931        -0.67281
LJ          -4.53066        -5.66722        0.815459
LJ         -0.325684        0.693608         2.73781
LJ           5.96531        -3.51179        -2.03637
LJ           2.67119         5.20807          2.1233
LJ           4.00675         4.41768        -3.76158
LJ           -5.0809        0.353137         2.89626
LJ          -4.05148        -3.82937        -5.01444
LJ           3.74857         0.15313       -0.355677
LJ         -0.140478        -4.89944         1.70523
LJ          -6.24555         2.30324         3.46959
LJ          -3.52846          5.4119        -5.25878
LJ           2.98573         3.79862         1.31483
LJ           5.27322         2.59293      -0.0430989
LJ          -4.04989        -0.75208         2.07278
LJ          -0.59465        -1.18591        -3.84263
LJ          -1.57267          6.4488         5.67708
LJ            5.1438        0.791146      -0.0985124
LJ         -0.942983         3.52969         5.66471
LJ          -3.39206        -4.50975        -4.06538
LJ           4.76486        -4.98754        -4.77791
LJ          -4.12121        -2.80202         5.52596
LJ          -5.25407        -6.35193         2.86909
LJ           2.15998         2.92499         2.63048
LJ          -5.15979         5.96059        -6.20263
LJ         -0.192326         3.67496         1.46011
LJ          -4.68422         5.40889          2.5837
LJ          -5.97616         4.07126       -0.510252
LJ          -2.95506        0.896268         2.79322
LJ          -3.67039         3.00989        -1.93734
LJ          -6.39184        0.547663        -3.99415
LJ           1.28844         1.70883        -1.76103
LJ          -4.95892         2.96167         -3.1998
LJ          0.230408        -2.64541        0.760377
LJ          -1.15873        -2.02856        -2.26179
