108
#Comment!
LJ          0.203358         5.85545        -5.21817
LJ          -3.76121        -5.40212        -4.27787
LJ          -3.68392         -2.3581        0.410775
LJ           3.52194        -3.12701        -4.20057
LJ         -0.917457         3.49327         4.32714
LJ          -5.13505        -1.84374         6.14074
LJ            1.0786        -2.71447         5.72539
LJ          -3.19832         1.75411       -0.561187
LJ          -1.70266        -5.50303         6.27817
LJ           3.64141        -2.38861        0.156194
LJ        -0.0874983        -6.41134        -2.51759
LJ         0.0579385        -1.51008         1.16023
LJ          -3.29375        -3.72721         2.57706
LJ           1.43483         3.90829        -4.87083
LJ          -5.52076        -3.96324         1.75512
LJ         -0.816466         3.96666         1.17116
LJ          0.852959       -0.366208        -2.10744
LJ          -3.51541       -0.455419        -1.56473
LJ           5.58803        0.132329          3.4303
LJ          -5.13408        -2.90526         4.97674
LJ          -2.25385         4.31939         5.75364
LJ           6.35044         5.55891        -1.46371
LJ           1.55315         2.98282         2.82827
LJ          -3.53984        -3.49387        0.404677
LJ        -0.0156436        -2.44286       -0.208515
LJ          -1.12854        -3.05559         1.41836
LJ           4.34227        -3.47727         5.44235
LJ           2.67646         1.46448         5.37981
LJ          0.559894        -4.42714         3.98903
LJ          0.545054         1.81971         1.37359
LJ          -1.51225        0.400045        -6.21896
LJ            0.3707        -6.07954        -3.29276
LJ           1.06034          6.1298        -6.14706
LJ           1.19521        -3.66979         6.11521
LJ          -5.45698        -5.85035         6.41305
LJ            5.3652         4.28988         5.36881
LJ          -6.43998        -1.77188        -4.42657
LJ         -0.809082        -1.02401        0.784286
LJ          -3.90665        -5.71145         -1.6392
LJ          0.172681        -5.08591        -5.70019
LJ           4.46045        0.811775         3.34682
LJ          -0.99183         6.42775          3.2809
LJ          -5.27505         3.99354        -2.98054
LJ           1.51862        -2.18401          2.4206
LJ           -2.6837         4.18768        -4.98625
LJ          -1.23762         1.80737        -3.60603
LJ          -5.25142         1.94714         4.50459
LJ          -6.02381        -2.33167         6.02112
LJ          -1.56738        -2.90612        -1.28657
LJ          -4.36887        -1.34477          2.4402
LJ          -6.03488        -5.29663        -5.09563
LJ          -1.78248           4.189         3.48538
LJ          -1.82276          2.7111        -4.12213
LJ         -0.877695         6.06929        -3.56755
LJ          0.268509        -2.00392          3.8948
LJ          -4.55362        -2.23876       -0.403165
LJ          -4.71772         5.64277        -5.32587
LJ           -1.5108        -1.29645        -4.50161
LJ           2.03688        0.936515         1.71508
LJ          -4.67546         -4.8098          2.7362
LJ           6.01263         -4.3403         1.20996
LJ           2.22826         2.75845       -0.071243
LJ            5.8462         2.13626          -3.468
LJ         -0.925784         1.32526         -2.5431
LJ         -0.281683        -1.03244        -1.66263
LJ            4.9546         5.00518        -5.82762
LJ          -5.38043         2.10517        -4.38867
LJ           3.85099        -4.38735        -5.06683
LJ           1.25066        -3.55662         4.44484
LJ           1.87327        -5.71429         6.31626
LJ            0.7463        -1.66153       -0.271051
LJ          -5.42396        -2.69525        -1.88796
LJ          -2.86724         5.97932         0.81222
LJ           2.79928        -5.83251       -0.707238
LJ          -3.44898        -3.21421        -6.39464
LJ           2.54286        -6.00741        -3.04902
LJ          -3.99033         6.40747        -2.35331
LJ          -6.23444        -1.63187        -2.32326
LJ          -6.26297         4.41091        -1.83291
LJ           5.45518        -1.11536         4.77319
LJ          -2.40277        -5.54804        -3.49929
LJ           3.23299        0.111887         6.01838
LJ          -4.59054        -4.95118        0.360332
LJ          -3.18222        -3.58721        -2.81815
LJ           6.35013         5.00691        -5.99954
LJ           4.80889         5.51592        -4.73973
LJ           3.83212         1.30135         1.63685
LJ           3.61531         2.47248        -0.55108
LJ           3.08367        -3.11485        -1.38008
LJ         -0.703376        -1.76892         5.07102
LJ          -4.46336          2.3699        -1.76892
LJ          -2.62476        -6.15841        -5.84885
LJ         -0.901477        -2.09936          2.0316
LJ            2.8413        -4.28563         4.50368
LJ          0.386419        0.723361         5.86066
LJ          0.736242         -2.5904        -1.78909
LJ           1.61688        -4.24493         1.44736
LJ          0.994624           2.518        -2.60632
LJ           3.08241         1.63622        -6.36457
LJ          -2.40803          3.4836         2.94374
LJ          -5.36266        -1.39316        -1.73639
LJ         -0.993966        -1.85121        -6.03383
LJ           -6.0932        -2.84118       -0.528454
LJ          0.804513         3.27999       -0.310144
LJ           5.35774         6.23954       -0.972868
LJ           1.67306        -5.13346        0.899506
LJ          -4.66992        -2.94136        0.393249
LJ           1.41539       -0.879902          -6.253
