108
#Comment!
LJ          0.466762        -5.96883         4.35351
LJ          -4.22147         6.18818        -2.40581
LJ          -3.33078        0.851256        -3.60996
LJ           5.40352        -2.44108        -3.86637
LJ           2.20846         4.91701         4.74403
LJ           -3.5476        -1.13218        -6.11153
LJ          -2.24827        -4.78889         3.93419
LJ          -4.98411         1.49687        -5.48927
LJ         -0.606695        -4.77596         5.06189
LJ           1.82368         -2.3624         6.41907
LJ         0.0173177        -4.32519        -4.39722
LJ          -1.60687        -2.59573         2.86445
LJ          -5.89994        0.156496         6.36876
LJ          -1.84653         6.14701          6.2177
LJ          -4.11439        -4.90062       -0.490076
LJ          -1.99012        -5.13705         6.03029
LJ           2.13013        -2.12716         2.59859
LJ          -6.12835       -0.874323        -6.13779
LJ          -2.33544       -0.371933        0.628425
LJ          0.302878        -5.65472        0.331613
LJ          -3.11714         6.42829        -6.06846
LJ          -3.73204         5.34021        -2.98489
LJ           1.16926         5.44788         5.70089
LJ           5.63187        -5.26544        -1.34591
LJ         -0.177282         3.45665          -3.872
LJ          -2.83732        -5.41925       -0.792477
LJ          0.375268        -4.98398         4.05405
LJ          -2.86528          1.3658         1.51708
LJ          0.152752        -4.08795         6.38919
LJ            3.3693         4.58769        -2.68268
LJ          -2.61907        0.580174        -2.54214
LJ           3.26721         1.86855        -3.97927
LJ          0.142187          1.5475         4.37357
LJ          0.739247        -3.03554          6.0898
LJ          0.988554          3.7359        -5.34344
LJ           4.13266         4.77503         5.39864
LJ         0.0841324         -5.2418         -1.2172
LJ          0.479033         1.22594         2.97876
LJ          -4.00803         5.27966        0.712977
LJ          -2.51214        -4.12747        -4.51684
LJ           4.35517          4.5831         4.28674
LJ          0.497524         3.72341         2.95406
LJ          -3.96945         4.74562          -5.372
LJ            2.2535        -1.39736         3.57411
LJ          -2.89199        -5.63155        -3.86075
LJ           -6.1412          5.0219        -6.17462
LJ           4.06282       -0.549284         5.10237
LJ           4.71437        0.997982         4.48919
LJ           5.07866        0.637069        -4.54858
LJ           -3.6877        0.390586         1.28335
LJ          -6.24642         4.86599        -4.03198
LJ           2.21846        -1.07907         5.34357
LJ          -3.20531         1.28282        -5.11204
LJ         -0.372943        -4.37704        -3.25388
LJ           1.66345        -3.37082        -6.42841
LJ          -2.89155        -6.44195         -0.1589
LJ           4.03778         5.15758        0.234975
LJ          -5.32491        -1.92909         5.25724
LJ          -2.30652          -2.498       0.0647324
LJ          -6.17538         -4.8444         3.00247
LJ          -5.06236        -5.74746         1.12333
LJ           2.21199         3.56459         4.16888
LJ           4.00675        -2.35122         -3.3929
LJ          -3.01232         5.32799        0.100966
LJ           2.43886         4.68198      -0.0496743
LJ           2.96092        -4.30185         4.67049
LJ          -5.70129         6.43657         3.20566
LJ          0.861011        -3.59892        -2.79344
LJ           3.13062        -2.79711         1.97217
LJ           4.98852        -4.85157         5.96849
LJ           1.55781         1.13421         3.47581
LJ          -4.79276        -2.21609           1.371
LJ          0.876455         4.48026        -1.56432
LJ          -6.18278          5.4773         -2.5191
LJ         -0.322073         2.51535        -1.94414
LJ           -5.0161         4.97135         6.24234
LJ          -2.03083        -5.26324         2.05747
LJ          -4.17479      -0.0880583         6.10871
LJ            -2.741         4.70786        -1.67713
LJ           4.40873         5.97261        -5.04909
LJ            4.7266        -2.79515        -2.31738
LJ           6.18648         4.05301         5.93115
LJ          0.649503         3.51731        -3.19769
LJ          -5.97815        -4.97229        -2.87562
LJ           5.07102         4.49604         5.93821
LJ           3.48251        -5.41173        -3.28242
LJ          -2.05571         4.54752        -5.30764
LJ           3.89929        -1.61811        -4.56498
LJ          -5.19839       -0.576036         1.68115
LJ           3.05297        -1.63659         5.25816
LJ         -0.771921         1.25151         1.60851
LJ          -1.92086        -6.30051          2.4268
LJ          0.146393        -3.42053         3.41813
LJ        -0.0607609        -5.74279         3.46011
LJ          -4.19899        0.494807         3.28742
LJ           2.61867        0.687857        -5.60808
LJ           1.35057         2.20762         3.31934
LJ          -1.58356         3.79804        -4.66062
LJ           5.25808         4.01151         5.07868
LJ          -4.13801         2.70348         1.99552
LJ          -2.93566        -3.89727       -0.792493
LJ          -2.04385         2.83401        -5.07419
LJ           3.23171         5.89767       -0.982683
LJ           5.91508      0.00296351        0.913915
LJ            2.1737        -5.92323        -3.57587
LJ           3.02148         1.10201        -1.83963
LJ          -3.69861         2.92516         3.20703
LJ          -3.67181         1.10634         4.75697
