108
#Comment!
LJ           5.76989        -3.89614        -3.04962
LJ          -1.04955         2.88191        -3.01811
LJ          0.649792        -4.89055         -5.1888
LJ          -3.74785        -1.45686        -4.20106
LJ           2.04657          1.8423         1.99048
LJ          -4.36005         5.96097         5.90439
LJ         -0.796512         -2.6958         5.09247
LJ          -2.08788         5.75762        -5.93491
LJ           2.98405         5.11604        -3.75429
LJ           3.23696         -2.0183         4.02579
LJ            5.3288         1.91537        0.109528
LJ          -6.03014       -0.645152          1.2244
LJ           5.17528        -4.70038         2.03102
LJ           -5.6467        -4.66839        -0.38053
LJ          -2.41682         3.65478        -4.77565
LJ          -4.49795         1.78585         2.55038
LJ          -3.96114        -1.91308         1.76991
LJ           4.51436        -4.92902          1.0087
LJ          -5.25946        -3.65655         3.94233
LJ          0.493973       -0.035636         1.82234
LJ           1.22673         4.85198         2.32791
LJ           2.92223        -3.28864         1.15369
LJ         -0.578085         2.08563         2.17263
LJ            4.4177       -0.713181        -3.81293
LJ          -3.70949         3.77593        -4.84849
LJ           4.14609         5.76497        -1.11207
LJ         -0.738383         4.35087         6.07593
LJ           4.78871        -5.48094       -0.227703
LJ           3.64047       -0.908087         5.80291
LJ          -4.48597         5.72686        -5.94872
LJ           3.27404        -2.53959        0.395038
LJ          -4.96137        -2.96623        0.459681
LJ           3.12583         2.83029         3.97997
LJ         -0.873814         -3.8779         2.07635
LJ           3.76872        -1.98571          1.1927
LJ           1.50433        -6.03632        0.803851
LJ           -4.8773        0.865231         4.34794
LJ       -0.00519559         5.53034        -6.30326
LJ          -1.20969        -4.22282        -3.07785
LJ          -4.58337         5.12003        -2.95101
LJ          -1.66124         2.19303        -5.70795
LJ          -1.12302        -2.78371        -2.92182
LJ          0.936061        -4.41587         2.72686
LJ           4.60603         2.96407        -3.17507
LJ          -1.21195        0.977142        -5.63474
LJ          -5.33097         -1.7155        -2.34644
LJ           1.52521         4.15508       -0.768336
LJ           3.27363         6.30136        -3.94974
LJ         -0.250134       -0.563793        -2.13489
LJ        -0.0366249         4.61612        -0.75941
LJ          0.256605         5.42919       0.0993387
LJ           -4.9664         4.10039        -2.05534
LJ           3.04137        -2.53872         2.11565
LJ          -2.59613        -4.40346      -0.0403968
LJ          -2.82639        -3.78286         6.05484
LJ          -4.06967        -1.44572         5.37868
LJ        -0.0946321       -0.412769         6.25842
LJ          -1.59082        -2.11874         4.42689
LJ          -4.38054         6.37161        -3.82307
LJ           3.24366        -1.21548        -3.72443
LJ          -1.06861         6.45167        -1.34048
LJ           1.82668        -6.45581         -2.2212
LJ          -0.64493        -1.71554         5.72855
LJ          -5.52827         3.36408        -3.57194
LJ           4.78703        -2.86431         5.09344
LJ          0.996924       -0.794945         6.36935
LJ           4.70342         2.92232       -0.483691
LJ          -1.67003        -5.11647       -0.804952
LJ           4.21515         -4.0881        -3.73824
LJ          -1.65826         1.57911       -0.772647
LJ          -1.24962        0.131719         2.89203
LJ           3.56402         2.47038       -0.646902
LJ          -5.50587         1.65107          4.7914
LJ           5.01275       0.0557615         -1.2727
LJ         -0.633377        -3.48869        -3.66832
LJ            1.0821        -5.20356         4.48541
LJ          -2.64476        -3.64956         4.71618
LJ           2.02959         3.99814        -6.08106
LJ           4.74272         3.02643        -1.71017
LJ           2.05535         5.02624         5.65122
LJ          -3.90428        -0.42649         3.10279
LJ           4.00029          1.8518         2.41505
LJ          -5.11589        0.649105         2.97194
LJ           1.41443       -0.985751         5.45902
LJ          -4.50641        -3.62522         2.89766
LJ          -1.58386        -0.36967        -1.27637
LJ          0.904015        -5.15603        -4.16134
LJ          0.250875         3.24463        -5.03523
LJ           -4.1297         1.48171         5.37522
LJ           6.08172        -5.28451         3.81076
LJ          0.715977         5.00656         5.72709
LJ           3.02405          3.2769       -0.617386
LJ           4.13587         1.16914         -5.3496
LJ          -5.84199         6.05561         4.65523
LJ          0.513817        -6.17241        0.700361
LJ          -5.58303         -5.6676        -1.63748
LJ         -0.049594         5.39836         4.86128
LJ           1.78966         4.61767         4.17183
LJ          -3.65552         6.03759        0.673927
LJ           1.06988         1.21956         -5.9327
LJ          -3.71293        0.471191         4.41064
LJ           1.16223         4.15059         1.50359
LJ          -5.75469        -5.68815          2.4802
LJ          0.749977        -3.19331        -1.19785
LJ          -4.54031           3.472        -4.04883
LJ           5.98526         3.48648         6.11768
LJ          -1.84898        -3.64234        -1.39375
LJ          0.745406        -3.29056        -5.47686
