108
#Comment!
LJ          0.326039        -6.12865         4.54261
LJ         -0.919987         6.21295        -4.67863
LJ          -3.89014        0.458976         -1.9667
LJ          -4.69999        -5.75438        -3.02024
LJ           4.55859         3.33435        -4.54405
LJ          -3.14721       -0.605566         5.85969
LJ          -6.23394         4.56001         2.08569
LJ          -5.56438          2.2592          2.1691
LJ          -0.96746        -3.32559         5.94036
LJ           1.43091        -1.11469         2.90422
LJ           -0.6465         -1.9411        -3.17199
LJ           4.89518        -4.63891         3.46838
LJ          -5.14032         4.25463         4.60281
LJ          -4.66782         1.69677         6.10441
LJ          -4.41675         1.50284        -1.85382
LJ           1.93687        0.334958        -2.71482
LJ           4.07124        -1.90444         5.44411
LJ           2.40076        -3.66467        -5.97336
LJ           6.22901        -1.88369        0.637452
LJ          -5.93157         1.68391        -6.29797
LJ          -1.39994        -4.05457         -4.9741
LJ          -1.33058         5.13426        -4.92118
LJ          0.681507        -4.80771         2.93176
LJ         -0.972599        -3.22559         -2.7608
LJ          0.664408         4.71793         1.73219
LJ          0.866843        -3.65474         2.47815
LJ         -0.448315         -2.6972         4.35751
LJ          -1.83598         3.53699        -2.08201
LJ          0.682904        -2.61752        -3.44649
LJ          -6.36057         5.57403         2.16412
LJ          -3.01324        0.788718        -1.37743
LJ           4.71954        -1.15902       0.0544412
LJ          0.343862         -3.0636         3.40972
LJ          -1.65438        -4.77279        -6.16048
LJ           4.14937        -1.53261         6.30968
LJ           5.06574         3.43355         5.99369
LJ          0.564656        -3.52017        -4.18973
LJ           2.66837          2.1525          4.4311
LJ           6.31319         1.25041         2.66552
LJ          -5.69631        -3.53441        -3.55319
LJ           5.06967        -2.56466         5.26933
LJ          -4.55573        -6.04182         3.09774
LJ            1.6122         3.68441         1.90523
LJ           4.42255        -1.04272         4.71091
LJ          0.522373        -5.22237        -3.54694
LJ           1.30796         2.76497         4.57514
LJ          0.915905         -5.1903          6.3356
LJ           5.67952         1.53128         1.70257
LJ          -6.46163         5.85222        -2.09108
LJ          -2.31227         4.47511        0.769549
LJ          -5.22303       -0.637573         5.34166
LJ           3.26984         6.29381        -5.96205
LJ           -2.3706          1.1007        0.557321
LJ          -3.79547        -1.89716        -3.84964
LJ           1.36863        -3.87058        -6.19207
LJ           3.08209        -3.81169        0.573466
LJ         -0.420311        -5.75546        -6.07677
LJ            5.2166       -0.593273        -1.26723
LJ           3.85468         4.09027        -2.14712
LJ            5.4661        -5.59298         2.86152
LJ         -0.257316         3.13888       -0.964525
LJ           2.41525       0.0503238        -5.56096
LJ           0.52409        -5.74245        -4.61129
LJ           -5.8294       -0.226402       -0.243902
LJ           2.53468        -4.12974         2.78681
LJ           0.56545        -4.82242       -0.220306
LJ          -6.13264        -1.35301        -2.52179
LJ          -2.53209        -2.43588        -6.04789
LJ          -4.80057       -0.933855        0.744114
LJ           6.14733          -4.268         3.14899
LJ           2.04824        -3.99646          5.1875
LJ          -5.92673        -3.58121         3.76503
LJ           5.10137          1.5742        -5.02866
LJ          -4.35487         3.80306       0.0436473
LJ           4.10204        -3.52665        0.512879
LJ          -4.95877         -3.2022         2.63706
LJ          -2.59432         1.36688         4.65396
LJ          -2.05826       -0.841127         4.25422
LJ          -3.00164         1.74967         -3.0314
LJ           2.57525         1.42734        -2.99091
LJ          -1.46284        0.351836       -0.628846
LJ           1.16659         3.74119         4.85919
LJ           1.76083        -0.83229        0.114729
LJ            4.6315          5.9531        -1.09419
LJ           6.05195       -0.171378        -2.20304
LJ         -0.661779        -5.70685        -5.04557
LJ           6.06611        -3.75125        -2.55172
LJ           6.01157         2.51502        -5.81604
LJ         0.0684607          1.9133         4.11969
LJ          -5.40465        -0.93021        -5.12979
LJ          -3.25053        0.551253         4.69052
LJ          -3.47544         3.87678        -2.80048
LJ         -0.418789        -4.52053        -3.97365
LJ            3.5009         6.33363         1.79216
LJ          -3.03255         3.23517          2.6281
LJ            5.6256         3.81736         5.10897
LJ           2.47938       -0.587928        -4.49552
LJ           4.26982         6.39523        -6.34698
LJ           3.72145         4.07278         5.05278
LJ           -1.5487          1.2522         2.86338
LJ          -4.25624       -0.850451        -4.89594
LJ          -3.39424       -0.424364        0.984144
LJ           2.09374         4.98964        -5.94639
LJ             3.014       -0.666107      -0.0491878
LJ         -0.202185        -2.94431       -0.991269
LJ           2.05411        -5.67006         -5.6161
LJ           6.06834        0.023602         1.93641
LJ           4.06635        0.808634         1.29188
