108
#Comment!
LJ          -5.33294        0.890651         5.03371
LJ           6.39923         2.09804         5.72161
LJ          -3.07194        -3.53229          5.6399
LJ          -5.86315         1.22217        -2.29778
LJ           3.09569         3.90157         2.05925
LJ          -5.92064         -2.4853         6.13395
LJ         -0.924436        0.143619        -1.17685
LJ          0.837757        -2.65964        -2.79472
LJ           3.63752         6.11929        -4.54202
LJ          -4.56078        -5.03178       0.0590153
LJ           5.93897        -1.26782         -2.1626
LJ          -4.97006       -0.864344         2.10167
LJ           5.47437         1.22686         4.90858
LJ           4.40076          3.9511         2.76575
LJ         -0.599864          5.0903        -1.47663
LJ          -5.07984       -0.259046         4.02352
LJ          0.259581         0.88162        -4.22338
LJ           5.92056        -3.55737         -2.8343
LJ           2.51853        -2.27482        -4.94804
LJ          -5.67297        -1.93068        -1.89554
LJ             2.786         5.84282         3.52603
LJ          0.823329        -3.70464         2.39498
LJ          -3.13504         5.14992         5.53173
LJ           4.42798         4.06069        -3.39535
LJ          -4.26397        -6.42376       -0.418118
LJ           2.89433        -2.44621         3.60779
LJ         -0.345025        -1.05113        -1.89679
LJ           2.75476         -3.6522         2.27156
LJ           5.83341        -6.26244        -5.92832
LJ           6.29724        -4.24568       -0.853045
LJ           3.13063         4.84917        -6.37506
LJ           5.24224          2.0879         5.53549
LJ           5.38231        -3.11375         4.75677
LJ           -3.7378         4.72946       -0.311551
LJ            2.8057         6.08485         5.48495
LJ           5.52363        -5.94139          4.0856
LJ          -2.90953        -2.37901         1.82562
LJ          0.819845        0.546967         1.00566
LJ          -4.12763         -1.8976       -0.995951
LJ          -5.09017         1.64254         -1.3953
LJ           1.60452         3.08703         1.83225
LJ          -0.25534        0.137627        -2.04752
LJ          0.444776       -0.611533         1.15235
LJ          -5.56615         4.17711         3.83139
LJ           3.19421       -0.818766          4.0317
LJ          0.828603       -0.878663         2.29699
LJ            3.8405         3.59249        -6.10518
LJ            4.4336         -5.4354         2.99938
LJ          -3.38639         5.32421         -2.1142
LJ           4.58092         4.68545         3.56129
LJ          -2.29153          5.7619        -2.28333
LJ           3.03397         2.79161       -0.232164
LJ          -0.15069         2.57735         6.05821
LJ          -3.65603         4.86807        -3.29838
LJ          -6.44418        -3.10225          3.2519
LJ          -3.56601        -1.29144           5.651
LJ          -6.36134        -1.32028         5.59614
LJ          -1.44897         1.61631       -0.238396
LJ          -4.16535        0.956295        -1.22043
LJ           6.40685         3.09213        -2.77454
LJ        -0.0412378        -2.21333        0.235406
LJ           1.50803        -4.42421         3.08947
LJ          -1.69107         2.60799        -2.13015
LJ          -4.71353         5.06519        -3.32877
LJ           -5.0863        0.125214        -2.70603
LJ           2.11449         2.37757        -5.40127
LJ          -2.80773        -4.49648        -5.78575
LJ          -1.94333         1.87821        -2.86495
LJ            2.2753        -5.89203        -2.98469
LJ           -3.3045         -3.0974        0.913723
LJ            5.9801        -0.99609        -6.27671
LJ           4.26951         1.04456         4.07437
LJ          0.952373        -5.17112         4.88677
LJ           4.58705         1.98972         4.44618
LJ          -2.58696         2.64857        -3.19385
LJ            4.3478         5.38235         2.39994
LJ           1.18735        -3.67586         5.67967
LJ          0.808405         3.17305         3.64193
LJ           1.18469         3.88255       -0.723603
LJ          0.743051         -2.7646          5.8858
LJ          -2.67584         4.34434        -1.70698
LJ          -1.79616         3.53964          3.1823
LJ          -3.47228        -3.85771        -5.37053
LJ         -0.417728         3.92332         4.39584
LJ           1.18197        -1.04967        -2.70579
LJ          0.380017       -0.396393        0.196257
LJ           3.94847         4.53315        -2.53427
LJ           -1.2539         4.31554        -3.51399
LJ          -3.45879          1.0987        -6.00567
LJ          -2.93346        -5.86285         4.44227
LJ         0.0552262        0.470699         2.74673
LJ            4.9052       -0.731477       -0.792625
LJ           4.47952         6.29193         5.80212
LJ          -0.75533        -2.28781         1.43664
LJ          -5.24494        -5.42534          4.1295
LJ           1.15606        0.376583       -0.969675
LJ          0.567396         4.88334        -5.41619
LJ          -1.00874         3.06085        -4.50281
LJ           5.30049         2.91785        -3.14294
LJ           1.66053        -1.86892          6.2379
LJ          -1.74484        -3.65796         5.30356
LJ          -0.47388         5.66303         3.44832
LJ           5.14373        -2.90027        -3.37492
LJ           -5.8533         2.22252         2.84385
LJ           -4.2947         1.46667         5.67839
LJ           1.45526        0.386557         2.11297
LJ           5.99388         5.15721        -2.28933
LJ          -1.91202        -3.56214        0.181075
