108
#Comment!
LJ          0.513202         -6.3627         4.29151
LJ          -1.01492         5.71339        -4.59509
LJ          -3.43531        0.241304        -2.11692
LJ          -5.23942         -4.7636        -2.67334
LJ           4.90729         2.94156        -5.23409
LJ          -2.97626       -0.529076         5.45114
LJ          -5.71486          3.9535         2.17594
LJ          -6.02009         2.54874         1.82349
LJ          -1.03816        -2.74972         5.48716
LJ           1.42612         -1.0192         1.77664
LJ         -0.347511        -2.46906        -3.12627
LJ           5.44991        -3.66186         3.23628
LJ          -5.35671         3.79682         4.91532
LJ          -4.21043        0.616115         6.34717
LJ          -3.97017         2.21496        -1.88449
LJ           1.40263       -0.438956        -2.99874
LJ           3.79771        -2.11652         4.82535
LJ           2.67317        -3.07574         6.25876
LJ           5.45708        -1.71842        0.694439
LJ           5.94664         2.02322         5.74479
LJ          -1.37098         -4.3081        -5.13097
LJ          -2.16974         5.31416        -4.43674
LJ          0.564197        -4.35313         3.40976
LJ         -0.159484        -4.05514        -3.11129
LJ          0.557297         4.65118         2.86438
LJ          0.593695        -4.27767          1.8993
LJ          -0.67523        -2.86376         4.33827
LJ          -1.83735         3.18677        -1.68235
LJ          0.753934        -2.83216        -4.03673
LJ           6.35701         5.47017         3.53195
LJ          -3.25839         1.41672        -1.46558
LJ           4.58345        -1.32687       -0.694657
LJ          0.497279        -3.03976         3.29759
LJ         -0.675742        -5.06393        -5.59175
LJ           4.10464       -0.605292        -6.34849
LJ           4.95201         3.15452          6.2923
LJ          0.483472         -4.0074        -4.30189
LJ           2.45847         2.09582          4.2784
LJ          -6.28668         1.67295         2.78369
LJ          -5.29904        -3.57311        -3.83453
LJ           4.73279        -3.38262         5.11071
LJ          -3.49324         -6.4274         2.92226
LJ          0.741107         3.67149         2.45944
LJ           4.26093        -1.11408         4.73629
LJ        -0.0305347        -4.80312        -3.73023
LJ            1.8209         2.94311          4.7599
LJ           1.85092        -4.75942         6.45147
LJ           6.01104         2.32852         2.10676
LJ          -6.25953         6.02782        -2.56778
LJ          -2.52131         3.64385        0.536986
LJ           -5.1126         0.23577         5.26715
LJ           2.84214        -6.19908        -6.20541
LJ          -2.56718          1.3942         1.55324
LJ           -3.2315        -2.32611        -3.79985
LJ            1.1023        -3.59921         6.43685
LJ           2.11273        -4.37224      -0.0152835
LJ          0.148523        -5.60624         6.41121
LJ           5.69999       -0.611442       -0.485841
LJ           4.13944          4.6674        -2.29048
LJ           5.70559        -5.18412         2.92207
LJ         -0.740762         4.04345       -0.794546
LJ           2.29679        0.835746        -6.11034
LJ          0.830544        -5.13623        -4.49243
LJ          -6.19725        -1.72457        0.627483
LJ           2.54575        -4.74576         2.83513
LJ          0.856064        -4.23444        0.408458
LJ          -6.23628        -1.81599        -2.04739
LJ          -2.23692        -2.96301        -5.32354
LJ          -4.94069       -0.437458        0.707675
LJ           6.34058        -4.32079         2.88971
LJ           1.69795        -3.32476         5.52805
LJ          -5.58596        -3.10266         3.64502
LJ           4.23434         2.01137        -4.52549
LJ          -4.54224         4.06877       -0.269677
LJ            3.4815        -4.19696        0.507209
LJ          -4.98556        -4.05787         3.13645
LJ            -2.462        0.496773         4.27894
LJ          -1.77048        -1.27993         4.66496
LJ           -2.9832         2.04865        -2.42533
LJ           2.94616         1.64004        -3.08211
LJ         -0.683572       -0.327506       -0.937006
LJ           2.10168         4.29082          5.0892
LJ           1.30939      -0.0572516       -0.335886
LJ           4.83403        -6.44644        -1.36465
LJ           5.90765        0.140666        -2.83552
LJ        -0.0910236        -5.89884        -4.71815
LJ          -6.28901        -5.13214        -2.71221
LJ           5.49641         2.23072         -5.4981
LJ         -0.486071         1.61448         3.85567
LJ          -5.88342        -1.12842        -5.66036
LJ          -4.60701        0.514715         4.44707
LJ          -3.52247         4.18351        -2.10634
LJ         -0.624142        -3.64383        -4.65358
LJ           2.61852         6.42642         1.91949
LJ          -4.09155         2.44024         2.33031
LJ           5.32209         3.76156         5.27949
LJ            2.2676       -0.382323        -5.14781
LJ           5.18081         6.04407        -6.31351
LJ           4.06348         4.01213         4.46292
LJ          -2.00331        0.998686         3.23905
LJ          -4.23836        -1.25409        -4.18528
LJ          -3.66976       -0.392978        0.158934
LJ              2.82         5.13354        -4.69102
LJ           3.52672       -0.293316        0.254903
LJ         -0.223492        -3.02794        -1.31328
LJ           2.23949        -4.66737        -5.30278
LJ           6.40566       -0.578683         2.27869
LJ             4.786         1.13765         1.57887
