108
#Comment!
LJ           5.53294        -4.07072        -4.06084
LJ           -1.7925         2.88578        -3.46985
LJ          0.267496        -4.14487        -5.54581
LJ          -3.93009        -3.12258        -2.86352
LJ           2.34343         3.32019         1.28767
LJ          -3.37338        -6.32618        -6.34289
LJ         -0.988202        -2.31391         4.76284
LJ          -2.19323         5.43424         5.86535
LJ           3.10069         5.24003        -3.06434
LJ           1.82117         -2.2907         4.36098
LJ            4.0347         1.97877        -1.19645
LJ          -5.44474       -0.624591         2.07958
LJ           5.39046        -4.76996         1.65729
LJ          -5.43214        -5.29828        0.446309
LJ         -0.875694         3.53746        -4.75254
LJ           -5.5223          2.5178         3.08498
LJ          -3.26201        0.626631          2.9313
LJ           4.33381        -4.34244         1.46324
LJ          -4.57053         -2.6644          2.5766
LJ         -0.214069        0.104284        0.965607
LJ          0.721228         5.09943         2.14534
LJ           3.24842        -5.14914        0.755671
LJ          -1.22899         2.99869         2.14168
LJ           4.67401       -0.861968        -4.25708
LJ          -4.11032         2.52425        -3.72479
LJ           3.34268         5.57454        -1.64233
LJ         -0.365225         2.90789        -6.38484
LJ            5.3808        -4.17051        0.720076
LJ            3.7533        -1.59241         5.77313
LJ          -4.34189        -6.08092        -5.72762
LJ           2.32316        -3.32043        0.129398
LJ          -4.91811         -3.4452        0.233735
LJ           4.47833         1.46038         4.30375
LJ          -1.07697        -2.68233         1.78565
LJ           3.60207        -2.57252         1.14002
LJ           1.52173        -5.93985        0.466285
LJ          -4.58656       -0.289605         4.79204
LJ         -0.635801         5.18216         5.43457
LJ          -1.54137        -3.77707        -3.30433
LJ          -5.40822         5.12936        -2.86331
LJ          -1.89962         2.49417        -5.99154
LJ          -1.67682        -2.06567        -2.87228
LJ           1.32714        -3.58082         2.43796
LJ            5.3712         3.23388        -2.44276
LJ         0.0704246        0.226968        -5.03042
LJ          -5.47356        -1.32592        -4.44023
LJ           1.86989          4.4169       -0.917946
LJ           3.86603        -6.11871         -4.7084
LJ           1.27676       -0.999679        -1.52219
LJ         -0.077986         4.21647        0.290481
LJ         -0.262252         5.68714        -0.19377
LJ          -5.33112         4.20744        -2.11721
LJ           2.50395        -4.31742         1.52505
LJ          -1.95658        -4.74362       -0.444728
LJ           -3.1057        -3.06721          5.5534
LJ          -3.46426        -1.09264         5.27669
LJ         -0.657625       -0.684819         6.07025
LJ          -2.52165        -2.00765         5.15381
LJ          -4.57071         5.70737        -3.39433
LJ           4.20876       -0.791174        -3.16671
LJ         -0.757597        -5.35907        -1.29306
LJ           2.28124        -6.20713        -1.64866
LJ         -0.660896        -1.44029        -5.86791
LJ           -5.7814         3.23841        -2.54691
LJ           5.26146         -2.5381         6.10325
LJ           1.16625       -0.281949        -5.27873
LJ           3.20045         4.16666       -0.170751
LJ          -1.88525        -4.53561        -2.28097
LJ           4.35447        -4.88507        -3.95534
LJ          -2.17692         1.13521       -0.875428
LJ           -2.4553        0.409391         1.39345
LJ           3.60647        0.996186       -0.339926
LJ          -4.18309          1.6459         5.05836
LJ            4.9296         1.00535        -1.11051
LJ         -0.960051        -2.89898        -3.49547
LJ           1.30693        -5.44787         4.51826
LJ           -2.7148        -3.22434         4.43042
LJ           1.63957         3.57557        -6.16055
LJ           5.49994         1.73406        -1.70648
LJ           1.43837         5.63141        -6.30374
LJ          -3.82104         1.26408         3.79673
LJ           4.73706       -0.165221         2.93253
LJ           -4.8041      -0.0890607         2.69444
LJ          0.216833        -1.60178         5.45336
LJ          -3.37264        -3.46009         2.07617
LJ         -0.548303       -0.668968        -3.02693
LJ          0.413702         -6.1835        -4.86424
LJ           1.06989         3.54223         -5.0659
LJ          -4.18033         1.23015         6.15766
LJ           5.94745        -5.16025         4.56158
LJ          0.626925         5.28046         5.41114
LJ           3.56839         4.42934        -1.50369
LJ           4.16554        0.151213        -5.25499
LJ          -5.49602         5.54357         5.64198
LJ         -0.717417        -5.89567         1.25827
LJ          -4.33475          5.9479        -1.23415
LJ        -0.0534218         4.20837         5.02432
LJ           1.02121         3.34056           5.692
LJ          -3.91417        -5.49834       -0.169853
LJ          0.617522         0.56763        -5.80296
LJ          -3.58968       -0.118374         4.31522
LJ          0.058525         4.86836         1.21617
LJ          -4.06597        -3.82645          2.8692
LJ            2.0531        -3.63671         -2.5829
LJ          -5.31183         2.96614        -4.20289
LJ          -5.62327         4.32858         6.39882
LJ          -2.58903        -2.51355        -1.92099
LJ           -1.0545        -3.95322        -5.97034
