108
#Comment!
LJ          -6.42152        -1.04105         5.92164
LJ          -5.24822         2.48319         -6.3496
LJ           -1.8458        -1.82299        -6.28237
LJ          -4.17956         2.39218        -2.03965
LJ           3.11995         3.77543        0.210239
LJ          -4.08338        -2.20326          5.3578
LJ         -0.864481       -0.317539        -3.77815
LJ         -0.137082        -4.87867        -1.18642
LJ           4.14734         5.96749         -2.6199
LJ          -3.33499        -3.83762        -3.70622
LJ           4.68615          0.2571        -1.48284
LJ          -3.06446       -0.975663         3.64466
LJ           4.67699       -0.232492         2.61459
LJ           -5.5396         6.42645         2.83675
LJ          0.235489         4.78699        -1.89869
LJ         -0.866477        -3.24124         4.16714
LJ         -0.582544         2.42271        -5.90941
LJ           5.59944        -2.94558       -0.127775
LJ         -0.369023         -5.9966        -2.66715
LJ          -4.79147       -0.250528        -1.90924
LJ           1.66961         5.91594         2.96038
LJ           1.44779        -5.27233         1.46053
LJ          -3.11362         5.07964         4.33728
LJ          -5.95198        0.756076        -2.32327
LJ          -5.03911        -3.99093        -1.20348
LJ           1.41769        -2.42291         5.70414
LJ          -1.22766         -1.6313        -3.70942
LJ           2.64984        -2.19702         2.36337
LJ           5.17251        -4.85256        -6.46047
LJ          -5.25498         -4.4118        -2.50199
LJ           1.69535         6.12496         -4.1019
LJ           5.67004          5.2385         3.68501
LJ          -6.41429        -4.19523         3.41501
LJ          -2.67044         2.51458        0.191274
LJ           3.57531         5.78327          3.9723
LJ           4.24698         -4.7978         3.00402
LJ          -3.02022        -2.43866         2.70162
LJ          -1.78268        0.840331         3.38543
LJ          -2.70686        -2.39296        -1.96552
LJ          -5.76968         3.52414        -1.73986
LJ          0.028603         1.29416         3.67636
LJ           -2.1971       -0.696569        -3.73771
LJ           1.44721        -1.00725         1.09546
LJ          -5.99415         3.69127         1.93939
LJ           3.11765        0.233346          5.1773
LJ         -0.907304        0.169673         3.55997
LJ           2.84789         4.87352         -5.0469
LJ           4.41147        -5.86629         4.55602
LJ          -5.97843        -5.39406        -1.41858
LJ          -4.71665        -6.39299         3.60024
LJ          -2.45893        -5.57137        -2.61296
LJ           4.34876         3.67942       -0.803474
LJ           1.21296         3.96737         4.41253
LJ          -2.22673         5.90794         -1.8929
LJ          -5.59097           -3.34         4.32336
LJ          -3.75138        -1.12143         5.68611
LJ          -5.11885        -1.11184        -5.38379
LJ          -1.52433        0.474586        -4.65588
LJ          -5.22782         2.42544        -1.21773
LJ           -5.6479      0.00581116        -3.75486
LJ          0.283718        -2.03111       -0.400245
LJ           2.47896         -4.6092          1.8054
LJ          -1.10283        0.932716        -2.49386
LJ          -4.46692         4.74408        -2.55063
LJ           6.15965       -0.959057        -2.97983
LJ           1.00729         2.19433         -4.5544
LJ         -0.959693        -4.86547        -4.32288
LJ          -3.31798        -1.34708        -2.87471
LJ           3.11774         5.68947        -3.62806
LJ          -4.63977        -1.36116       -0.445841
LJ          -6.06956        0.561729        -4.75321
LJ           4.15003        -1.34814          3.1482
LJ          0.178943         5.06212        -6.07795
LJ           4.01374          1.5819         1.09898
LJ          -1.22347         1.24536         -3.5934
LJ           2.57882        -6.32788         3.57238
LJ           4.00981        -4.00791         3.89518
LJ           0.98522         2.88569          4.1209
LJ           3.17171         3.34058       -0.732577
LJ           1.35105        -4.83563        -5.28782
LJ          -2.88044         3.52958        -3.51383
LJ          -4.47673         5.02717          3.7223
LJ          -1.88582        -1.11617         -2.6654
LJ          0.141689      -0.0836254         5.86926
LJ         -0.564102        -1.93518        -1.12221
LJ         -0.217159         3.04529        -2.59698
LJ            6.3985          5.2157        -4.29879
LJ          -4.85289         3.84807        -4.26202
LJ          -3.05593         1.33342         6.29619
LJ          -4.93522        -5.48127         4.06252
LJ         -0.603371         1.73956          2.3924
LJ           5.10814         1.75452         -1.6001
LJ           4.15886        -4.30401        -6.27723
LJ          -2.05484        -2.56142         3.43899
LJ          -5.68557         -5.3098         3.22785
LJ          0.590412       0.0094172        0.444536
LJ         -0.203854         4.18395         6.14741
LJ          0.190932         3.02984        -4.14577
LJ          -5.40656         1.20526        -3.11923
LJ           1.33105        -1.20283        -5.61633
LJ           -1.6903        -2.77823         6.17637
LJ         -0.865187         5.28133         2.28263
LJ           2.59567        -3.05942        -1.05311
LJ           6.44975         4.65953         5.16817
LJ          -4.98819          1.5372        -5.94638
LJ         -0.782448        0.594238       -0.334251
LJ           6.16617         2.62301        -2.83733
LJ          -2.58972        -5.03018         2.35301
