108
#Comment!
LJ           2.31244         6.17736        -1.89782
LJ          -3.58286        -2.14229        -5.11146
LJ           -5.0701         3.62827         3.38366
LJ           2.19809        -5.91762        -4.48041
LJ           -2.4827         4.02849         4.27745
LJ          -4.47114       -0.282175         6.11009
LJ            1.5617        -2.83935         3.73743
LJ          -1.63467          2.3405        -4.71479
LJ          -1.13038         5.22994         6.18888
LJ           5.85409        -2.59177         -4.3628
LJ          -1.44067         3.17597       -0.821019
LJ          -1.76763        -5.58704        -2.74526
LJ          -5.13478         5.75826       -0.634317
LJ           4.37065          4.6141        -3.70278
LJ          -2.37929        -3.72681         3.10566
LJ           1.95679         2.06336        -2.35438
LJ          -2.28434        -2.62731        -3.93987
LJ          -3.63708        -2.62714        0.840938
LJ          -2.58527         1.48662         2.78467
LJ          -5.16829        -2.75565        -4.55072
LJ        -0.0360516          3.1875         3.76526
LJ           4.73563         3.88189       -0.218419
LJ           1.38241         1.75306       -0.251925
LJ           2.04677        -4.57018         4.87265
LJ         -0.677854         5.48839         3.24137
LJ           1.76509        -1.46077        0.674493
LJ           5.35133        -1.07964        -4.42082
LJ          -1.34425         2.15347         4.96029
LJ           1.46345        -5.38598         5.32302
LJ          -2.91895        0.449908         4.45533
LJ          -2.57472        -2.29125        -5.51364
LJ            2.8076        -4.78967        -2.57912
LJ          0.324093         5.32343        -3.69912
LJ         -0.507189         6.29299         5.63558
LJ           4.26561        -6.41412         6.17457
LJ          -5.76677         1.51772         4.98418
LJ           -2.0437         3.09188         5.02649
LJ          -2.30246        0.306239          1.6944
LJ          -4.70464        -5.87644        -4.63804
LJ         -0.576433         5.96847         -6.2078
LJ           2.42231        -2.05635         2.53521
LJ          -1.77903        -1.33814          2.7198
LJ          -4.72883         5.51279        -3.89249
LJ           1.95932        -1.14049         3.91754
LJ          -1.61442         2.58412         6.31932
LJ           -3.3738          1.5113         5.01183
LJ          -0.61547        -6.36973        -3.85986
LJ           5.29063        -2.60615         4.62829
LJ           6.28848         -4.7989         2.18227
LJ          -4.95027        -3.23262         2.93537
LJ           4.41996         -4.5949        -5.53839
LJ          -3.06055         4.82709         4.72258
LJ          0.346708         1.46187        -2.63958
LJ         -0.434987         3.71754        0.449132
LJ          0.661202         2.23303         3.39161
LJ          -5.43401         2.11832       -0.415202
LJ          -5.13128        -6.26755          2.6032
LJ         -0.125718       -0.879634         -4.7853
LJ           1.15997          1.0386         1.02701
LJ          -1.21521        -4.62219         4.76252
LJ          -5.24408       -0.330791       -0.920333
LJ           1.39559        -3.82479         -3.3165
LJ          -5.66149          5.3616        -2.53914
LJ           -0.2351          2.5127        -2.02512
LJ          0.913398        -5.86107        -1.71179
LJ           6.04583         1.49781        -6.41022
LJ          -5.88525        -4.47512        -5.63522
LJ           4.38176        -3.70411        -3.20696
LJ          0.384515        -5.69395         5.60794
LJ           2.68972        -1.20944         5.76738
LJ          -1.25749        -2.32657        -3.64768
LJ          -5.44961       -0.263851        -2.58597
LJ          -5.12446         6.36744        -1.61123
LJ           2.41505        -5.46838        -1.78233
LJ          -4.53865        -5.18119          4.7604
LJ          -5.94354        -3.57676       -0.992122
LJ          -5.14144        -4.63969        -3.25568
LJ           4.40848        -5.07088       -0.994939
LJ           3.67995         5.72756        -2.49183
LJ           3.67006       -0.302436         5.26637
LJ          -3.46269          5.8379        -6.09515
LJ           4.91323       -0.316181         4.22173
LJ          -2.85461        -3.55521         1.14329
LJ             1.205        -2.59971       -0.795108
LJ          -5.51106         4.87925        -4.51222
LJ            6.0046        -6.22169        -2.00769
LJ          -4.10596       -0.376965        0.618898
LJ           5.67661        -4.78649        0.945491
LJ        -0.0908656         -2.5946        -2.93496
LJ          -1.25054        -3.20158         6.36381
LJ          -5.54573         1.80508        -2.59589
LJ          -1.74983         5.43585        -5.24424
LJ          -2.74307        0.336451        0.578167
LJ           4.79237      -0.0650236         6.07033
LJ           3.74585       -0.129607         6.42689
LJ          -1.00545        -6.32581         1.10039
LJ           1.67875        0.403956         0.31628
LJ           4.95564         3.51537        -1.84076
LJ           2.92472        0.852997         -2.1866
LJ          -3.01924         1.65552         1.29684
LJ          -5.84512         1.86887        -1.48178
LJ         -0.479304        -5.77883        -6.46097
LJ           6.03883        0.808676       -0.550992
LJ          -5.40995        -5.30017        -1.05713
LJ            5.4368         3.09664       -0.410514
LJ         -0.725734        -1.95738       -0.132192
LJ          -2.11087        -4.26183         1.59729
LJ           1.53271        0.142662         -4.6517
