108
#Comment!
LJ          0.955534         1.17147        0.873445
LJ           1.10246         3.21382        -1.83962
LJ          -4.56233         6.13011        -4.88315
LJ          -3.86175         1.64748        -6.27245
LJ          -3.97487         5.03312         4.35969
LJ          -3.02858        -2.20076         5.75264
LJ          -4.92716        -5.47867         6.40673
LJ          0.621056        0.462698         -5.8384
LJ          -2.09835          3.7662         -5.3724
LJ           5.41524       -0.988452        -5.85025
LJ           1.53504       -0.746578         2.86719
LJ         -0.261699        0.303432        -1.82836
LJ          -4.51113        0.156314         -1.6115
LJ          -4.76931         4.62212        -5.92525
LJ           3.91415        0.232244         -4.3829
LJ           2.24309         3.75325        -4.84979
LJ           3.85498        -3.21164         5.18008
LJ          -5.27755        -2.19742        0.142547
LJ           -1.7576        -1.44294         1.12541
LJ         -0.359707        -1.00626        -1.71375
LJ          -3.56607         -2.7162         3.35534
LJ          -4.04984         5.07746         0.36831
LJ          -1.70034         1.54871        -4.01685
LJ          -3.78737         5.97052        -6.27471
LJ          -1.82696        -3.96539         3.43759
LJ           4.33549         -2.3223         6.16127
LJ          -4.46461         1.30731         5.13272
LJ             1.663        -0.56395         3.97336
LJ           3.52295         -3.1132        -4.50115
LJ           4.30369         2.68145       0.0547856
LJ          -4.58786         3.07542         4.16171
LJ           5.95228       -0.829486        -4.62385
LJ           2.14246         2.25854         1.43172
LJ          0.375919         2.65847        -4.67225
LJ          0.587406         1.80234         3.93034
LJ          -5.15167         -4.5148         1.71174
LJ          -3.34143          2.8162        -1.25006
LJ          -6.29643          5.9368         4.12254
LJ          -5.04084        -2.34386         3.58362
LJ          -3.29307         1.08479        -5.19553
LJ           4.99338        -1.90845       -0.499458
LJ          -3.32395         2.40513          1.8764
LJ          -3.86307        -2.59939        -6.00752
LJ           4.70797         1.10303         5.04319
LJ           1.51972         1.33363        -6.26614
LJ            2.6042         5.95086        -6.32676
LJ           -4.6002        -2.75956         5.59664
LJ          -6.03213        0.389748       -0.314528
LJ          -1.00705          5.4735        0.806765
LJ           -5.1496        -5.10978        -5.29388
LJ          -4.06747        -2.24115        -1.04151
LJ          -1.27483         3.76802         2.25036
LJ           -1.7808        -1.51215        -4.60955
LJ           5.51254         2.85819        -3.88912
LJ           6.23018         3.13932          3.6472
LJ          -5.70149         4.60584         5.56631
LJ           6.01103        -4.72059         5.38268
LJ          -2.16839        -3.94807        -3.90356
LJ         -0.512148       -0.446922       0.0859723
LJ          -0.47959         3.74705        -3.70845
LJ          -3.31499         4.46047        -3.57556
LJ          -2.66674        -5.93091        -1.30515
LJ           4.85896        -4.86622         2.58427
LJ           6.07153         4.62038        0.351926
LJ           4.73567         2.97673        -3.21895
LJ          -1.01275         -4.5531        -6.21306
LJ          -4.38164         2.32795        -0.50467
LJ          -2.64961        -1.22499        0.517869
LJ           4.32787         1.47358        -5.83296
LJ          -4.89688       -0.313025         4.69734
LJ           3.81357       -0.629672         5.50613
LJ          -5.76658         4.27259        -5.20706
LJ           5.88894        -4.97244        -5.95051
LJ           -4.1364         5.93007      -0.0866625
LJ          -4.52324        -5.80381       -0.014306
LJ           1.92669         2.15014         2.98872
LJ           5.62595        -2.82327        -1.42032
LJ           1.36693         4.75247         2.43576
LJ           4.26395         3.47051        -4.16512
LJ          -4.24713         0.31214         2.58702
LJ          -3.01333        -3.47338        -4.28502
LJ           4.32912        0.621608       -0.970546
LJ         -0.185264        -5.25545         1.72868
LJ          -5.38862         3.68201         4.98144
LJ          -2.60577         5.56606        -5.53177
LJ           2.44656         4.10158          2.5528
LJ           5.31609         3.28023       -0.383957
LJ          -4.28518        -1.52963         1.05163
LJ         -0.816016        -1.13437        -4.21808
LJ          -2.18598         5.99198         5.21896
LJ           4.21931        0.301629        0.142551
LJ          -1.79228         2.47686         6.41111
LJ           -4.4346        -4.57639        -4.80914
LJ           4.77191        -2.94101        -4.36767
LJ          -4.45786        -4.32569         6.06252
LJ           6.15447        -5.33359         3.15559
LJ           2.39434          3.7917         3.73523
LJ           -4.9212        -6.12498         3.91375
LJ          -1.51138         4.23661         0.60508
LJ          -5.41467         5.84273          3.5642
LJ          -5.38551         4.56894       -0.348894
LJ          -4.15899        -1.11097          2.1049
LJ          -2.63837         2.04019       -0.821196
LJ          -6.09452         1.75746        -4.87943
LJ         -0.486364         1.48418         -1.5442
LJ          -5.97825         5.01613        -3.69935
LJ           1.31465        -1.66109        0.909936
LJ          -2.14591        -3.34979        -2.39594
