108
#Comment!
LJ            3.0986         3.38825        0.489663
LJ           3.89373         1.04328        -2.97211
LJ          -4.80168         5.43927        -2.00334
LJ           5.26762         1.47849        -6.30692
LJ          -4.30861         2.59626         4.07455
LJ          -5.53642        -1.66287         5.94709
LJ          -2.29686        -4.85332        -5.46859
LJ          0.523913         2.87634         6.28702
LJ         -0.316827         3.95295        -5.28703
LJ           5.06357        -1.66652        -6.17639
LJ        -0.0940855        0.630187         1.39418
LJ          -1.32638         2.94921        -3.37593
LJ           5.98123         1.98178         1.22945
LJ          -5.31785         4.11451        -3.58207
LJ           1.39832        -1.22252         6.42922
LJ            -3.477         3.35996        -6.04802
LJ           6.43521        -3.27753        -5.60725
LJ           -3.2568         2.11107        0.732162
LJ         -0.689641          1.5337         2.53814
LJ          -2.35284        -2.11559        -1.51936
LJ          -1.83679        -5.27338         3.18579
LJ          -5.30938          4.1747        0.675071
LJ         -0.400719       -0.243266        -3.61117
LJ          -5.99875        -6.10085        -4.33941
LJ          -2.67516        -6.10436         4.61918
LJ           3.10203        -1.80344        -3.85089
LJ            5.9904         0.09652         0.94156
LJ         -0.372827         2.37123         1.65048
LJ           3.18568        -3.83522        -6.27604
LJ           6.19816         1.56834        -3.61831
LJ          -2.57206         5.18646         5.39569
LJ           4.93865        -2.38816        -3.77256
LJ          0.831292         2.40714         0.67734
LJ         -0.973533         2.85869        -5.82706
LJ           1.19896         3.57247         5.94164
LJ          -5.07534        -2.23115         3.35862
LJ           5.39465         2.97984        0.650181
LJ          -3.19049         2.85225         3.11372
LJ          -4.89412        -4.06166         4.47981
LJ          -2.51864         3.04062        -5.16055
LJ           3.84521        -1.29792        0.598537
LJ           -4.2734          2.4513         2.79126
LJ          -3.90159        -3.81873        -4.98822
LJ           3.58457        0.187379         4.55161
LJ          0.111405         2.51601         5.23448
LJ         0.0613169         4.09641         -1.9862
LJ          -2.76193         -3.2801         2.01243
LJ          -6.15662       -0.738543         1.84256
LJ          0.407347         4.98556         3.83877
LJ          -5.31673        -3.75204         5.85923
LJ          -1.26197        -3.36584        -3.64184
LJ           -2.5768         4.26972         2.79336
LJ         -0.721214        -2.26591         -4.0927
LJ          -4.69368         1.61885         4.79779
LJ           4.98809         2.90504         2.65864
LJ           5.64934         4.89526         2.40402
LJ           6.33027        -5.12761         -3.7927
LJ          -1.59662        -2.64666        -5.09844
LJ           1.33574        0.324208        0.968475
LJ         0.0324634         6.25764        -4.81705
LJ          -4.82625         4.24982        -1.83074
LJ          -1.62456        -4.49638        -3.43916
LJ           6.04991        -6.40261        -2.21118
LJ           2.65578         4.60488       -0.971337
LJ           3.56567         4.10987        -2.74851
LJ           -3.0027        -2.12329         6.37284
LJ          -3.88932         3.27541         -2.5834
LJ         -0.388515        -1.69875         1.93023
LJ           3.15011         3.04193         6.13705
LJ         -0.743485       -0.577161         4.35528
LJ          -6.07793         -2.0841        -5.49914
LJ          -6.27747         3.70362        -3.87132
LJ          -5.34913        -3.94018         -4.9336
LJ          -1.47151        -6.04521        -1.22407
LJ          -4.55394        -5.48579         1.69565
LJ          -1.82473       -0.665778         2.01859
LJ           6.29197        -4.19265        -2.65931
LJ           3.92305         5.31913         1.59609
LJ           3.80961         5.18413        -3.21685
LJ          -6.29093        0.441605         3.36988
LJ          -4.60238         -4.7487        -5.56573
LJ           3.78189      -0.0721998        0.627807
LJ         -0.121375        -4.49424         1.65091
LJ            5.9531         1.31179         1.93675
LJ          -4.01425         5.11501        -5.42024
LJ           3.93014         4.43008        0.486578
LJ           5.20836         2.01397         0.25781
LJ           -4.2574        0.186011         3.14339
LJ         -0.664153        -1.18251        -3.33803
LJ          -1.01149        -5.99882         6.10011
LJ           5.71795         1.02379       -0.817112
LJ          -0.05576         4.46933         4.54196
LJ          -3.27175        -2.88876        -3.10648
LJ           4.79848         6.06058        -5.34008
LJ          -5.07335         -2.8701         6.37816
LJ          -3.72801         5.88284         2.77351
LJ           2.01114          2.1413         1.17193
LJ          -5.18485          5.4549        -3.27456
LJ           1.38628         2.96034         1.94956
LJ          -4.73232         4.39508         1.49381
LJ          -6.07974         3.44732       -0.648464
LJ          -2.36163         3.24445         3.87799
LJ          -5.20375         3.30755        -2.86099
LJ           6.19658       -0.586457        -3.14591
LJ           2.27836         1.93923        -1.57608
LJ          -3.88746         1.52548        -2.51078
LJ         -0.864514        -3.63677         0.66058
LJ         -0.511328       -0.416997        -2.06493
