108
#Comment!
LJ           6.00321        0.934594        -2.11865
LJ           1.16147         3.02031        -2.00052
LJ           1.19183         6.00189        -2.73073
LJ          -3.82536         3.87737         4.04882
LJ           3.64091       0.0147113         4.90498
LJ           5.98354         2.76844         6.40809
LJ         -0.752233        -5.18854         6.05448
LJ          -1.80262         6.04829         -2.2632
LJ           2.37774         4.11554         -6.2253
LJ           5.75863        -2.69812         2.31773
LJ           -5.4675           3.013         2.76295
LJ           4.59865        -1.01946       -0.672034
LJ           3.65751        -3.74876        0.561933
LJ           5.94538        -2.52012        -3.35254
LJ         -0.102698         2.90571         -4.8466
LJ           -3.3501         3.51762        -1.46351
LJ          -4.63311         2.71048       -0.157155
LJ           5.08742        -5.14138        0.128473
LJ           5.16544        -5.73738        -6.45914
LJ         -0.173093        -2.47095         4.72347
LJ           4.74171          3.4891         2.22534
LJ           1.20407         1.15879         2.69958
LJ           1.98018        -1.83368          2.7461
LJ           1.61597        -2.43888        -4.45103
LJ           3.70887        -5.31842         5.01665
LJ          -5.98229         1.99163        -2.10851
LJ          -1.20924        -3.74192         5.42639
LJ           3.08783        -5.19514        0.250518
LJ            3.7034        -1.16604         6.21275
LJ          -6.06294          2.2438         5.80441
LJ           5.46175       -0.458648        0.985528
LJ           5.25904        -3.16378         4.91896
LJ          0.682137         4.88902          4.7155
LJ          0.117468         4.30412         1.61897
LJ           6.07314       -0.215388         2.34263
LJ           5.18107         5.41723         1.73759
LJ          -5.50851         3.64671         4.50917
LJ            1.1101         5.32282        -5.07833
LJ         0.0773216        -6.02908        -1.66975
LJ          -1.70025         5.37663        -3.49877
LJ          -1.28313         5.47787        -5.78042
LJ          0.689753        -5.57669        -2.72579
LJ          -1.03969        -5.95291         4.11034
LJ            2.2406         1.88238        -4.21873
LJ          -2.42202        -1.66924         4.91886
LJ          -4.24409        -0.65377        -1.44406
LJ          0.049531          2.8114        0.878416
LJ           1.60132         5.50753        -1.59313
LJ          -6.07991        0.912445        -3.75424
LJ          0.128468        -6.45248        -3.01974
LJ           0.26043         5.59182        -2.46937
LJ          -3.14039          4.9196        -4.03749
LJ            4.0896          1.5561         2.88026
LJ          -3.72619        -4.16378         1.74413
LJ          -1.56843         6.40364        -6.41723
LJ          -5.98186        -2.42621         5.39869
LJ          -1.65405        -1.22874          5.5422
LJ          0.379667        -1.14161         1.57013
LJ          -4.09187        -6.24193        -4.29138
LJ           2.50909        -1.67193        -4.33606
LJ           1.76674          2.0197         0.14831
LJ          0.613751        -6.43275        -3.98525
LJ          -1.11965        -0.46236        -6.06834
LJ          -3.36192         5.71905        -6.17342
LJ           4.54234       -0.991243        0.957601
LJ         -0.160016       -0.864994         5.65692
LJ          -3.57204        -2.04134        -2.01279
LJ          -2.74154        -3.53421         2.09778
LJ           3.32109        -2.06062        -2.27903
LJ           0.51137         3.27964       -0.600687
LJ           4.13501         1.39953         5.42317
LJ          -5.45083         5.06768        -2.33915
LJ           6.36495        0.476416         4.00582
LJ           5.88914        -2.51421        -1.46194
LJ           1.90423        -5.66664        -3.93607
LJ         -0.782046        -4.51055         4.34827
LJ          -1.82707        -5.37897        -6.41475
LJ           2.61327        -6.44883         5.06701
LJ           2.80002         5.52939       -0.254356
LJ           2.32446         1.94894         2.49833
LJ          -3.13042         3.83928         1.90853
LJ           2.10681         6.34196        0.430765
LJ          -5.24005         1.76103     -0.00531915
LJ          -5.01319        0.125164         4.23152
LJ           4.15567        -5.34807        -5.72178
LJ          -3.47493        0.948487         3.88637
LJ           1.03382         -2.1006        -3.33555
LJ          -1.90988         4.44614        -3.93015
LJ          -5.67699         2.44254         4.25282
LJ           6.08829        -4.88753        -1.11476
LJ          0.157442        -4.97178          5.2522
LJ          -2.11218         4.44418         1.87409
LJ           4.03246         4.18036        -6.42606
LJ          -4.80404        -5.25922         2.01679
LJ          0.362017         4.30447       -0.647554
LJ           4.27301         -5.1392       -0.597992
LJ           2.10478         5.72892         6.35129
LJ           1.66152          -2.931         1.01804
LJ          -2.94289         1.45804         3.30086
LJ           1.64648         3.51157         6.41209
LJ          -4.66522         3.52862         5.50661
LJ            4.1032         2.57894         4.36386
LJ           3.36504         4.51932         1.06142
LJ          -3.71598        -2.00878         3.26264
LJ          -3.74535         5.15103        -5.37385
LJ           1.70683         1.11165        -4.86468
LJ           0.57149         4.17331        0.736049
LJ           5.81151       -0.731529        -3.18978
