108
#Comment!
LJ          0.385194        -6.10006         4.68412
LJ          -4.11804         6.44352        -2.30778
LJ          -3.43287         0.83859         -3.7508
LJ           5.26076        -2.49283        -3.98643
LJ           1.83802         4.93814         4.64754
LJ          -3.53903         -1.1353        -6.06647
LJ          -1.97971        -4.49811         4.02645
LJ           -4.8903         1.51226        -6.04556
LJ          -0.45872        -4.93852          5.0024
LJ             1.897        -2.37303         5.69744
LJ         -0.245466          -4.492        -4.31223
LJ          -1.20239        -2.56018         2.88448
LJ          -5.69845       -0.115459         6.11857
LJ          -1.80205         5.55762         6.28866
LJ          -4.55774         -4.3828       -0.345513
LJ          -2.06779        -5.43044         5.70336
LJ           2.13566        -2.10591         2.59304
LJ          -5.83989       -0.948574        -5.98618
LJ          -2.89896       -0.245963        0.636807
LJ        -0.0826448         -5.2513      -0.0527373
LJ           -3.1308         6.31971        -6.19162
LJ          -3.92594         5.28093        -2.89595
LJ           1.27203         5.21597         5.77086
LJ           6.03397        -5.36228        -1.26017
LJ        -0.0981606         3.20821        -3.55232
LJ           -3.0183         -5.5004        -0.97344
LJ          0.495339        -4.93934         4.12984
LJ          -2.89883          1.3657         1.54367
LJ          0.275382        -4.09417         6.01122
LJ           3.11722         4.41561         -2.3839
LJ          -2.43689        0.553841        -2.84992
LJ           3.00271         2.24624        -4.15098
LJ         0.0707556         1.81702         4.66765
LJ          0.790822        -2.99229         5.93046
LJ          0.619976         3.94654        -5.33187
LJ            4.1617         5.02736          5.1055
LJ          0.369587        -5.14672       -0.951939
LJ          0.258121         1.04163         2.75436
LJ          -3.96772         5.46893        0.550525
LJ          -2.30968        -4.16734        -4.56277
LJ           4.61273         4.31078         4.30719
LJ          0.385685          3.8512         2.91329
LJ          -4.26383         4.85487        -4.98259
LJ           2.12642         -1.2526         3.44821
LJ          -2.94657        -5.76749        -3.83375
LJ          -5.62635         4.94657        -6.16653
LJ           4.17961       -0.516648         4.94323
LJ           4.91656        0.835985         4.62278
LJ           4.78898          0.3406        -4.38194
LJ          -3.76884        0.272198         1.58136
LJ          -6.38856         5.19135         -3.7872
LJ           1.98365       -0.584432         5.21029
LJ          -3.24612          1.2028        -4.67498
LJ         -0.266322        -4.46183        -3.23367
LJ           1.60699        -3.41247        -6.22768
LJ          -3.01753        -6.32682      -0.0925464
LJ           4.34904         5.01649        -0.14864
LJ          -5.17972        -1.98437         5.64144
LJ          -1.71362        -2.19538        0.199843
LJ          -6.08887        -4.80945         3.01614
LJ          -5.41332        -5.95438         1.46512
LJ           2.21653         3.78008         3.93411
LJ           4.24204        -2.08606        -3.50759
LJ          -2.74775         4.88261      -0.0409953
LJ           2.23806          4.3043       -0.105925
LJ            3.0364        -4.53462            4.91
LJ          -5.66938         6.14748         3.56749
LJ           1.13019        -3.63914        -2.86057
LJ           2.68471        -2.98087         2.17046
LJ           4.94691        -5.29824         5.87999
LJ           1.56904         1.10687         3.30354
LJ          -4.73579        -2.23791         1.17574
LJ          0.641175         4.56669        -1.36157
LJ          -6.41266         5.54924         -2.6375
LJ          -0.44549         2.04828        -2.26387
LJ          -4.59559         5.06156        -6.31917
LJ          -2.15198        -5.42713         1.81523
LJ          -4.49339      -0.0689813         6.35856
LJ          -2.98653         5.00119        -1.63497
LJ           4.47186         6.41395        -5.14143
LJ           5.19833        -2.88857        -2.26196
LJ           5.98943          4.0239         5.92542
LJ            1.1021         3.75508        -3.13527
LJ          -5.80273        -4.94274        -2.93744
LJ           5.05841         4.81157         6.00444
LJ           3.59054        -5.36167        -3.20435
LJ          -2.17674         4.19261        -5.71428
LJ           3.65095        -1.43646        -4.12519
LJ          -5.59196       -0.869138         1.56935
LJ           2.91166        -1.63071          5.2495
LJ          -1.45449         1.30571         1.49258
LJ          -1.57696        -6.12442         2.78478
LJ          0.108164        -3.53547         3.13331
LJ         -0.200143        -5.73424         3.48524
LJ          -3.85556        0.527919         3.56491
LJ           2.46527        0.501964        -5.40934
LJ           1.44264         2.51964         3.24611
LJ          -1.50645         3.66553        -4.48077
LJ           5.09518         3.76294         5.00621
LJ          -4.06527         2.72962         1.98466
LJ          -2.82944        -3.84302       -0.693171
LJ          -1.92778         3.10614        -5.41546
LJ            3.3937         6.15761        -1.17334
LJ           5.89128      -0.0737897        0.825871
LJ            2.5949         -6.1225        -3.62883
LJ           3.06481         1.49951        -1.62814
LJ          -3.73729         3.45748         3.12275
LJ           -3.4279         0.93773         4.87962
