108
#Comment!
LJ           5.99681      -0.0311391        -1.80448
LJ          0.829307         3.01302        -2.14471
LJ           1.42905         -6.4075        -3.10277
LJ          -3.43953         3.03215         4.85513
LJ           3.26763      -0.0986985         4.76076
LJ           6.18683         3.49348         6.26119
LJ         -0.818102        -5.53038         5.25916
LJ          -1.79045         6.19547        -2.90382
LJ           2.50518         4.31342        -5.74562
LJ           5.54412        -2.42111          2.6397
LJ          -5.76196          2.7467         2.27718
LJ           5.20035       -0.812309       -0.524946
LJ           4.06249         -4.1461         0.75744
LJ           6.31431        -2.94687        -2.87289
LJ         -0.234898         3.32621        -4.81813
LJ          -3.74443         3.27626       -0.594199
LJ          -4.39942         4.06613      -0.0386594
LJ           5.05086        -5.62762        0.604458
LJ           5.84235        -5.45419         6.14867
LJ          0.125578        -1.76147         4.54913
LJ           3.93529         3.88668         2.28252
LJ           2.14109         1.71284         2.27397
LJ           1.57487        -1.04167         2.58994
LJ           1.80733        -1.86541        -4.02182
LJ           4.47825        -6.04993         5.55476
LJ           6.34149           2.802        -1.63347
LJ          -1.11498        -4.25438         5.69806
LJ           3.27432        -5.30076        0.121308
LJ           3.56268       -0.453624         5.81157
LJ          -5.79779         2.80948         5.84908
LJ           5.06353       -0.846428        0.489739
LJ           5.97212        -3.12797         3.91997
LJ           0.58502         5.29141           4.337
LJ        -0.0571103         5.38023         2.26282
LJ           5.62829       -0.378334         2.27197
LJ           4.71933         6.00798         1.59454
LJ          -5.59978         3.25544         4.65901
LJ          0.896743         5.30254        -5.26802
LJ         -0.176077        -5.43423        -1.87083
LJ          -2.21211         5.23678        -3.31907
LJ          -1.87619         4.90646        -5.84132
LJ          0.306957        -5.08351        -2.71912
LJ          -0.60747        -6.19085         3.80147
LJ           2.67584          2.0938        -3.96436
LJ          -2.59098        -1.30706         5.24184
LJ           -4.4555       -0.993871       -0.916738
LJ          0.428354         3.09053        0.767316
LJ            1.5882         5.43007        -1.50294
LJ           -5.0483        0.672662        -3.50644
LJ        0.00773192         6.30269        -2.54547
LJ           0.31089         5.18803        -2.04836
LJ          -3.50032         4.72362        -3.53847
LJ           4.12631        0.868745           2.863
LJ          -3.64648        -4.13207         1.40035
LJ          -1.92953        -6.14323        -6.37584
LJ          -5.63714        -2.25327         5.41283
LJ          -1.53237       -0.645604          5.6119
LJ         0.0162024        -1.30795         2.07602
LJ          -4.17578        -6.19819         -4.2119
LJ           2.92396        -1.75353        -4.17907
LJ           1.17854         2.56518       -0.485035
LJ          0.629543         6.17395        -3.97384
LJ          -0.74431       -0.653488        -6.23109
LJ          -3.10909         5.12402        -5.97762
LJ           4.20966        -1.58958         1.71009
LJ           0.30261        -1.22623         5.37011
LJ          -4.34391        -1.20185        -2.07444
LJ          -2.42714        -3.90109          1.6196
LJ           3.34249        -2.22596        -2.93562
LJ         -0.060344         2.87305       -0.675404
LJ           3.17404         1.30725         4.91031
LJ          -5.94808         4.57994        -2.26633
LJ           6.32258        0.741478         4.23357
LJ           5.49318        -2.24734        -1.41221
LJ           1.35179        -5.17433        -3.92866
LJ         -0.236231        -4.42286         4.14604
LJ          -2.01217        -4.93239         6.15811
LJ           2.63161         5.98626         5.34931
LJ           3.02454         5.23548       -0.416726
LJ           2.51556         2.72496         2.82484
LJ          -3.29105         5.34042         2.14927
LJ           2.36635         5.97161        0.784772
LJ          -5.30665         1.65569        0.559984
LJ          -5.44254       0.0476561         3.97105
LJ           4.77179        -4.81017         6.43222
LJ          -3.79058        0.449012         3.20106
LJ           1.04589        -2.61955        -3.36174
LJ          -1.77664         3.79321        -4.12327
LJ          -5.07917         2.38189         4.05223
LJ           5.67526        -4.79743       -0.297917
LJ          0.368028        -5.87228         5.41867
LJ          -1.30694         4.18393         1.63671
LJ           4.11525          3.6819        -6.16369
LJ          -5.09916        -5.46169         2.40978
LJ          0.861784         5.11657       -0.936576
LJ           4.88295        -4.96612       -0.942542
LJ           1.86979         5.97169         6.19314
LJ           1.93055        -4.19583         1.33065
LJ          -3.05644         2.25751          2.8632
LJ           1.78499         2.75672        -6.36253
LJ          -4.55293         2.68704         5.62233
LJ           3.70373         2.35873         4.19796
LJ           3.14381         3.36882         1.82174
LJ          -2.93609         -2.1576         2.49971
LJ          -4.08778         4.86883        -4.95783
LJ           2.18467         1.28473        -5.55356
LJ          0.151312         5.11713        0.431192
LJ           5.17172         -1.3313        -3.64162
