108
#Comment!
LJ          -6.09622       0.0428574         5.56625
LJ          -5.82749         2.19843         6.05867
LJ           -2.5248          -2.418         6.36363
LJ          -5.34856         1.24584        -2.09825
LJ           3.09473         3.86001          1.1035
LJ          -4.89577        -2.33423         5.64706
LJ         -0.787903        -0.12818        -2.42677
LJ          0.313599        -4.09929        -2.24633
LJ           4.17007         6.43884        -3.58342
LJ          -3.80634        -4.25407        -2.14382
LJ            5.8518      -0.0661674        -1.95961
LJ          -3.38363       -0.488635         2.85128
LJ           4.52087        0.405646         4.02472
LJ           6.00063          5.4519         2.62918
LJ         -0.114643         4.92323        -1.71304
LJ           -2.6444        -1.97089         4.32529
LJ          0.156478         1.79684        -5.15971
LJ           5.71548        -3.16245        -1.28214
LJ          0.759032        -4.22817        -3.78395
LJ          -5.15463       -0.933464        -1.95414
LJ           2.03379         5.88155         3.23267
LJ           1.08403        -4.59112         1.79707
LJ          -3.07444          5.1376         4.94227
LJ           5.84369         2.29256        -2.68696
LJ          -4.79643        -5.34718       -0.924207
LJ           2.07496        -2.66249         4.61194
LJ         -0.765801        -1.22428        -3.02505
LJ           2.18677        -2.11189          2.0815
LJ           5.59472         -5.4505        -6.14948
LJ          -5.83162         -4.3105         -1.7528
LJ           2.41523         5.49334        -5.29854
LJ           5.33455          3.9529         4.50127
LJ           5.95524        -3.69383         4.08259
LJ          -3.00639         3.43849       -0.258001
LJ            3.2385         5.68389         4.91471
LJ           4.94178        -5.18523         3.38733
LJ          -3.08757        -2.42412         2.31851
LJ          -1.36422        0.114779         2.44801
LJ          -3.28731        -2.19492        -1.55283
LJ          -5.48888         2.78385        -1.51544
LJ          0.859379         2.20672         2.99208
LJ          -1.42271       -0.505646        -3.46186
LJ           1.49593        -1.33605         1.47625
LJ          -5.77434         3.85943         2.68629
LJ           3.67842       0.0848448          4.5356
LJ         -0.292259       -0.179382         2.99537
LJ           3.13662         4.52663        -5.51615
LJ           4.19509        -5.94338          3.7783
LJ          -4.86292         -6.2944        -1.79362
LJ          -6.16137         5.73541         3.84026
LJ          -2.38372        -6.06882        -2.44106
LJ           3.83322         3.23839       -0.584611
LJ          0.701366         3.45572         5.30148
LJ          -2.79928         5.40815        -2.50505
LJ          -5.88807        -3.21462         3.77503
LJ          -3.66124        -1.15981         5.48674
LJ          -5.65719        -1.27167        -6.08211
LJ          -1.61345        0.780547        -2.70567
LJ          -4.70489         1.91033        -1.03708
LJ          -5.99063         1.21597         -3.0794
LJ          0.367309        -1.49981      -0.0586099
LJ           2.12719        -4.57047          2.3971
LJ          -1.22041         1.79841        -2.25535
LJ          -4.59797         5.01547        -2.74223
LJ          -6.40688        -0.50514        -2.52775
LJ           1.09829         2.18827        -4.99361
LJ          -1.74038        -4.74129        -4.96117
LJ          -2.77613       0.0997156        -2.66798
LJ           3.13179         5.65191        -3.23045
LJ          -4.10976        -2.11408        0.152887
LJ           6.44377      -0.0813563        -5.41901
LJ           4.10574       -0.675366         3.25295
LJ          0.522893         6.29362         6.00726
LJ           4.31214          1.7677         2.52036
LJ          -1.82682         2.02293        -3.48299
LJ            3.4689         6.32396         3.07613
LJ           2.76881        -3.71966         4.59683
LJ          0.952195         2.93001          3.7492
LJ           2.28374         3.60486       -0.808879
LJ           1.22851        -3.89952        -5.48537
LJ          -2.86752         3.77531        -2.37388
LJ          -3.35974         4.33875           3.403
LJ          -2.58957        -2.37263         -3.8516
LJ         -0.215418         1.56197         5.18243
LJ          0.174169        -1.61722        -1.85738
LJ         -0.141262         1.61763        -1.34463
LJ           4.73581          5.1742        -3.46286
LJ          -3.31416         4.03786        -4.06938
LJ          -3.15109         1.23896        -6.40472
LJ          -3.96735        -5.65017         4.27291
LJ         -0.174583         1.16587         2.47111
LJ           5.18677        0.655687        -1.37029
LJ           4.18323        -5.28723         6.22889
LJ          -1.37459        -2.44847         2.52933
LJ          -5.56007        -5.43663         3.47632
LJ          0.720785       -0.541308      -0.0815911
LJ         0.0821419         4.44797        -6.16935
LJ           -0.2652         3.08912        -4.27239
LJ          -6.28706         2.24396        -3.70729
LJ           1.41162        -1.54007        -6.08608
LJ          -1.51422        -3.33919         5.70304
LJ         -0.699342         5.44848         2.77774
LJ           3.63223        -2.97358        -2.07583
LJ          -6.07966         3.56294          4.2273
LJ          -4.56923         1.41261        -6.37904
LJ          0.287329         0.47177        0.770056
LJ           5.94173         3.50795        -2.63549
LJ          -2.28862        -4.42944         1.40987
