108
#Comment!
LJ          -3.18619        -5.51204        -4.88698
LJ           3.88924         3.84235        -3.32179
LJ           3.48798         1.62642        -2.17649
LJ           3.13792        -2.52022        -2.59105
LJ           1.61945         4.31976         4.41538
LJ          -2.78762        0.757569         5.91675
LJ         -0.112038       -0.804138         -5.8596
LJ          -5.09806         3.23428         0.54488
LJ           2.69928         2.35557         4.56845
LJ          -5.65563        -6.09991        -1.27277
LJ          -1.15877         1.85546         2.68011
LJ           2.84762         2.44543         3.25718
LJ           2.22225        -2.14383        -3.17526
LJ           1.24131        0.463065         5.04417
LJ          -1.38788        -2.32342        -4.66652
LJ           3.05139         4.02634        -2.76064
LJ           1.76198         -1.3296         -3.7275
LJ           2.70407       -0.609479        -5.01378
LJ          -1.71295         1.49787         1.42289
LJ          0.600767         -2.2236          3.1274
LJ         -0.472019         0.78962          3.4391
LJ          -5.75845        -1.12496         5.03184
LJ           6.40591         4.16719         -5.8952
LJ         -0.952689        -2.93503         3.10775
LJ         -0.299029       0.0538298         4.35148
LJ           1.06107         2.20541         2.57771
LJ           2.31531        -2.09267         6.22873
LJ           1.65468        -1.34385        -1.79819
LJ           6.15642         1.17262         5.40204
LJ           6.16191        -1.28299         5.65458
LJ          -3.66137        0.148909          2.0394
LJ          -0.86563        -5.47261        -5.74818
LJ           1.08564         3.61936        0.699371
LJ           4.74973         3.38816         4.05604
LJ          -3.22325        0.884104         2.84073
LJ          -3.46797         2.57997         4.63414
LJ           6.41402        -4.66583        -1.94836
LJ           4.82301         3.37343        -3.04396
LJ           2.92446          2.3808        -2.78061
LJ         -0.639836        -6.01351        -4.32915
LJ           -2.4412        -4.77431        -2.02627
LJ           1.47804        -4.56977         4.26147
LJ           -1.8043        -4.54205        -3.38554
LJ          -3.18759         5.17207         6.36001
LJ          0.698227        -2.98544           4.094
LJ           3.09955       0.0810367         -6.1425
LJ          0.772441        -1.70442        -3.36676
LJ            3.8989         0.45485        -1.95214
LJ         -0.640767         3.24673        -2.23934
LJ           4.17621         3.76242         -2.2256
LJ          -1.65144        -6.10259        -5.04066
LJ         -0.833663        -5.80005        -3.16553
LJ           4.48234        -3.99367         4.62946
LJ          -2.91078         -2.5744        -6.29803
LJ          -3.27375        -4.74289         5.44298
LJ           2.25965        -3.85514         5.11493
LJ           1.77467        -2.50553         3.60339
LJ          0.965264        -1.09454        -4.65562
LJ          0.194655         4.60951        -6.23291
LJ         -0.280528        -3.88547         3.93212
LJ           4.32373        -4.34997        -4.01379
LJ           4.08515         2.66105        -2.51637
LJ          -4.27951        -3.53582        -2.97339
LJ           6.24944       -0.821219         3.95227
LJ          -5.54389         1.07953         6.15966
LJ          -6.25227         -4.5917        -6.03692
LJ            4.2312         3.15529       -0.610535
LJ           5.28114       -0.553346         5.75051
LJ          -2.89436         3.53509      -0.0809053
LJ          -3.90247        -5.58468          2.5659
LJ           6.12637         4.15935       -0.909371
LJ          -1.73898        -2.15025        -3.64064
LJ           5.96576        -3.32718        -1.74813
LJ          -3.96347        -5.82915        -2.20751
LJ           4.39555          4.8463        -3.51499
LJ          -2.38781        -5.64221        -5.85032
LJ          -1.36753        -3.07432        0.777533
LJ           -5.3924        -3.40953         2.80504
LJ           4.54958        -4.40706         -1.1905
LJ           1.98582        -2.35792        -1.74501
LJ           6.41983        -4.84919         4.59961
LJ           0.15281        -5.42606        0.471583
LJ          -1.03102         4.61436         2.15665
LJ           2.59974        -0.27987           3.869
LJ           5.67419         4.96211        -2.34062
LJ          -5.66161          3.7907         4.59269
LJ          0.134622         3.97939         -3.2447
LJ         -0.723298         6.02147        -3.11737
LJ           3.91773        -4.97166         4.39917
LJ          -5.46146         -3.7453         4.83286
LJ          -1.70612        0.925319        -5.78039
LJ           2.85624         1.06126        0.408811
LJ           4.26526        -4.75553         2.53861
LJ          -1.95608        -2.97167        -2.01944
LJ          -1.59942          -6.022         4.68997
LJ            5.2708      -0.0808111        -3.63376
LJ          -6.44668         4.82914        -3.13899
LJ          -4.00839         1.34361        -4.32906
LJ          -2.86484         5.73287         4.81304
LJ          -2.25634         4.06332       -0.872498
LJ            6.0751        -5.77881         5.02285
LJ           5.05704        -2.90981         4.73427
LJ           5.20921         5.53499         6.07177
LJ          -5.75388       -0.118812         5.47963
LJ           5.09107        -5.16741         3.53212
LJ          -2.79666        -3.73736       -0.469349
LJ          -6.44925        -4.85878         2.92579
LJ           5.33818         1.02974         4.40018
