108
#Comment!
LJ          -2.21428       0.0196812         1.70347
LJ          -1.76609         6.26348         -1.4623
LJ          -3.81132         5.76977          5.3877
LJ          -3.71167         2.65889        -6.36881
LJ          -4.74234         4.12163         4.20165
LJ          0.111365        -2.30065         6.15946
LJ           4.37544         -4.6209          5.3701
LJ           2.06025       -0.831409        -5.54883
LJ          -1.09222         5.28903        -3.94456
LJ          -6.43773        0.868252         6.23997
LJ           3.06654         -1.9273         5.20289
LJ          0.953801        -1.58339        -1.21437
LJ          -3.20305        -1.05249        -3.99909
LJ          -1.72143         -5.6841         -5.9349
LJ          -5.24933         1.75522        -2.43931
LJ          -3.77176        0.902004        -2.34716
LJ           2.70932        -3.70587         2.12457
LJ          -5.79377        -4.68332         2.13764
LJ           -3.3093        -5.31177         1.15041
LJ           1.62091        -4.54409        -1.48766
LJ          -5.21207        0.141287         3.88457
LJ          -3.29611         2.02317         1.44283
LJ          -2.92997         3.53501        -4.58631
LJ           -2.1573         2.23431        -5.65141
LJ         -0.985656        -1.58677         1.68085
LJ           4.94124         -2.4978         3.31712
LJ          -2.71971       -0.105864         5.63359
LJ           3.38537        -3.24032        -6.28894
LJ           5.06438       -0.801029         -3.0345
LJ           3.43373         5.10518         4.38149
LJ           5.79753         3.14617         6.29413
LJ           6.22743         0.89391        -5.29936
LJ           2.13019       -0.124198         1.97867
LJ           1.49287         3.55624        -5.12717
LJ          0.581655       -0.676684         1.60285
LJ            5.9816        -6.07027        -2.81431
LJ          0.979335        0.796044        -2.25368
LJ           2.02756        -3.86465         4.74263
LJ          -6.33167        -1.48691         2.12687
LJ           -1.6937        -1.28617        -2.98356
LJ           3.95061       -0.431147          1.0086
LJ          -1.73403         1.72012        -2.70544
LJ          -2.84359        -1.90222         3.96328
LJ           6.34497         2.15061         6.13524
LJ           2.09127       -0.744771        -4.02815
LJ           5.46708        -4.40564         1.27726
LJ          -5.82952          -3.749        -2.75147
LJ           5.90005        -2.66954        -1.57159
LJ          -3.09869         6.03493        -2.57617
LJ           5.42696         6.08011        -6.18346
LJ           5.87227       -0.429143        -1.86045
LJ         -0.650888         2.53211         2.22006
LJ          -2.76153        -1.23983        -5.81726
LJ           6.34563         2.94299         -4.3394
LJ           5.90536         4.37638         4.22247
LJ          -6.02388        -6.42506         5.17484
LJ           5.99136        -3.15087         4.23307
LJ          -1.75458        -6.23147        -2.44854
LJ          -1.61046        -1.32468        -1.99238
LJ        -0.0249986        0.967988        -2.82679
LJ          -1.04737          4.8931          -5.136
LJ          -2.93245         6.15259         2.17595
LJ           2.19827        -1.87806        -5.02184
LJ           -3.9103         3.50827        0.899848
LJ          0.191833         3.38713        -0.80846
LJ          0.935217          5.1537        -5.64199
LJ          -1.83723         5.12961       0.0419285
LJ          -2.06561        -1.67054        -4.05358
LJ          -6.08733       -0.471047        -4.41104
LJ           5.16026         5.55483         4.67864
LJ         -0.375635      -0.0634044         4.05766
LJ          -5.81776         3.96809         4.86917
LJ           4.03923         3.77464         6.06132
LJ          -5.35623        -6.38138       -0.524805
LJ          -4.54675         5.76181        -2.45628
LJ          -5.42839         5.96317         3.94249
LJ           6.25896        -3.37285        -2.15738
LJ          -1.40774         4.85202         3.78827
LJ           6.45691         2.43347        -2.81611
LJ          -3.24613         1.42405          2.5435
LJ          -2.50621        -4.01066        -3.14584
LJ           5.33163         0.59446        0.161221
LJ         -0.353122        -6.17299         1.78702
LJ          -3.94068           5.445         4.33314
LJ          0.566551         4.80425         6.35696
LJ           2.45009         5.08584         4.61324
LJ           3.93824         4.31919       -0.794872
LJ           5.96486        -4.87495        0.359395
LJ          -2.03078        -0.52189        -4.74773
LJ         -0.898284         6.37975         5.25098
LJ           2.61404      -0.0485539        -1.72573
LJ         -0.454605       -0.442334         -2.3035
LJ          -5.52685        -1.83801        -6.09947
LJ           2.17868        0.320175        -3.39198
LJ          -4.51873        -6.11947        -5.54359
LJ            3.6021        -5.30553         1.66573
LJ           2.81085         5.18077        -5.95581
LJ           -4.6237         6.06431        0.165372
LJ          -4.78045        -5.31817        -1.64764
LJ           4.97721        -3.99125         3.86983
LJ          -2.20874         6.36714        0.951483
LJ           5.52524         6.17613         2.35327
LJ          -1.10054        0.634434         1.46508
LJ          -5.33493         5.91734        -4.78843
LJ          -3.66578         1.83372         -1.0579
LJ            3.6059        -3.57479        -3.36711
LJ           4.12533         1.18823         1.23958
LJ          -5.14583        -6.16341        -2.53485
