108
#Comment!
LJ          -3.23183        -5.59008        -4.99324
LJ           3.71647          3.9567        -3.40157
LJ           3.40889         1.88515        -2.20853
LJ           2.92772        -2.46828         -2.0704
LJ           1.73377         4.05858         4.64483
LJ          -3.01359        0.836385         5.96251
LJ        -0.0373302       -0.888738        -6.00221
LJ          -4.79787         3.38932        0.573741
LJ            2.8136         2.41902         4.29739
LJ          -5.68822        -5.91915        -1.07717
LJ          -1.34006         2.01107         2.46192
LJ           2.91477         2.27461         3.28566
LJ           2.15115        -2.30332        -3.15658
LJ           1.42451        0.371248         5.26494
LJ          -1.09289        -2.02407        -4.67491
LJ           2.58625         4.20735        -3.00134
LJ           1.64941        -1.03548        -3.04472
LJ           2.88854       -0.653637        -4.95609
LJ          -1.39902         1.81378        0.911088
LJ           0.46938        -2.32951         3.36477
LJ         -0.905673        0.775967         3.29836
LJ          -5.44214        -1.16586          4.9017
LJ           6.07023         4.37156        -6.11919
LJ          -1.06808        -2.81864         3.58855
LJ         -0.223005       -0.271368         4.13779
LJ          0.736589         1.82514          2.7826
LJ           2.72062        -2.10503         6.13351
LJ           1.80591        -1.32311        -1.87745
LJ           5.85514        0.968841         5.81866
LJ           6.35301        -1.32854         5.85395
LJ          -3.65308        0.104799         2.07433
LJ         -0.758537        -5.56355        -5.63207
LJ           1.03097         4.04573        0.817988
LJ           4.52781         3.41391         3.85137
LJ          -3.39364         1.04599         2.77075
LJ          -3.65858         2.62452         4.49437
LJ           6.41748        -4.86612        -2.45407
LJ           4.66065         3.40483        -3.09282
LJ           2.88654         2.54844        -2.90945
LJ         -0.924741        -6.10981        -4.27214
LJ           -2.6254        -4.89256        -2.25144
LJ           1.69859        -4.65232         4.83005
LJ           -1.8479        -4.44355        -3.61317
LJ          -2.84552         4.87673        -6.42221
LJ          0.931993        -2.94357         4.35453
LJ           2.70889      0.00820367         -5.7136
LJ          0.492278        -1.59757        -3.26058
LJ           3.84438         1.02378        -1.79862
LJ         -0.377119         3.01199        -2.26753
LJ           4.03107         3.93952        -2.33803
LJ          -1.77382        -6.03252        -4.99656
LJ         -0.703863         -5.7591        -3.25261
LJ           4.59513        -4.17675         4.64446
LJ          -3.00157         -2.5518         6.39145
LJ          -3.27293        -4.93373         5.73114
LJ           2.39935        -3.94931         5.05625
LJ            1.5954        -2.71287         3.53518
LJ          0.809248        -1.02578        -4.46432
LJ       0.000254164         4.72885        -6.11068
LJ         -0.184146        -3.78812         4.02112
LJ           4.23333        -4.11019        -4.49603
LJ           3.93964         2.81073        -2.11941
LJ          -4.19183         -3.3219        -3.13668
LJ          -6.28318        -1.31847         4.21504
LJ          -5.73326         1.08138         6.38066
LJ          -6.00799        -4.27461        -6.08971
LJ           3.89567          3.4183       -0.719307
LJ           5.34471       -0.721188         5.47073
LJ          -2.54227         3.08036        0.280281
LJ          -4.27098        -5.13848          2.3373
LJ           6.15333         4.68959        -1.19392
LJ          -1.83472        -2.41943        -3.61046
LJ           6.07341        -3.13956        -2.18568
LJ          -3.79088        -5.55112        -2.23952
LJ            4.2401          4.8814        -3.53903
LJ          -2.31125        -5.64273        -5.92062
LJ           -1.4605        -3.62905         1.16839
LJ          -4.73717        -3.05027         2.88913
LJ           4.39761        -4.68386        -1.18698
LJ           2.04809        -2.44125        -1.63397
LJ          -5.97769        -4.71516         4.24384
LJ          0.185518        -5.53596        0.581815
LJ           -0.6134         5.09349         1.83766
LJ           2.89831        -0.20261         4.17985
LJ           5.46995         5.00819        -2.57866
LJ          -5.52791         3.62462         3.94958
LJ          0.139316         3.73188          -3.389
LJ         -0.734449         5.93093        -3.26381
LJ           3.97096        -5.18638         4.24924
LJ          -5.38547        -3.77449         5.04048
LJ          -1.71461         0.38503        -5.67965
LJ            3.0981         1.27681        0.655882
LJ           4.37689        -4.84034         3.01367
LJ          -2.07069        -3.15288        -1.93934
LJ          -1.56205         -6.3665         4.53867
LJ           5.05806       -0.392578        -3.20447
LJ           6.16875         4.98094        -3.49556
LJ          -4.41732         1.17222        -4.15047
LJ          -2.83037         5.71741         4.41127
LJ          -2.13354         4.03804        -1.20143
LJ            6.1319        -6.03688         4.92094
LJ            5.2933          -3.389         4.92174
LJ            5.3105         5.61935          6.3933
LJ          -5.81588       -0.159611          5.4473
LJ           5.26927        -5.19117         3.42068
LJ          -2.64411        -3.42055       -0.475895
LJ           6.04259        -4.54335          2.8018
LJ           5.42647        0.994375         3.99519
