108
#Comment!
LJ          -2.90042        0.620695          1.6563
LJ          -2.65085         -5.1314       -0.431344
LJ          -3.40638         5.37199         4.46143
LJ          -3.64239         2.15074        -5.85811
LJ          -3.78757         4.30666          3.5847
LJ           1.24484        -2.34969          6.3328
LJ           3.09244        -3.69848         4.48266
LJ            2.2665        0.478496        -5.50567
LJ          0.216762         5.67174        -4.18692
LJ          -6.01451         1.62191         6.43086
LJ           3.68013        -2.47051         6.25584
LJ           1.17682        -2.15326        -1.00657
LJ          -2.81901         -0.9135         -4.8237
LJ         -0.750121        -4.29187        -6.21502
LJ          -3.87689         2.73656        -1.78516
LJ          -2.30304        -1.63143        -3.35921
LJ           2.02938        -3.42616         1.34732
LJ          -6.25657        -5.02692         3.28823
LJ          -3.69702          5.7972         1.29976
LJ            2.3815          -5.844        -1.39109
LJ          -5.81969          1.1976         4.01189
LJ          -3.43374         1.52796           1.531
LJ          -3.36427         4.38062        -4.45635
LJ          -1.19689       0.0962442        -5.54931
LJ         -0.904412        -2.07835         1.17605
LJ           5.44485        -3.21832         2.99732
LJ          -1.81147       -0.324261         4.95668
LJ           4.09947        -4.15518        -4.80779
LJ            5.1231        0.477509        -3.83176
LJ           4.08098         6.11934         5.70944
LJ           5.20909         3.08623           6.252
LJ           5.69684         1.02832        -5.77261
LJ           2.70356        -0.75688         2.10708
LJ           2.84239         3.82243         6.09939
LJ          0.639313        -1.47137        0.955253
LJ           5.19642         6.34356        -4.85314
LJ           1.22594        -1.30712        -1.97154
LJ          -0.21885        -2.76483         4.72289
LJ           6.01717        -1.06386         1.73724
LJ          -1.32058        -1.64392        -2.78037
LJ           3.48743       -0.391022         1.56592
LJ          -1.18595         1.79402         -4.6329
LJ          -2.39805         -1.5685         2.79045
LJ          -5.93738         3.12393        -6.17787
LJ           2.56193        -1.12092        -2.97558
LJ           5.26075        -2.90802         1.12376
LJ          -5.57617         -2.8091        -2.77445
LJ            5.6065        -2.96318        0.116261
LJ          -4.01956         6.37201        -3.54758
LJ            4.7585          5.1754         6.39964
LJ           4.80825        0.589394        -2.32978
LJ          -0.64353         1.72348         2.05989
LJ          -3.21441       -0.987086         6.38434
LJ          -6.28584         2.75654         -4.0491
LJ           4.39576         5.68925           4.455
LJ           -5.3227        -4.83565         5.77305
LJ           5.69279         -2.2022          3.5945
LJ          -1.97676         6.01021        -3.96006
LJ          -1.54829        -1.44397        -1.65928
LJ          0.822454       -0.134157        -1.93175
LJ         -0.943348         5.39994         -4.1873
LJ           -2.2223        -5.52948         2.36888
LJ           1.18357        -2.35911        -3.34982
LJ          -4.19502          2.6391       0.0956832
LJ          -1.58294         3.52905       0.0129273
LJ           1.04559         4.31553        -5.36809
LJ          -1.77284         5.73206        0.980306
LJ          -1.17212        -3.03915        -5.02685
LJ          -4.57324       -0.675288        -4.11798
LJ           3.47437         6.40833         3.90403
LJ          -2.02574      -0.0558839         3.29279
LJ            6.4343         3.68114         5.09177
LJ           3.46297         2.28991         5.66997
LJ          -5.44175        -5.89299        -1.51626
LJ          -3.91191          4.9855        -3.08724
LJ          -5.05261        -5.03501         3.70552
LJ          -6.26323        -4.54652        -2.89928
LJ          -2.40486         5.20708         4.43585
LJ          -4.87905         2.30897        -2.42808
LJ           -2.6446         1.38951         3.31298
LJ          -2.35502        -5.05417        -2.82678
LJ           5.32702        0.323179        0.875953
LJ          0.252245        -6.39464         1.99674
LJ          -2.88914         5.20233         3.43158
LJ           1.72766         4.17821         6.20159
LJ           2.24871         5.73348         5.31068
LJ           3.37901         4.70784       -0.931352
LJ           5.94024         6.19129         -1.3764
LJ          -2.99474        0.274004        -5.18882
LJ        -0.0971901        -6.28198         5.47234
LJ           1.91404      -0.0198099        -2.87463
LJ          0.669435        -1.34951       -0.564082
LJ          -6.29967       -0.656132         6.44194
LJ          0.782589        0.725359        -2.81281
LJ          -4.46434        -6.38543        -5.31934
LJ           3.42446         -6.1738        0.696901
LJ           2.96234          5.6071         -4.8985
LJ          -4.20923         5.46449       -0.501794
LJ          -6.39013        -5.71601        -2.07092
LJ            4.2504        -2.43076         3.82541
LJ          -1.55313        -6.46214         2.07788
LJ           4.11606         4.14543         2.46014
LJ          -1.25573       -0.261658         2.58661
LJ          -4.93971        -5.07683         -3.8126
LJ          -3.53236         1.58192        0.318605
LJ           2.13831        -1.87281        -2.42462
LJ           5.18882         2.76321         1.38233
LJ          -5.65128         5.81673        -2.01085
