108
#Comment!
LJ           3.28392          3.8326        0.418995
LJ           4.98694        0.434404        -3.40753
LJ          -4.76085           5.522      -0.0289377
LJ           4.03798         1.66864        -6.41482
LJ          -3.94455         2.59798         4.26989
LJ          -5.80167        -1.61344         5.82876
LJ          -1.94434        -4.73302         -6.3937
LJ          0.106834          3.1258          6.2949
LJ         0.0610651         3.80149        -5.71205
LJ           5.46744        -1.93911        -6.37604
LJ         -0.399472         1.06775        0.906089
LJ          -1.63103         3.87705        -4.03548
LJ           5.30544         3.00727         1.39599
LJ          -6.04915          4.6414        -3.56324
LJ          0.614773        -1.71293           5.745
LJ          -5.08237          3.0358         -5.4976
LJ          -5.49138        -3.76892        -5.39442
LJ          -2.53876         3.34709         1.19738
LJ         -0.862702         2.44739         3.24765
LJ          -2.86656        -2.72185        -1.77615
LJ           -1.3247         -6.2213         3.25822
LJ          -6.10262         3.67426        0.270105
LJ          0.126115       -0.447459        -3.30257
LJ           5.94831        -5.94618        -4.35349
LJ           -2.8651         6.14545         4.99092
LJ           2.76036        -1.63308        -2.97407
LJ           5.84758       -0.535961       -0.261737
LJ          -1.68385         3.02342         1.70149
LJ           2.81778        -4.16354         6.34521
LJ          -6.05442         1.26726        -4.69978
LJ          -2.23016         6.21896         6.02494
LJ           4.54421        -2.85638        -3.56807
LJ           1.11512         2.80743       -0.210801
LJ          -1.53214         3.30429         -6.0551
LJ           1.87948         4.55989         6.17671
LJ          -5.03185        -1.47232         3.73429
LJ           3.66394         3.34201         1.49918
LJ          -2.97102         1.59361         2.76769
LJ          -4.91272        -4.78518         5.08511
LJ          -2.19512         3.85315        -5.47924
LJ            3.5511        -1.57163         0.96362
LJ          -3.97684         2.29594         2.21027
LJ          -4.19522        -5.00388        -4.40411
LJ           3.22641       -0.108615         4.41054
LJ         -0.386386         3.10252         4.80754
LJ         -0.841241         3.49698       -0.623358
LJ          -2.26907        -3.50004        0.996102
LJ            6.3171       -0.968182           2.564
LJ           1.61895         5.64118         3.49541
LJ          -5.27695        -3.51351         5.17421
LJ         -0.166375        -3.65961        -4.36691
LJ          -3.11624         4.22847         3.31519
LJ         -0.305856        -1.47061        -3.91206
LJ          -3.59271         1.50932         3.92624
LJ           4.41212         2.83842         2.33682
LJ           5.64618         4.73562         1.36017
LJ           -6.3519        -5.77816        -2.57532
LJ          -1.38836        -2.28911        -5.18684
LJ           1.85147        0.858912         1.27982
LJ          0.222986        -5.95456        -5.21778
LJ          -4.86387         3.39021         -1.0669
LJ         -0.924786        -4.65735        -3.11926
LJ          -6.37715         5.77997        -3.37323
LJ           1.62235          4.4489        -1.27816
LJ           3.13138         4.56139        -2.57809
LJ          -3.73817         -1.3833         6.37097
LJ          -4.06486          4.4791        -3.66513
LJ           1.01002        -2.24064        0.878232
LJ           2.67726         3.57874         5.82477
LJ          0.594496        0.266026         5.12215
LJ           -4.9261        -1.99747        -5.00332
LJ          -6.24803         3.51878        -3.76973
LJ           -5.1781        -4.50483        -4.22001
LJ         -0.618212        -5.78178        -1.58874
LJ          -4.55018        -5.41139         2.30662
LJ          -2.66471        -1.24848         1.40394
LJ          -6.44189        -4.20199        -2.89315
LJ           4.31444         5.37804         1.12561
LJ           3.69015         5.63354        -2.83397
LJ           6.06891       0.0854572         3.63216
LJ          -4.53324        -4.87269        -5.75907
LJ           3.78837        0.326188         1.24115
LJ           -0.3422        -4.06534         1.38428
LJ           5.10025        0.292231         1.49424
LJ          -4.39905         4.86308        -5.47506
LJ           4.74845         5.26378      -0.0462591
LJ           5.23501         1.66065         0.37279
LJ          -4.64438      -0.0437077         3.20303
LJ         -0.805813        -1.74679        -2.80429
LJ         -0.708565        -5.68254         6.38278
LJ           6.14217         0.95822        -1.23164
LJ         -0.227713         4.05102         5.18888
LJ          -3.34397        -1.91752        -2.64549
LJ           4.87058         4.86837        -5.68477
LJ          -5.95375        -1.92266        -5.95585
LJ          -2.76044         5.39341         2.71102
LJ           1.73149         1.84431         0.58449
LJ          -5.49071         5.36588        -2.33281
LJ            2.4812          1.8204         1.60145
LJ          -4.47053         3.68225         1.11104
LJ          -5.84898         3.39359       -0.797907
LJ          -1.78576         4.89192         4.62994
LJ          -5.78253         2.75055        -2.39297
LJ           5.95324        -1.30243        -2.60607
LJ           2.97407         2.07905        -1.47566
LJ          -3.20901        0.868686        -2.01177
LJ          -1.40969        -4.40052        0.868286
LJ         -0.187723        0.448831        -2.42566
