108
#Comment!
LJ          0.289089        0.657951         1.28818
LJ          0.348366         3.92343        -1.57916
LJ          -4.55466         6.33605        -5.61084
LJ           -3.0964         2.60184        -6.28584
LJ          -3.52209         5.24716          4.9127
LJ          -2.03069        -2.21208         5.79945
LJ          -6.17396        -5.48288         5.84997
LJ          0.987353       0.0228901        -5.79252
LJ          -2.56605         3.71132        -5.61995
LJ           5.71837       -0.618958        -6.28876
LJ           1.94575        -1.06867         3.29931
LJ          0.157465       -0.117798        -1.73965
LJ          -4.22023       -0.151882        -2.24391
LJ          -4.08511         4.84675        -5.92362
LJ           4.80366        0.704814        -3.77822
LJ            4.0854         3.64599        -3.87377
LJ           3.40005        -3.33454         4.15374
LJ          -5.50251         -3.5537        0.296065
LJ          -2.16116        -2.49448         1.13651
LJ          0.189543        -2.05554        -1.66794
LJ          -4.13266        -1.91024         3.57318
LJ          -3.79856         4.31336        0.639495
LJ          -2.10077         2.09046        -4.10515
LJ          -3.72144         5.42087         6.09315
LJ          -1.62486        -3.14616         2.98972
LJ           4.54727        -2.27299         5.41932
LJ          -3.77502         1.11316         5.63219
LJ           2.02054        -1.44267         4.66888
LJ           3.96097        -2.90649        -3.73809
LJ            4.1466         3.32598         1.31861
LJ          -5.70295         3.14735         4.89345
LJ           6.35412       -0.299924        -4.67284
LJ           2.15564         1.57528         1.50951
LJ          0.656389         2.77441        -4.40118
LJ          0.502605         1.11911         3.20348
LJ          -5.14323        -5.24566         1.13964
LJ          -1.85606         2.95104        -2.06928
LJ            5.9119        -6.05374         4.77691
LJ          -5.24926        -2.28501          3.0672
LJ          -2.89163        0.329588        -4.57841
LJ           5.07255        -1.56537       -0.426333
LJ          -3.00701         2.04868        0.837313
LJ          -3.62028        -2.40469         6.18788
LJ           5.05458         1.35387         5.27403
LJ           1.65393        0.824797        -5.66018
LJ           3.35673        -6.39554         5.17919
LJ          -5.36486        -2.89548        -6.09386
LJ           6.20457       -0.405513       -0.659354
LJ          -1.39443         5.58155       -0.222949
LJ          -5.54537        -5.64614        -5.47911
LJ          -4.84935         -1.7978       -0.590525
LJ          -1.00911            3.64         2.36206
LJ          -2.07994        -1.33436        -4.66725
LJ            5.9108         2.88072        -4.00973
LJ          -6.30099         3.32312         3.94844
LJ          -5.73434         4.97965         5.91066
LJ            5.7865         -4.6044         4.31856
LJ          -2.00397        -4.55571        -3.32797
LJ         -0.869359       -0.707408       -0.363073
LJ         -0.533872          2.7371        -3.51635
LJ          -2.38954         4.63104        -3.97847
LJ          -2.83617         6.43083       -0.199923
LJ           4.31446        -4.27735         4.26095
LJ          -5.54076          4.4352        0.627665
LJ           3.46449         3.07118        -2.40747
LJ         -0.428192         -5.3404        -6.04036
LJ          -3.62295          3.1632       -0.549412
LJ          -2.62285        -1.59065         -1.0159
LJ           4.71526        0.907464        -5.49493
LJ          -5.58402         1.20472         4.82371
LJ           2.73728       -0.252971         5.20673
LJ          -5.71102         4.44918        -6.11052
LJ           5.29179        -6.14549        -6.14055
LJ          -4.96445         6.18252       -0.382291
LJ          -4.72394         -5.6455       -0.399354
LJ           3.37903         3.15678         3.17688
LJ           5.70198        -2.86605        -1.46333
LJ          0.455578         4.59196         2.67818
LJ            4.8278         2.62303        -3.98599
LJ          -3.98034        0.615964         2.58543
LJ          -2.88055        -3.23694        -4.02522
LJ           4.78178         0.84038       -0.815342
LJ         -0.223297        -5.49643         1.74491
LJ          -4.48188         4.01444          5.3611
LJ          -1.71897         5.37368        -5.76224
LJ           2.39805         4.48205          3.0005
LJ             4.987         3.58219       -0.542213
LJ          -4.93165        -2.23279        0.821605
LJ         -0.981423        -1.09506        -4.44838
LJ          -2.51056          5.7542         4.98809
LJ           3.57878        0.104982       -0.257184
LJ          -2.09921         1.78239        -5.80944
LJ          -4.43803        -3.90601         -5.1343
LJ           4.21841         -1.7015        -4.18936
LJ          -4.71595        -5.37048        -6.15958
LJ             5.447        -4.83739         3.35039
LJ           2.48036         4.15928         4.76665
LJ          -4.92442        -5.78723         2.03791
LJ          -2.35312         4.52795       -0.108005
LJ          -6.21859        -6.24085         3.68601
LJ          -4.89761         5.01764        0.018026
LJ          -4.99467        -2.39879         1.78735
LJ          -2.07196         1.46471      -0.0997119
LJ          -5.97099         2.63431        -5.43353
LJ          -1.53941         2.16166        -1.23668
LJ           6.39371         6.26954        -4.19076
LJ           1.99722       -0.980113         1.02924
LJ          -2.90836        -4.17644        -2.58045
