108
#Comment!
LJ           2.41645         5.91991        -1.66653
LJ          -4.00094        -1.85671        -4.95834
LJ          -5.06435         4.13334         3.72961
LJ           2.25109          6.3302        -4.74987
LJ          -2.42258          3.9052         4.40267
LJ          -4.64793       -0.462232         6.11411
LJ           1.19547        -3.11288         3.92765
LJ          -1.53251          2.4021        -5.07839
LJ         -0.871671         4.86448         5.96822
LJ           5.87618        -2.58343        -4.62537
LJ          -1.37558         2.96441       -0.676656
LJ          -1.89718        -5.91506        -3.05281
LJ          -5.43808         5.54471       -0.897435
LJ           4.58619         4.59697        -3.70402
LJ          -2.11571        -3.51438          3.3549
LJ           2.48167         2.16835         -2.6853
LJ          -2.61538        -2.84266        -4.14013
LJ          -3.64222        -3.29792        0.841502
LJ          -2.24759         1.87489         2.87883
LJ          -5.06269        -2.89372        -4.21509
LJ        -0.0016076         3.22808         3.56593
LJ           4.67663         3.76305      -0.0904389
LJ           1.30533         1.46436       -0.480747
LJ           2.53051         -4.6395         5.18831
LJ         -0.894527         5.20033         3.64517
LJ           1.80206        -1.33655         0.32646
LJ           5.38301        -1.05597        -4.04733
LJ          -1.56779         2.37609         4.90371
LJ           1.39992        -5.38388         5.44726
LJ          -3.27552        0.432788         4.72408
LJ           -2.4763        -2.55908        -5.40267
LJ           3.06369        -4.52205        -2.67838
LJ           0.51664         5.05373        -3.39429
LJ         -0.682377         5.90875         5.70636
LJ           4.08483         6.34612         6.19478
LJ          -5.59461         1.27314         4.91567
LJ          -1.59142         3.51068         4.85347
LJ          -2.63783         0.56279           1.713
LJ          -4.77356        -5.79699        -4.95284
LJ         -0.873219          5.9876        -6.11103
LJ           2.54379        -2.01505         2.38699
LJ          -1.82881       -0.924024         2.61522
LJ          -4.60444          5.6598        -4.00161
LJ           2.04621        -1.04962         3.94857
LJ          -1.53901         2.55781         6.00224
LJ          -3.28285         1.71875         4.51143
LJ         -0.634036        -6.06649        -3.38611
LJ           5.37838         -2.4547         4.45478
LJ           5.84783        -5.05405         2.35365
LJ          -4.98142        -3.24191         3.14424
LJ           3.95348        -4.55772         -5.4618
LJ          -3.20263         4.84554         4.55595
LJ          0.242422         1.17891        -2.76013
LJ         -0.565346         3.44123        0.798556
LJ          0.873404         2.46177         3.35505
LJ          -5.57568           2.425       -0.423182
LJ          -5.27612        -6.29943         2.11996
LJ         -0.237593        -1.00555        -4.84284
LJ           1.19002          1.0424         1.18206
LJ         -0.890808         -4.6258         5.00409
LJ          -5.12612       0.0227095       -0.878863
LJ           1.20107        -3.94208        -3.26606
LJ          -5.56402         5.53707        -2.18724
LJ         -0.183049         2.73118         -1.9665
LJ           1.15198         -6.2064        -1.74124
LJ           6.12785         1.20464        -6.43491
LJ          -5.69566         -5.0668        -6.13545
LJ           4.34356        -3.66488        -2.86623
LJ           0.59113        -5.96553         5.68669
LJ           2.84816       -0.756183         5.64656
LJ          -1.60567        -2.34875         -4.0064
LJ          -5.46845       0.0409044        -2.83165
LJ          -5.13492         6.42432        -1.92926
LJ           2.39656        -5.51574         -1.8283
LJ          -4.53338        -5.20458         4.52681
LJ          -5.63535         -3.3461        -0.77026
LJ          -5.21566          -4.455        -3.24904
LJ           4.26434        -5.36588       -0.962658
LJ           3.43408         5.95589        -2.32673
LJ            3.6255       -0.404133         5.15505
LJ          -3.58425         5.95764        -5.86184
LJ           4.78948       -0.219581         3.98783
LJ          -2.56955        -3.50838         1.11106
LJ           1.62105        -2.51952       -0.596094
LJ           -5.4685         4.81299        -4.63151
LJ           6.05904        -6.00094        -1.75251
LJ          -4.60453       -0.186287        0.679794
LJ           5.92017        -4.32533         1.09789
LJ          -0.15891        -2.52512        -2.89105
LJ          -1.23912        -3.46601         6.41131
LJ          -5.66131         1.69494        -2.39655
LJ          -1.55228         5.20285        -5.24638
LJ          -2.80986        0.130755        0.221698
LJ           5.05315         0.48326         6.19151
LJ            3.9998       -0.270431        -6.29846
LJ          -1.11256         6.30789         1.31626
LJ           1.69058        0.584574        0.208964
LJ            5.2966         3.66897        -1.73726
LJ           3.17022         1.00081        -1.77862
LJ          -3.11123         1.60975          1.2947
LJ          -5.79246         2.18564        -1.44782
LJ         -0.438533        -5.72378         6.27402
LJ           5.94542          1.0461       -0.666839
LJ          -6.03827        -5.11665        -1.23569
LJ            5.3369         2.80207         -0.5474
LJ         -0.932714        -1.70376       -0.309663
LJ          -2.01076        -4.37072         1.58715
LJ           1.41402        0.234378        -4.50662
