108
#Comment!
LJ           5.68325        -4.14485        -5.18529
LJ          -2.65375         2.94872        -4.20258
LJ         -0.567982        -3.30075        -5.96396
LJ          -3.87923        -5.16426        -1.73956
LJ            2.7902         4.76613        0.715687
LJ          -2.73001        -5.39838        -5.20116
LJ          -2.08145        -2.30454         4.54625
LJ           -2.1077         5.04576         4.45296
LJ           3.47314         4.99569         -2.1556
LJ         0.0294714        -2.54593         4.87582
LJ           2.60251         1.14611        -2.37938
LJ          -5.08276        -1.09143         2.65109
LJ           4.90529          -4.627         1.15099
LJ          -4.97698        -5.95366         1.33945
LJ          0.380955         4.00128        -3.96362
LJ           5.25443         4.58348         3.25271
LJ          -2.35813         3.54124         4.16403
LJ           4.67064        -3.58389         1.63995
LJ           -3.6984       -0.211844        0.848664
LJ          -1.13351        0.277498      -0.0702057
LJ          0.767941         5.53221         2.43137
LJ           3.36995         6.34359        0.756913
LJ          -1.93551         4.18944         2.04692
LJ           4.91594        -1.11614        -3.81283
LJ          -5.35234         1.23715        -2.55095
LJ           2.28488        -6.03822        -2.56154
LJ         -0.733438        0.709836        -5.34026
LJ           5.46707        -2.72741         2.01299
LJ           4.02126        -2.49734         5.77746
LJ          -3.60678        -4.95769        -5.79872
LJ           1.42856        -4.24381       -0.692488
LJ          -5.08566        -4.20501        0.415823
LJ           6.13245       -0.255555         4.65358
LJ          -1.34592         -1.2517         1.44791
LJ           3.33882        -3.81621         1.18152
LJ           1.88232         -5.7952        0.255888
LJ          -3.79153        -1.63666         4.76801
LJ         -0.271578         4.05367         4.08969
LJ          -1.77223        -2.47872         -4.2843
LJ          -6.35307         5.20539        -2.88533
LJ          -1.89567         2.21533         6.00169
LJ          -2.02519        -1.39409        -2.96877
LJ           1.96366         -2.6266         1.96862
LJ           6.04114         3.27346        -1.11683
LJ          0.857245        0.441512        -5.08746
LJ          -5.61256       -0.880147         5.92921
LJ           1.73246         4.70985        -2.08583
LJ           4.56574         -5.7139        -5.92912
LJ           3.04928        -1.50372       -0.777935
LJ         -0.263153          4.3094         1.45679
LJ          -1.26404         6.41912        -1.46771
LJ          -5.61819         4.59131        -1.79737
LJ           2.29262         5.97208         1.07277
LJ          -1.22004        -5.16151       -0.665335
LJ          -3.99245        -3.26484         5.28871
LJ          -3.52838       -0.566394         5.99835
LJ          -1.53186        -1.15419        -6.41501
LJ           -1.8388       -0.801444         5.51818
LJ          -4.86025         4.68974        -2.83004
LJ           5.63369       -0.297276         -3.2445
LJ         -0.473325        -4.14549         -1.2024
LJ           2.58902        -5.63359       -0.458636
LJ         -0.344188        -0.51041        -4.73367
LJ          -5.54303         2.91908        -2.07352
LJ           5.68884        -2.05112         -5.6201
LJ           1.78063        0.537939        -4.38811
LJ           1.97094         6.26707       -0.231299
LJ          -2.44455        -4.53623        -3.58206
LJ           4.03595        -5.82984        -3.96135
LJ          -2.88664        0.561062       -0.853927
LJ          -3.91887        0.733164       -0.432128
LJ           3.57115       -0.694223      -0.0221065
LJ          -2.46693        0.874373         6.35542
LJ           4.20708         1.78978       -0.551184
LJ         -0.945812        -1.73183        -3.29118
LJ           1.56605        -5.76194         4.55856
LJ            -3.893        -3.55135         3.91201
LJ           1.65079         3.31563         5.76955
LJ          -6.31403         1.92543         -2.7967
LJ           1.19278         6.03747        -5.54847
LJ          -3.72056         2.23672         5.08269
LJ           5.62835        -2.57356         3.58939
LJ          -3.51699       -0.225831         2.38713
LJ          0.482569        -1.25088         6.23859
LJ          -2.48155        -3.12292         1.47627
LJ        -0.0199023        -2.71826        -3.77268
LJ         -0.754503         5.72622        -5.68933
LJ           2.33699         3.66001        -4.65706
LJ          -3.81019         1.42839         6.18308
LJ           5.79847        -5.00854         5.46169
LJ         -0.461994         4.70664         5.12184
LJ           4.05217         4.11391        -1.89421
LJ           4.02159        -1.00879        -5.38665
LJ          -4.55014        -5.72974         5.53262
LJ          -2.13228        -5.71582         1.78833
LJ          -2.85013          4.3759       -0.765998
LJ         -0.102268         3.88449         5.72981
LJ          0.423173         2.88668        -5.82245
LJ          -4.34945        -3.69227         -1.0265
LJ          0.749191       -0.458534        -5.90571
LJ          -3.56011       -0.612903         4.25979
LJ          -1.39728         4.78997         1.47358
LJ          -1.93738        -3.10124         2.62017
LJ           3.64929        -4.20741        -4.26336
LJ          -6.01118         2.19735        -3.68316
LJ          -4.49732          3.1006          -4.799
LJ           -3.8893        -1.25447        -2.58162
LJ            -2.805        -4.81929         6.45441
