108
#Comment!
LJ          0.285625         -6.0728         4.59963
LJ         -0.931698         6.24215        -4.69048
LJ          -3.97163         0.52127        -1.92334
LJ          -4.58899        -5.97116        -3.09773
LJ           4.47926         3.40309        -4.39488
LJ          -3.18513       -0.613002         5.93352
LJ          -6.29056         4.48161         2.02858
LJ           -5.4845         2.04737         2.23416
LJ         -0.948599        -3.45399         6.02742
LJ           1.43137         -1.1377         3.15451
LJ         -0.692561        -1.87591        -3.18439
LJ           4.77632        -4.73081         3.56065
LJ          -5.09489         4.35562         4.53285
LJ          -4.79003         1.93023         6.05099
LJ          -4.48788          1.3399        -1.84798
LJ           2.06699        0.521655        -2.65777
LJ           4.02468        -1.86491         5.29703
LJ           2.49243        -3.76913        -5.77059
LJ           6.35612        -1.91793        0.623826
LJ          -5.61918         1.56147         -6.1868
LJ           -1.3921        -3.97598        -4.88401
LJ          -1.11537         5.13853        -5.02284
LJ          0.723017        -4.95424         2.80432
LJ          -1.12479        -2.98791        -2.61121
LJ          0.715535         4.69821         1.48319
LJ          0.914217         -3.5218         2.66975
LJ          -0.37374        -2.67839         4.34861
LJ          -1.83781         3.61471        -2.16874
LJ          0.630741        -2.57256        -3.31089
LJ           -6.3696         5.93476         1.91654
LJ          -2.98176        0.652372         -1.3867
LJ           4.77475        -1.09569        0.201285
LJ          0.291732        -3.00595          3.4295
LJ          -1.87965        -4.70824        -6.25883
LJ           4.18855        -1.63221        -6.42203
LJ           5.07507         3.47348         5.96709
LJ          0.525958        -3.45621        -4.14155
LJ           2.70658         2.16395         4.46057
LJ           6.23922         1.15869         2.59907
LJ          -5.79597        -3.53136        -3.47746
LJ           5.22741        -2.44539         5.29915
LJ          -4.79344        -5.95617         3.13645
LJ           1.77859         3.72155         1.78111
LJ           4.45143        -1.06477         4.74063
LJ          0.605195        -5.27667        -3.56209
LJ           1.20681          2.6359         4.50929
LJ          0.689326         -5.2496         6.29629
LJ           5.61804         1.33928         1.63525
LJ            6.4182          5.8151        -1.98408
LJ          -2.26792         4.65803        0.820645
LJ          -5.23514       -0.823291         5.35878
LJ           3.28029         6.18435        -5.86586
LJ          -2.32582         1.02761        0.330221
LJ          -3.93291        -1.78245        -3.87832
LJ            1.3133        -4.00371        -6.17141
LJ           3.26688         -3.6979        0.716655
LJ          -0.46877        -5.82847        -6.05509
LJ           5.10921       -0.608156        -1.43308
LJ           3.79241         3.96363        -2.11489
LJ           5.48077         -5.7691         2.80167
LJ         -0.158474         2.93717        -1.00753
LJ           2.44458       -0.153903         -5.3984
LJ          0.386391        -5.86332        -4.65326
LJ          -5.69785        0.111809       -0.433904
LJ           2.51984        -3.99165         2.77415
LJ          0.504783        -4.94956       -0.358765
LJ          -5.98599        -1.48632        -2.62134
LJ          -2.59285        -2.32259         -6.2089
LJ          -4.84761        -1.04834        0.753672
LJ           5.95077        -4.37956         3.13959
LJ            2.0779        -4.16038         5.11041
LJ          -5.90427        -3.58989         3.85246
LJ           5.31052         1.51124        -5.15596
LJ          -4.31094         3.74358        0.114019
LJ           4.26537         -3.3668        0.504498
LJ          -4.97138        -3.02731         2.53787
LJ          -2.60268         1.59559          4.7271
LJ          -2.12969       -0.737447         4.17056
LJ          -3.02322         1.67445        -3.13778
LJ           2.48306          1.3631        -2.96867
LJ          -1.64667        0.508422       -0.556552
LJ            0.9458         3.70434         4.83276
LJ           1.89352        -1.00181        0.213028
LJ           4.58863         5.83406        -1.03656
LJ           5.93986      -0.0128123        -2.03887
LJ         -0.733961        -5.55451        -5.06771
LJ           5.95926        -3.44145        -2.52802
LJ           6.04197         2.62163        -5.80628
LJ          0.199178         1.98618         4.18023
LJ          -5.27942       -0.885862        -5.00176
LJ          -2.96785        0.506004         4.76221
LJ           -3.4574          3.8028        -2.95109
LJ         -0.316441        -4.75433        -3.94439
LJ           3.69726         6.31466         1.76458
LJ          -2.79759         3.41086          2.6928
LJ           5.70344          3.8444         5.03875
LJ           2.52406       -0.603231        -4.38796
LJ           4.12883        -6.43588        -6.38928
LJ            3.6597         4.07984         5.19208
LJ          -1.45179         1.30835         2.79163
LJ          -4.26626       -0.780742        -5.04902
LJ          -3.27626       -0.419152         1.15153
LJ           1.93901         4.96889        -6.22873
LJ           2.88323       -0.757192       -0.115975
LJ         -0.197654        -2.92798       -0.925402
LJ           2.02004        -5.89408        -5.66154
LJ           5.99351        0.187576         1.86392
LJ           3.91668        0.737068         1.22969
