108
#Comment!
LJ          -2.48135        -5.38118        -4.33271
LJ            4.7328         3.05316        -2.77677
LJ           4.13442         1.14137        -2.34627
LJ           3.38613        -2.40479        -4.95762
LJ           1.09134         5.51637         3.32187
LJ          -1.55581        0.528947         5.85752
LJ         0.0862204       -0.637539        -4.96525
LJ          -5.55622         2.77027         1.00759
LJ           2.13258         2.11253         5.93657
LJ          -5.94877         6.00016        -2.22076
LJ         -0.424772        0.561358         3.67171
LJ           2.24556         3.23518         2.79532
LJ           3.03395        -1.24816        -3.19563
LJ           0.43251        0.490848         5.14698
LJ          -2.77779        -3.70789        -4.27606
LJ           4.12072         3.16312        -1.80206
LJ           2.75865        -2.71247        -5.76956
LJ           1.70022       -0.831042        -5.10353
LJ          -1.37841        0.993484         3.49107
LJ           1.26274        -2.54291         2.74538
LJ          0.661943         1.53005         2.76862
LJ           6.17854        -1.22533         4.88808
LJ          -5.02797         3.33083        -5.05861
LJ         -0.408672        -3.66941        0.727525
LJ         -0.128991          1.6667         5.07345
LJ           2.84164         3.96584         1.79265
LJ          0.379726        -2.21802        -6.25617
LJ            1.0755        -1.41654        -1.95369
LJ          -5.28661         1.56069         3.68498
LJ             4.557       -0.866384         5.07364
LJ          -3.45562        0.526193         2.25437
LJ         -0.436922        -4.42883         5.90938
LJ             1.371          1.5677         0.22179
LJ           5.79524         3.24006         5.05246
LJ          -3.91126       -0.823039          3.6728
LJ          -2.54106         2.32919         5.31226
LJ           -6.1342        -4.33009        0.418501
LJ           5.76469         2.72275        -3.02456
LJ           4.45325         2.11582        -2.48056
LJ         -0.322752        -5.63541        -3.98061
LJ          -1.55571        -4.03193        -1.21275
LJ          0.428764        -3.95127         2.22625
LJ           -1.5862        -5.36242        -1.99392
LJ          -5.16204        -6.35401         5.91584
LJ          0.224937        -2.80247         2.32697
LJ           5.23175        0.683581         5.17879
LJ            2.4574        -1.93699        -4.92187
LJ           4.06646        -2.13957        -2.69583
LJ           -1.4803         4.73211         -2.4749
LJ           5.02731         2.38558        -1.57908
LJ          -2.47828          6.4237        -4.25239
LJ          -1.33965        -5.81554        -3.56656
LJ           4.19842          -2.478         4.30084
LJ          -2.41993        -2.55597        -5.27703
LJ          -3.17677        -3.92103         4.12009
LJ           1.61619        -3.28202         5.22076
LJ            1.6455        -1.63104          3.8544
LJ          0.690217       -0.994325        -5.75391
LJ           1.11672         4.04558         6.10608
LJ          -0.33389        -3.75157         2.96349
LJ           4.75305        -5.42169        -1.65586
LJ           4.20939           2.385        -3.51696
LJ          -4.65808        -4.59809        -2.16751
LJ           4.58733         1.52949         3.26264
LJ          -4.97674         1.66469         4.81114
LJ           5.55606        -6.03842         -5.7722
LJ            4.8652          1.7664       -0.817038
LJ            5.1463      -0.0618929         6.40747
LJ          -5.71377         5.28421       -0.853928
LJ          -2.16075         5.23429         3.67615
LJ           5.87436         1.69418      -0.0439688
LJ           -1.3201        -1.18582        -3.85974
LJ           6.20989        -3.18014        0.674594
LJ          -4.33874         5.80176        -2.05517
LJ           5.32832         4.21751        -2.94822
LJ          -2.11608        -5.89885        -5.19189
LJ          -0.94746       -0.469064        -1.10381
LJ           4.38857        -5.44393          2.6396
LJ           4.16865        -3.64658        -1.57269
LJ            1.8006        -2.28657        -2.47172
LJ           4.87515        -3.56336         5.14431
LJ        -0.0153499        -4.88591       -0.044876
LJ          -3.00798         2.30091         3.68915
LJ           1.07079       -0.755324         2.50996
LJ          -6.26212         4.49679        -1.36356
LJ          -6.23937         4.46908        -5.07169
LJ         -0.369037         4.94328        -2.16061
LJ         -0.727824        -6.37049        -2.87041
LJ           3.41429        -3.69581         4.81399
LJ           -6.1377        -3.86912          3.7388
LJ          -1.86332         3.34101        -6.42979
LJ           1.70897       0.0576248        -0.78526
LJ            3.5304        -4.26276        0.342802
LJ          -1.44224        -2.20901        -2.53001
LJ          -1.91255        -4.40323         5.49017
LJ           6.23456         1.39756        -5.71177
LJ          -5.25579         4.00074        -1.45784
LJ          -2.01878         2.17819        -5.25003
LJ          -2.55951         5.97797        -6.41668
LJ          -1.70767         4.73371       -0.172917
LJ           5.07904         6.23539         6.18604
LJ           3.78137        -1.53889         3.98223
LJ           4.84143         5.23911         4.55955
LJ           6.45185       0.0677069         5.62594
LJ            4.8719        -4.66337         4.65948
LJ          -3.31976        -5.26825       -0.716571
LJ          -4.63191        -6.05612         3.72555
LJ           5.53482          1.1336        -6.34627
