108
#Comment!
LJ         -0.570563         5.89593        -6.17877
LJ          -3.83596        -5.76532         -3.3204
LJ           -3.4718        -1.33106       -0.460939
LJ           4.04872        -2.98443        -4.51215
LJ         -0.568471         3.94009         4.84981
LJ          -4.14308        -1.67992        -6.45423
LJ          0.400989        -2.06233         5.96582
LJ          -3.74729         1.48607        0.842079
LJ         -0.450249        -5.80507         -6.1584
LJ           2.91673        -2.49019         1.52752
LJ         -0.515085        -6.04737        -2.36074
LJ         0.0350058        -1.25544         2.32891
LJ          -3.70922        -2.48048         3.30602
LJ          0.549952         3.70187        -5.27855
LJ          -5.98441         -2.9954         1.37925
LJ          -1.43945         4.96294         1.78349
LJ           1.38745       -0.194931        -1.21373
LJ          -3.82194        -0.58508        -2.76652
LJ           5.16092        0.378047          2.8108
LJ          -4.17651        -3.56978         3.65719
LJ          -2.65841         4.61442         5.88265
LJ          -5.96865         5.77325        -1.61499
LJ           1.45227         3.25242          3.5975
LJ          -4.22681        -5.00598       -0.534007
LJ          -0.40188       -0.454886       -0.747261
LJ          -2.00805        -4.07498        0.575125
LJ           3.50962        -4.61078         4.82561
LJ           4.47214         1.48069         4.51795
LJ          0.328912        -3.83432         3.85125
LJ          0.923479         2.47546        0.535534
LJ          -1.81251        0.458874        -5.84829
LJ          0.247964        -6.45291        -5.19313
LJ          0.861941         5.27577        -6.34201
LJ           1.72809        -3.66781          6.1669
LJ          -4.02062         6.25542         -5.9305
LJ            5.1124          4.9147         5.05713
LJ           5.34644        -3.12582        -3.22796
LJ            -0.716        -1.01908         1.08291
LJ          -3.94555        -5.58182        -1.43667
LJ         -0.416316        -4.53353        -5.30371
LJ           4.66815         2.26612         3.79833
LJ         -0.726903         4.99747          3.2071
LJ          -5.95843          4.9947          -3.099
LJ           1.21425          -2.236         2.33164
LJ          -2.86125         5.00495        -4.61851
LJ          -1.17686         2.94441        -3.95249
LJ           5.87182        0.573919         3.57912
LJ           6.35534        -1.54385         5.74657
LJ        -0.0420078        -2.36833        -2.04091
LJ          -4.17132       -0.619184         2.40274
LJ          -6.39948        -5.67998        -4.82858
LJ         -0.458955         3.92527         3.52193
LJ          -2.54856         2.22078        -4.28287
LJ         -0.709118        -5.95155        -3.76059
LJ          0.646173        -3.02939          5.0102
LJ           -4.2784        -3.17272      -0.0762974
LJ          -5.48166         4.86795        -4.45625
LJ          -2.54949        -1.88179        -4.62845
LJ           3.35051        0.425827          1.8849
LJ          -5.10574         -4.8667         2.91831
LJ           5.85151        -5.36191         2.00588
LJ           2.31052         4.32814         1.48312
LJ           5.76834        0.987125        -3.60593
LJ         -0.783548         1.20187        -1.72161
LJ          0.392993        0.432219        -1.40677
LJ           4.54734         5.61419         6.42824
LJ          -5.42193         3.07385        -5.60206
LJ           3.13294        -4.40963        -4.39269
LJ           1.42535        -3.64464         4.06678
LJ           2.77933        -5.79562         5.66991
LJ           1.03409       -0.925364        0.671984
LJ          -5.49321        -2.56193        -1.14446
LJ          -1.73024         5.32866        0.815907
LJ           3.63431        -6.08297       -0.942365
LJ          -2.96862        -1.79876        -6.07004
LJ           1.07978         6.34371        -3.57799
LJ          -3.32721         6.17235        -1.42682
LJ          -6.30619       -0.951703         -3.2763
LJ          -5.58162         4.78537        -1.26634
LJ           5.30402        -2.24717          5.8787
LJ          -2.97693        -4.45585        -2.61836
LJ           3.27268         1.27841         5.72267
LJ          -5.83373        -6.02552       -0.633093
LJ          -4.13317        -4.05518        -3.20158
LJ           5.99571          4.9422         6.42315
LJ           4.34416          6.1059        -4.16797
LJ           5.81954         2.18379         2.69678
LJ           2.93602        0.833883        -1.02064
LJ           3.93437         -2.7665       -0.610697
LJ        -0.0720487        -1.71552         4.59013
LJ          -3.67633          1.9628       -0.604737
LJ          -1.58924         6.42882         6.27556
LJ         -0.187909        -2.37821         1.76189
LJ           2.04084        -4.83256         4.19127
LJ          -0.61988        0.757466          5.1749
LJ           1.25639        -1.73984        -2.87964
LJ           1.46365        -5.66296         1.85314
LJ         -0.313279         2.84011        -3.40901
LJ           4.07619         2.13404        -6.44858
LJ           -2.8701         3.28587         2.68828
LJ          -4.23712        -2.22073        -1.72338
LJ         -0.968017        -0.20498        -6.11778
LJ           5.72775        -3.94627        -1.62499
LJ           2.83904         1.86619       0.0857394
LJ           5.34614        -6.22945        -1.91738
LJ           2.22367         6.19905        0.296029
LJ          -4.39286        -4.56514         1.25333
LJ         0.0443051       -0.953313        -6.32948
