108
#Comment!
LJ         -0.347919        0.167761         1.76421
LJ         -0.442098         4.61234        -1.33467
LJ          -4.17934         5.97243        -6.40646
LJ          -3.47485         3.32212         6.19317
LJ          -4.18653         4.83084         4.54983
LJ          -1.21853        -2.25149         5.92511
LJ           5.93734         -5.4679         6.00894
LJ           1.27673        -0.51439        -5.77978
LJ          -2.55159         4.42176        -5.14931
LJ           6.02889        -0.18734          6.3553
LJ           2.37659        -1.49387         4.08947
LJ          0.502339       -0.637046        -1.56851
LJ          -3.91843       -0.476343        -2.86606
LJ          -2.86316         5.43506        -5.64147
LJ           5.74726         1.21727        -3.31017
LJ           6.23713         3.00479           -2.93
LJ           3.21258        -3.62447         3.27783
LJ          -5.52486        -4.38069        0.684563
LJ          -2.58884        -3.51996         1.12618
LJ          0.719586        -2.98593        -1.60282
LJ          -4.48459        -1.12214         3.72712
LJ          -3.45841         3.51983        0.434612
LJ          -2.43438         2.59305        -4.31139
LJ          -3.64299         4.75311        -6.41172
LJ           -1.4454        -2.31966         2.50122
LJ           4.70797        -2.28375         4.63273
LJ          -3.38481        0.666259          5.6311
LJ            2.4646        -2.01132         5.09075
LJ           4.58173        -2.24255        -3.12876
LJ           3.97463         3.97196         2.53317
LJ          -6.18917         3.17644         6.13591
LJ          -6.30927        0.243795        -4.85481
LJ           2.13647        0.846697         1.60949
LJ          0.677796         2.87031        -3.94223
LJ          0.450585        0.422299         2.39376
LJ           -5.7203        -5.39738       -0.328371
LJ         -0.268535         2.76951        -2.69998
LJ           4.80673        -5.09012         4.79705
LJ          -5.68559        -2.01313         2.63401
LJ          -2.39162       -0.360201        -3.92529
LJ           4.77643       -0.991415        0.085212
LJ          -2.51026         1.67361       -0.428072
LJ          -3.34999        -2.23097         5.36976
LJ           5.42932         1.59852         5.53086
LJ            1.8648        0.415752        -5.02318
LJ           4.15455        -5.79142         3.76145
LJ          -5.77609        -3.14368        -4.77498
LJ           5.69791        -1.12364        -1.20889
LJ          -1.89887         5.81399        -1.18735
LJ           6.25488        -5.87964        -5.75096
LJ          -5.61331        -1.39374        -1.08169
LJ         -0.714807         3.45948         2.42116
LJ          -2.37449        -1.16451        -4.76912
LJ           6.01309         2.90334        -4.18206
LJ          -6.38593         3.59577         3.78808
LJ          -6.09508         5.50667         5.36391
LJ           5.96848        -4.25659         4.29934
LJ          -1.82127        -5.15899        -3.04487
LJ          -1.18905       -0.960496       -0.903285
LJ         -0.476458         1.78416        -3.40995
LJ          -1.48184         4.75983        -4.52335
LJ          -3.02656         5.72201        0.858521
LJ           3.55156        -3.42423         5.82298
LJ          -4.38528         4.38927        0.954796
LJ           2.27119         3.19655        -1.80523
LJ          0.144829        -6.13803        -5.86578
LJ          -2.92053          3.6537       -0.371877
LJ          -2.57351        -1.96549        -2.49029
LJ           5.18899        0.287747        -5.05844
LJ          -6.25643         2.91195         5.04798
LJ           1.57468      -0.0901402         4.81638
LJ          -5.67078         4.32174         6.24489
LJ           4.80439         5.64591        -6.38742
LJ          -5.57801         6.25457       -0.449679
LJ          -4.70695        -5.96866        -1.16505
LJ           4.80182         4.31559         3.33884
LJ           5.95084         -3.1515        -1.74184
LJ         -0.387795         4.46022         2.97524
LJ           5.34716         2.18288        -3.61719
LJ          -3.71358        0.910248         2.58133
LJ          -2.71288        -3.14957        -3.64319
LJ           5.04103        0.845787       -0.475753
LJ         -0.265983        -5.74083         1.76046
LJ          -3.74778         4.05749         5.63867
LJ         -0.950859         5.09588        -5.97508
LJ           2.33096         4.73587         3.59143
LJ           4.60479         3.85697       -0.632524
LJ          -5.70823        -3.04784        0.655103
LJ          -1.22627        -1.04689        -4.69096
LJ           -1.8828         6.01669         5.05062
LJ           3.18031       0.0484996       -0.821515
LJ          -1.52642        0.923014           -4.64
LJ          -4.62349        -3.19601          -5.576
LJ           3.50243       -0.895541        -3.86172
LJ          -4.49693        -6.00495        -6.04266
LJ            4.5467         -4.7197         2.68298
LJ           2.57464         4.53127         5.61406
LJ          -4.70721        -6.15297         1.34159
LJ          -3.25974         5.21578       -0.748392
LJ           5.82283        -5.35718         3.85795
LJ          -4.15154          5.8461        0.341648
LJ          -5.87442        -4.07831         2.22765
LJ           -1.6097         1.16171        0.517149
LJ          -5.85677          3.6914        -5.86234
LJ          -2.76306         2.85145       -0.974813
LJ            5.5848        -5.45488        -4.25012
LJ           2.67527       -0.245553         1.16214
LJ          -3.75857        -4.83944        -2.63362
