108
#Comment!
LJ            2.6192         5.36534       -0.921396
LJ          -5.10128         -1.1811         -4.5089
LJ          -4.97082         5.53173         4.69551
LJ           2.39818         4.46883        -5.48972
LJ          -2.48915         3.82059         4.50442
LJ          -5.12659       -0.924169         6.10951
LJ          0.190113        -3.86896         4.46534
LJ          -1.24961          2.5912        -6.20999
LJ          -0.15111         4.08278         5.96833
LJ           5.93686        -2.50208        -5.31422
LJ          -1.11467         2.39637       -0.262238
LJ           -1.9554         6.12416        -3.91974
LJ          -6.33001         4.98069       -0.533434
LJ           5.17803         4.55454        -3.68668
LJ          -1.38423        -2.94743          4.0095
LJ           3.95219          2.3906        -3.54087
LJ          -3.55411        -3.33175        -4.62797
LJ          -3.42532        -5.11703        0.900483
LJ          -1.40273         2.92282          3.2194
LJ          -4.63609        -3.16478        -3.33605
LJ         -0.492855         3.91703         3.32293
LJ           4.74339         3.11017     -0.00684572
LJ          0.993501        0.769419        -1.22771
LJ           3.60517        -4.97435          6.1155
LJ          -1.79475         4.66865         4.59053
LJ           1.93691         -1.2293       -0.717813
LJ           5.49551        -1.05221        -3.04809
LJ          -2.18325         2.75473          4.0176
LJ           1.81563        -5.00656         5.63968
LJ          -4.32106        0.639413         5.42914
LJ           -2.2882        -3.58401        -5.63821
LJ           3.58551        -3.97085         -2.9677
LJ            1.0418         4.33651        -2.54373
LJ          -1.03437         5.16295         5.82046
LJ           3.57462         5.90457         6.25778
LJ          -5.08158        0.571276          4.7716
LJ         0.0369775         3.97269         4.38124
LJ          -3.30012        0.606027          2.0122
LJ          -4.95811        -5.69057        -5.91938
LJ          -1.66405         5.83807        -5.75342
LJ           2.85762        -1.88073          2.0091
LJ          -2.02735        0.274382         2.28967
LJ          -4.52162         5.86321        -4.47966
LJ           2.33396       -0.812738         4.05627
LJ          -1.26228         2.69427         5.63137
LJ          -2.87627         2.12773         3.17251
LJ         -0.963021        -5.26533        -2.07691
LJ           5.61364        -2.02292         3.97675
LJ           4.64975        -5.68715         2.68279
LJ          -5.06483        -3.28182         3.71838
LJ           2.66761        -4.46589        -5.26862
LJ          -3.64462         4.91251         4.18006
LJ        -0.0250211        0.444745        -3.08452
LJ         -0.960172         2.65631         1.71164
LJ            1.9309         2.54787         3.06333
LJ          -5.92931         3.29577       -0.268191
LJ          -5.68506         -6.3766        0.791518
LJ         -0.551979        -1.36327        -4.98042
LJ           1.36725        0.988706         1.34966
LJ        -0.0270016        -4.72708         5.85284
LJ          -4.82078          1.0114       -0.681588
LJ          0.666274        -4.26057        -3.10713
LJ          -5.53094         5.56383        -2.63765
LJ        -0.0600855         3.28674        -1.77657
LJ           2.12721         5.96784        -1.97376
LJ          -6.07681        0.429105        -6.45072
LJ          -5.08632         6.20584         5.55175
LJ           4.33846        -3.51582         -1.8025
LJ           1.15219         5.89446         5.62223
LJ           2.52237       0.0780026         5.84115
LJ          -2.47909        -2.19665        -4.51821
LJ          -5.56236         1.03799        -3.35468
LJ          -4.99953        -5.82108        -2.49989
LJ           1.91491        -5.65233        -1.97278
LJ          -4.52536        -5.26283         3.88599
LJ          -4.79356        -2.75224       -0.161933
LJ          -5.50384        -4.01519        -3.23842
LJ           3.82519        -6.20787       -0.954334
LJ           3.09872         6.39687        -1.90169
LJ           4.44226       -0.255654         4.52919
LJ          -3.98676         6.36874        -5.19155
LJ           4.37685       0.0540517         3.32036
LJ          -1.93045        -3.53402         1.05493
LJ           2.72543        -2.01896       0.0486035
LJ          -5.10805         4.90273        -4.79541
LJ           5.95192         -6.2013         -1.2477
LJ          -5.93582        0.384287        0.711538
LJ          -6.32779        -3.13213         1.64871
LJ         -0.367997        -2.34725        -2.81134
LJ           -1.1934        -4.24506         -6.4249
LJ          -5.92717         1.22632        -2.03043
LJ         -0.898808         4.80678        -5.52313
LJ          -3.01702       -0.381886        -0.60137
LJ           5.10219         1.80095        -6.44829
LJ           4.76761       -0.571787        -6.01974
LJ          -1.40941         5.50441          1.9165
LJ           1.73666         1.01098        0.266187
LJ           6.24751         3.94054        -1.23084
LJ           3.80872         1.48222       -0.690747
LJ          -3.55708         2.06124         0.99974
LJ          -5.87103         2.98493        -1.40355
LJ         -0.916611        -5.84795         6.05756
LJ           5.84783         1.77486        -1.04102
LJ           5.50455        -3.87235        -1.56098
LJ           4.87133         2.42063       -0.881576
LJ          -1.50958        -1.00007       -0.794879
LJ          -1.82773        -4.52811         1.50819
LJ           1.04913        0.483887        -4.08126
