108
#Comment!
LJ           -2.8185        0.181024         1.81429
LJ          -4.14104        -2.66137         1.50988
LJ          -5.11149         5.74881         2.47286
LJ          -3.48025         1.28519        -4.88889
LJ          -1.96949          4.2452          2.0008
LJ           3.13148        -2.53146        -6.41492
LJ           1.33565         -1.7603         2.65244
LJ           2.19227         1.20416        -5.02139
LJ          0.720256         5.84979        -4.79422
LJ          -5.65066          3.2266        -6.27935
LJ           4.64436        -3.46079        -4.95697
LJ           2.32251        -2.65053       -0.541182
LJ          -2.93182        0.151633         6.33967
LJ           1.71373        -2.18996         4.92501
LJ          -2.62459           4.061       -0.748388
LJ          0.859731        -5.72818         -5.1478
LJ          0.935158        -2.38733       -0.121611
LJ           -5.8312        -5.12507         5.43444
LJ          -4.76522         3.20072          2.9128
LJ           3.74715        -6.36936        -2.38616
LJ           6.00359         3.08948         4.44104
LJ          -2.53313        0.722356         3.13798
LJ          -3.54084         5.38597        -5.46668
LJ           -0.1044         -3.6664        -5.12995
LJ          -1.78032        -3.25205        0.466911
LJ           5.82268        -3.30876         3.66135
LJ         -0.537571       -0.321412         2.51421
LJ           5.02394        -5.58123        -2.14513
LJ           5.04525         2.79102        -5.14782
LJ           4.72913         -5.7032         3.84851
LJ           4.17391          2.6368        -6.39536
LJ           4.74801         1.75002        -6.09993
LJ           2.93877        -2.29193         3.03948
LJ           4.77302         4.29047         3.47814
LJ           1.48861        -2.99443         2.35482
LJ           4.40775         4.17467        -5.68061
LJ          -1.14935        -2.45807       -0.656903
LJ          -3.77586       -0.685168         4.38833
LJ           5.54813        -1.01488        0.874123
LJ          -1.68206        -1.51738        -2.16624
LJ           3.42361         1.31447         1.43297
LJ         -0.301018         1.75398          4.9382
LJ          -1.47952      -0.0371083         1.68426
LJ          -5.53373         4.50543        -5.39878
LJ             2.461       -0.337347       -0.589419
LJ            4.2287       -0.665861         1.45335
LJ          -6.08504     -0.00278855        -3.56668
LJ            5.8303        -3.77115         1.09739
LJ          -5.43719         5.07809        -4.28182
LJ           3.23883         4.72366         5.18377
LJ           3.27524         2.34175         -3.3127
LJ         -0.237429        0.887165         1.66899
LJ          -3.64991       -0.929251        -5.90133
LJ          -5.63202         2.48292        -3.53556
LJ           3.80018        -4.50076         4.24441
LJ          -4.08732        -2.19903        -6.28908
LJ           4.28199        -2.05722         3.50909
LJ          -1.68272         4.45082         6.36061
LJ          -2.61209       -0.987098        -1.64993
LJ            2.3928        -3.08414        -2.18994
LJ         -0.224026        -5.88396        -2.56421
LJ         -0.800356        -4.51473         2.27286
LJ          -1.11932        -4.00586        -2.17195
LJ          -5.08067         3.52419        -3.94072
LJ          -3.74216         3.24118        0.167737
LJ           1.32596         3.52761        -5.67494
LJ          -2.07817        -6.44293         2.61646
LJ         -0.463761        -4.92697        -5.18617
LJ          -1.66165       -0.935261        -4.02586
LJ          0.902834         -5.6081         3.37423
LJ          -4.74955       -0.910464         3.49711
LJ           5.77767          3.1359         5.43971
LJ           2.58326         0.13391         5.21575
LJ           5.74864        -6.37417        -3.35235
LJ          -3.01373         5.04436        -2.94366
LJ           6.43395        -1.42486         3.03413
LJ          -3.90353        -5.25235        -4.22366
LJ          -1.66634         5.06704         3.98874
LJ          -2.13511         2.85698         -1.3883
LJ          -1.58566       -0.225053         3.71971
LJ          -2.08276         5.93552        -2.36249
LJ           4.29096        0.483795          2.2008
LJ           2.99469        -6.11508         3.40753
LJ         -0.548622         4.61111         4.10847
LJ           3.83293         3.33968        -5.34437
LJ            1.8737        -5.04062        -5.97245
LJ           2.32623         4.05833       -0.612473
LJ           3.52072         5.14643        -2.24475
LJ          -4.26266        0.466822        -5.92238
LJ           0.36537        -6.00022         5.55641
LJ        -0.0957119         -0.5657        -4.37743
LJ            3.5498        -2.52146       -0.100287
LJ           5.59478         1.19361         5.44316
LJ         -0.305779        0.034148        -1.54388
LJ           -4.4249        -6.12089        -6.05563
LJ           3.16423         5.04622       -0.555919
LJ           3.19471         6.20737        -3.18995
LJ          -3.58128         4.44528        -1.98485
LJ           4.81694         5.86291        -1.93672
LJ           4.11155       -0.606405         3.65457
LJ          -2.55338        -5.65677         3.71322
LJ            1.8142        0.705934         2.71051
LJ          -2.68147        -1.81403         4.40066
LJ          -5.08946        -2.64951        -1.76409
LJ            -3.372         1.23085         2.29174
LJ           3.21321       -0.919341        0.114778
LJ          -5.94178         5.35971         1.63583
LJ          -2.95456         2.09035        -2.37654
