108
#Comment!
LJ        0.00862758        -5.59796         5.19062
LJ          -1.71487         6.04369        -5.21657
LJ            -3.646       -0.262524        -1.68858
LJ          -3.81446         5.43447        -3.63804
LJ             3.919         3.86634        -3.33166
LJ          -3.32168       -0.681592         6.24696
LJ           6.23611         4.04192         1.62439
LJ          -5.14656        0.457826          2.6965
LJ         -0.857718        -4.54846        -6.24055
LJ           1.40696        -1.35822         4.89941
LJ          -1.01146        -1.91636        -2.89641
LJ           4.00151        -5.50195         4.19017
LJ          -4.79913         5.05263         4.04526
LJ           -5.7547          3.4343         5.84679
LJ          -5.14629         1.99357        -3.12573
LJ           2.24836        0.227095        -1.66052
LJ            3.8065        -2.07451         4.43678
LJ           2.84918        -4.57775        -4.47643
LJ          -6.06344        -2.29186        0.440672
LJ          -3.40534        0.792223        -5.54527
LJ          -1.13477        -3.79717        -4.33319
LJ          0.280344         5.85354        -5.59169
LJ           1.04984         -5.8078         1.93101
LJ          -1.81996         -1.0241        -1.94963
LJ           1.26557         4.41738       -0.184867
LJ           1.65484        -2.93348         3.76303
LJ         -0.140174        -2.39213          4.8328
LJ          -1.92682         4.14266        -2.81694
LJ        -0.0956077        -2.35427        -2.55796
LJ           6.43224        -4.53909        0.291546
LJ          -2.59402       -0.193796        -1.34241
LJ           5.16691       -0.637381         1.21051
LJ         0.0871171          -2.622         3.27133
LJ          -3.24942        -4.17625         6.05036
LJ           4.49081        -2.25518        -4.99458
LJ           5.23711         3.83266         5.60266
LJ          0.164467        -2.89775        -3.58232
LJ           2.98627         2.21838         4.70466
LJ            5.7998         0.84492         2.05026
LJ           6.29157        -3.36064        -2.80769
LJ           5.90042        -1.32722         5.41076
LJ           6.40626          -5.354         3.38505
LJ           2.74986         4.12341        0.839985
LJ            4.9529        -1.09107         4.81235
LJ           1.32482        -5.96606        -3.88577
LJ           1.89867         2.86201         4.48254
LJ         -0.691638        -5.32747         5.95174
LJ            4.5788         1.62653         0.96025
LJ            6.0497         5.55243        -1.21565
LJ          -1.96443         5.92137         1.19012
LJ          -5.30985        -2.11761         5.49622
LJ           2.53138          5.3975        -4.88318
LJ          -3.54826         1.46564        0.658757
LJ          -4.41976        -1.38077         -3.7781
LJ           1.02188        -5.11898        -6.02223
LJ           4.52229        -2.86557         1.64377
LJ         -0.853894         6.28169        -5.91614
LJ           4.62235       -0.508006        -2.56379
LJ           3.36777         3.08221        -1.92408
LJ           5.59003         6.29009         2.53413
LJ          0.519168         1.52381        -1.31459
LJ           2.63315        -1.40001        -4.66694
LJ          0.143023        -6.13837        -5.22964
LJ          -5.29573         1.88357       -0.338668
LJ           2.15298        -2.96228         2.71893
LJ         0.0768765        -5.82325        -1.33337
LJ          -4.96208        -2.41416        -3.40083
LJ          -3.00209          -1.547         5.45464
LJ          -4.81572        -1.65689        0.905958
LJ           4.68511        -5.37597         2.96258
LJ           2.24618        -5.30893         4.62159
LJ          -5.81176         -3.6997         4.35527
LJ          -6.04667         1.36016        -6.14212
LJ          -3.99677         3.32207        0.610719
LJ           5.46135        -2.21955        0.557451
LJ          -5.13893        -1.80134         1.88641
LJ            -2.627         3.05265         5.23033
LJ          -2.63877        0.275236         3.90483
LJ          -3.21677         1.13563        -3.81305
LJ           2.59607         2.48488        -3.42845
LJ          -1.78351        0.523097        -2.15408
LJ         -0.460656          3.1372         4.55676
LJ           2.19508        -2.36745         1.14921
LJ           4.32728         4.99272       -0.654782
LJ           4.95248        0.810685       -0.853904
LJ         -0.925495        -4.86253        -4.56991
LJ           5.40051        -1.26922        -2.49085
LJ           6.16853         3.10941         -5.7689
LJ         -0.439394         1.73502         4.22185
LJ          -5.62636        -0.19909        -4.48495
LJ          -1.05778      -0.0297452         5.03102
LJ          -3.24698         3.25961        -3.95685
LJ        -0.0390258        -5.74992        -3.69771
LJ           5.10161         6.21004         1.53514
LJ          -1.14848         4.63686         3.13548
LJ            6.1057          3.9342         4.79152
LJ           2.86266       -0.878585        -3.19232
LJ           3.72904        -5.65063         5.95212
LJ           3.33599          4.0844         6.19993
LJ         -0.774838         1.70603         2.32484
LJ          -3.79934       -0.160685        -5.72931
LJ          -2.48142       -0.357507         2.29145
LJ          0.893797         4.87176         4.74373
LJ           2.65073        -1.20122       -0.816047
LJ         -0.181737        -2.81574       -0.520795
LJ           1.85799         5.37382         -6.0622
LJ           6.16471       -0.609929          1.5611
LJ           2.95703        0.216029        0.785926
