108
#Comment!
LJ           5.82817        -3.85422        -2.90743
LJ         -0.944962         2.88337         -2.9621
LJ          0.703524        -4.98781        -5.13123
LJ          -3.72634        -1.21705        -4.38871
LJ           2.00648         1.63239         2.09082
LJ          -4.51882         5.86974         5.82188
LJ         -0.773103        -2.92931         5.05741
LJ          -2.07022         5.80236        -5.77652
LJ           2.97879         5.14013        -3.85988
LJ           3.44088        -1.97906         3.97971
LJ           5.45625         1.92761        0.268919
LJ          -6.10332       -0.639445         1.11567
LJ           5.09543        -4.69637         2.01163
LJ          -5.67235        -4.58214        -0.50743
LJ          -2.28313         3.72624          -4.747
LJ          -4.49432         1.80844         2.41886
LJ          -4.07124         -2.2653         1.61434
LJ           4.56556         -5.0126        0.977791
LJ          -5.32115        -3.77345         4.08441
LJ           0.59047      -0.0536052         1.94717
LJ           1.28457         4.81835           2.331
LJ           2.90867        -2.95873         1.20877
LJ         -0.484322         1.95258         2.17679
LJ           4.31444       -0.712365        -3.73588
LJ          -4.01646         3.95428         -4.9589
LJ           4.25341         5.81632        -1.04017
LJ         -0.766143         4.59439         6.01324
LJ             4.704        -5.65673       -0.325893
LJ           3.62408       -0.815342         5.80398
LJ           -4.4858         5.56172        -5.99337
LJ           3.36056        -2.49255         0.29547
LJ          -4.96788        -2.90412        0.494274
LJ           2.93298         3.02373         3.92882
LJ         -0.841263        -4.05032         2.11925
LJ           3.79789        -1.89805         1.30719
LJ           1.68987        -6.02933        0.868458
LJ          -4.94349        0.934809         4.10908
LJ         0.0523186          5.5494        -6.15665
LJ          -1.14107        -4.23011        -3.04089
LJ           -4.4574         5.10481        -2.95695
LJ             -1.62         2.07176        -5.72303
LJ          -1.02626        -2.94949        -2.94471
LJ          0.881368        -4.53608         2.76707
LJ           4.50252         2.91222        -3.22966
LJ          -1.38533         1.10193        -5.73241
LJ           -5.3043        -1.77372        -2.04959
LJ           1.47834         4.11778       -0.741333
LJ           3.17698         6.19109        -3.82644
LJ         -0.495376       -0.498906        -2.21634
LJ        0.00692201         4.74037       -0.866162
LJ          0.302021         5.40208       0.0497078
LJ          -4.90803         4.13032        -2.10695
LJ           3.15119        -2.29934         2.24177
LJ          -2.69029        -4.34571        0.053359
LJ          -2.79268          -3.907         6.07739
LJ          -4.15318        -1.48944         5.38412
LJ         -0.197579       -0.329704         6.27691
LJ            -1.526        -2.06572         4.27871
LJ          -4.37456         6.42221        -3.85505
LJ           3.17156        -1.25101        -3.82154
LJ          -1.06449         6.23402        -1.34735
LJ           1.76565         6.43115        -2.30376
LJ         -0.594512        -1.61558         5.63796
LJ          -5.46374         3.38868         -3.7314
LJ           4.71421        -2.90653         4.94814
LJ            1.0348        -0.84836         6.35981
LJ            4.8706         2.69612       -0.598826
LJ          -1.68059        -5.12545       -0.647562
LJ           4.16951         -3.9939        -3.70524
LJ          -1.58302         1.63894       -0.759653
LJ          -1.07835       0.0919343         3.10666
LJ           3.77723         2.54373       -0.712267
LJ          -5.63121         1.59493         4.78484
LJ           5.00906      -0.0727807        -1.28056
LJ         -0.633575        -3.57292        -3.65552
LJ             1.049         -5.1679         4.47692
LJ          -2.63839          -3.716         4.80697
LJ           2.08581         4.07914        -6.11125
LJ           4.62467         3.22863        -1.70577
LJ           2.14087         4.91673         5.52206
LJ          -3.86792       -0.804643          3.0568
LJ           3.89025         2.14373         2.34391
LJ          -5.07654        0.794962         3.03942
LJ           1.72925       -0.926558         5.32806
LJ          -4.72696        -3.65167         3.06874
LJ          -1.70709       -0.331879        -1.03284
LJ          0.970693        -4.98561         -4.0723
LJ          0.120243         3.20248        -5.01847
LJ           -4.0827         1.61608         5.31882
LJ           6.10696        -5.30312         3.69578
LJ          0.729134         4.94964         5.70973
LJ           2.83152         3.25442       -0.439541
LJ           4.13234         1.30942        -5.35922
LJ           -5.8745         6.19377         4.47975
LJ          0.496587        -6.26967        0.587136
LJ          -5.76106        -5.47257        -1.68433
LJ        -0.0296284         5.55221         4.91195
LJ           1.88223         4.82703         3.98646
LJ          -3.62158         5.84156        0.791134
LJ           1.12251         1.28488        -5.94825
LJ          -3.79084           0.542         4.46772
LJ           1.35373         4.00302         1.62687
LJ          -5.97952        -5.97217         2.42727
LJ          0.562172        -3.13008        -1.00052
LJ          -4.43155         3.56104        -4.01423
LJ           5.78541         3.30429         6.11504
LJ          -1.73139        -3.82265        -1.32653
LJ           1.00196        -3.22426        -5.39779
