108
#Comment!
LJ          -6.23834         3.32533        -3.16811
LJ           1.78225          3.4086        -2.12577
LJ            1.4138          5.5941        -3.23877
LJ          -5.29414         5.77725         2.27572
LJ           4.71762        0.777792         5.17226
LJ           6.45732          1.8331        -6.31541
LJ          0.347369        -3.87438         6.31759
LJ          -1.91591         5.42412        -1.07032
LJ           2.86754         4.02634         5.90755
LJ           6.28185         -3.3571         1.51495
LJ          -4.43065          3.1268         3.48651
LJ           3.79096       -0.882383       0.0729662
LJ            2.5283        -3.48578      -0.0359249
LJ           4.98747        -1.31918        -4.42979
LJ          0.357314         1.84518        -4.88235
LJ           -2.2042          4.1481        -3.79426
LJ           -3.4029         1.92805       -0.621823
LJ           5.00698        -3.89398        -1.39706
LJ           2.93586        -6.34377        -5.41249
LJ          0.283046        -2.45008          4.7274
LJ           -6.3194         2.71325         2.05743
LJ         -0.549205        0.227347         3.63836
LJ           2.90865        -3.84221         3.08084
LJ           1.47059        -3.15194        -5.01815
LJ           1.61314        -4.20909          3.9727
LJ          -4.37285        0.261196        -3.58171
LJ           -2.9816        -3.01884         5.00914
LJ           2.08881        -4.54841        0.998073
LJ           4.02899          -2.277        -4.93506
LJ           6.06167         1.19757         5.34686
LJ          -6.28297        0.734215         1.69726
LJ           3.68175        -3.95419        -5.98401
LJ          0.807323         4.59548         4.46329
LJ          0.198113           2.678         1.89522
LJ          -5.57831        0.209611         2.47757
LJ             6.281         3.67632         2.11961
LJ          -5.79645         4.36373         5.10223
LJ           1.44954         5.82943        -4.41867
LJ          0.864982         5.08787        -2.27915
LJ          -1.76082         6.38342        -3.53491
LJ          0.535437         6.14828        -4.64391
LJ           1.28447        -6.03287        -2.51455
LJ          -2.03312         -5.8508         4.97152
LJ           1.46018         1.97486        -4.54248
LJ           -1.5998        -2.35222         4.32214
LJ          -3.62898      -0.0351671        -2.96033
LJ         -0.378925         1.82216        -0.24026
LJ           1.93272         5.32474        -1.62741
LJ           4.27497         1.49681        -3.98275
LJ           0.75907         6.39167        -3.38231
LJ         -0.914337         5.82091        -2.58014
LJ          -1.84272         5.75982        -4.74373
LJ           4.10279          3.5084         3.19434
LJ          -3.82156        -3.92585         2.82745
LJ          -1.42899        -6.10953         5.98009
LJ           6.00013        -2.87126          5.3257
LJ          -1.41551        -2.33063         5.43585
LJ          0.283936        0.480349         1.07503
LJ          -3.67824         6.25656        -4.68504
LJ          0.962954         -2.0956        -4.94374
LJ           2.79323        0.682123         1.96882
LJ           1.98091        -5.96109        -3.62879
LJ          -2.44301       -0.145557        -5.64844
LJ          -3.47732        -5.67641         6.28682
LJ           4.73896       -0.127229        -1.39108
LJ          -1.66501       -0.724161         5.73207
LJ          -1.77794        -3.87332         -1.6482
LJ          -3.63092        -2.82269          3.2617
LJ           2.99795        -1.89287        -1.03906
LJ            2.7803         1.66988       -0.423698
LJ            5.5801       -0.256359        -6.26493
LJ          -4.17847          6.2829        -2.54168
LJ          -5.92582       -0.369906         4.18727
LJ          -6.10019        -3.17517         -1.6709
LJ           2.65608         5.79407        -3.88699
LJ          -1.88468        -4.88358         5.77967
LJ          -1.77698         6.14961        -5.74516
LJ            2.6455        -4.63502          4.5336
LJ           2.64327         5.57088       -0.782272
LJ            1.4574       -0.240921         1.43481
LJ          -2.07857        0.447603         1.45473
LJ           1.21046        -4.71022        0.273585
LJ            5.8775       -0.465961        -1.30025
LJ            6.3139       -0.264768         5.19088
LJ           3.47853         6.23202        -4.52804
LJ          -2.98954        0.725989        -5.67963
LJ           1.21733       -0.862175        -3.51563
LJ          -2.06035         5.33967        -3.67925
LJ           6.30369         3.38701         4.96403
LJ          -6.19335        -5.14651        -2.82117
LJ          -1.01005         -4.0453         5.94592
LJ           -4.5753         4.56056         2.53405
LJ           4.11571         5.69501         5.82171
LJ          -4.07701        -4.80677        0.917638
LJ          -1.13153         3.95421        0.599636
LJ           3.40167         -4.5586     -0.00101068
LJ           2.65576         5.59135        -6.28209
LJ           2.23977        -0.95473       -0.412672
LJ         -0.455836         1.86001         1.87948
LJ          0.412404         3.83968        -6.04118
LJ           -5.1779         5.45327         4.84602
LJ           5.30365         3.56613         4.00513
LJ           4.22744        -6.41675       -0.751752
LJ          -5.65424        -1.62763          5.1911
LJ          -3.49852         6.08295         6.31296
LJ          0.091623       0.0823358        -3.50112
LJ           1.33962         1.56582        0.886156
LJ          -6.24927        0.335887        -1.73475
