108
#Comment!
LJ          0.447101        -5.96211          4.4217
LJ          -4.19837         6.25862        -2.37756
LJ          -3.36159        0.848011         -3.6456
LJ           5.37548        -2.45539        -3.90025
LJ           2.11844         4.92535         4.71773
LJ          -3.54232        -1.13694        -6.09789
LJ          -2.18249        -4.71544         3.95703
LJ          -4.96146         1.50217        -5.62796
LJ         -0.575932         -4.8146          5.0511
LJ           1.84152        -2.39212         6.24863
LJ        -0.0476937        -4.36705        -4.37844
LJ           -1.5067        -2.58606         2.86918
LJ          -5.86158       0.0510328         6.32922
LJ          -1.83143         5.99764          6.2335
LJ          -4.22954        -4.77061        -0.45304
LJ          -2.01074        -5.20913         5.94928
LJ           2.12573        -2.12261         2.59376
LJ             -6.05       -0.855471        -6.12219
LJ           -2.4736       -0.342473        0.628177
LJ          0.214426        -5.55048         0.21326
LJ          -3.12444         6.40266        -6.09764
LJ          -3.77923         5.31918        -2.96788
LJ           1.19146         5.39155         5.72317
LJ           5.73203        -5.28967        -1.32393
LJ        -0.0945862         3.40732        -3.75112
LJ          -2.87991         -5.4368       -0.843778
LJ          0.406001        -5.02656         4.07613
LJ          -2.86973         1.37153         1.52428
LJ          0.178572        -4.09682         6.29811
LJ           3.30645         4.54432        -2.60838
LJ          -2.56881        0.571917        -2.61327
LJ           3.20113         1.96336        -4.02206
LJ          0.122237         1.61526         4.45051
LJ          0.765874        -3.02762         6.05764
LJ          0.896988          3.7887        -5.34156
LJ           4.13159         4.84225         5.31995
LJ          0.147726        -5.22153        -1.12835
LJ          0.414613         1.17601         2.91688
LJ          -4.00582         5.32686        0.676971
LJ          -2.46146         -4.1359        -4.52896
LJ           4.42293         4.51089         4.29848
LJ          0.468494         3.75651         2.94324
LJ          -4.04173         4.77203        -5.27123
LJ           2.22187        -1.35553         3.54741
LJ          -2.90577        -5.66647        -3.85361
LJ          -6.00318         5.00616        -6.17241
LJ           4.09411       -0.540556         5.06269
LJ           4.76579         0.95928         4.52194
LJ           5.00654        0.563114        -4.50688
LJ          -3.71462        0.357131         1.35832
LJ          -6.28223          4.9455        -3.97522
LJ           2.16246       -0.955409         5.31029
LJ          -3.21433         1.26408        -5.00745
LJ         -0.349552         -4.3998        -3.24742
LJ           1.63992         -3.3449        -6.39403
LJ          -2.92212         -6.4129       -0.138415
LJ           4.11759         5.12153        0.140607
LJ          -5.28846        -1.94408          5.3523
LJ          -2.15777        -2.42192       0.0987635
LJ          -6.15417        -4.83446         3.00596
LJ          -5.15037        -5.79914         1.20871
LJ           2.21461         3.61463          4.1085
LJ           4.05831        -2.28574        -3.41701
LJ          -2.93912         5.20932       0.0642537
LJ            2.3877         4.58674      -0.0630589
LJ           2.97996        -4.36021         4.73014
LJ           -5.6931          6.3632         3.29653
LJ           0.93113        -3.60703          -2.809
LJ           3.02464        -2.84813         2.01797
LJ           4.97831        -4.96316          5.9464
LJ           1.55005         1.24552         3.42229
LJ          -4.77786        -2.22355         1.32178
LJ          0.817276         4.50233        -1.51311
LJ          -6.24059          5.4967        -2.54392
LJ          -0.35336         2.39769        -2.02305
LJ          -4.91986         4.99377         6.33187
LJ          -2.04859        -5.34982         2.02397
LJ          -4.25238      -0.0802625         6.16884
LJ           -2.8008         4.77969         -1.6668
LJ           4.42448         6.08296        -5.07213
LJ           4.84624        -2.82031        -2.29879
LJ           6.14866         4.03957         5.93323
LJ          0.701219         3.56379         -3.2227
LJ          -5.93405        -4.96455        -2.89162
LJ            5.0663         4.57842         5.96044
LJ           3.51495         -5.3962        -3.26125
LJ          -2.08912         4.46654        -5.41495
LJ           3.83505        -1.56886        -4.46028
LJ          -5.29769       -0.648192         1.65396
LJ           3.01499        -1.63426         5.25612
LJ         -0.941531         1.26515         1.57899
LJ          -1.84819        -6.21157         2.48818
LJ          0.137548          -3.448         3.34614
LJ        -0.0889779        -5.73137          3.4717
LJ          -4.11425        0.501945         3.35483
LJ           2.58007        0.641267        -5.55862
LJ           1.39588         2.16865         3.31399
LJ            -1.574         3.74084        -4.62785
LJ           5.21048         3.94933         5.04779
LJ          -4.12285         2.70851         1.98623
LJ          -2.90754        -3.87998       -0.768357
LJ          -2.00268         2.91794        -5.14218
LJ           3.27155          5.9645         -1.0316
LJ           5.90837      -0.0159138        0.891558
LJ           2.27346        -5.97595        -3.59081
LJ           3.03231          1.2013        -1.78655
LJ          -3.70603         3.06095         3.19282
LJ          -3.60945          1.0657         4.78984
