108
#Comment!
LJ           0.33369         5.88062        -4.98696
LJ          -3.70034        -5.31675        -4.45133
LJ          -3.87889        -2.22658        0.543621
LJ           3.41143        -3.21065        -4.15701
LJ          -1.02289         3.41796         4.20938
LJ          -5.07479        -1.74504         6.08616
LJ           1.22585        -2.78994         5.53415
LJ          -3.07121         1.78659       -0.798265
LJ          -1.95769        -5.44799         6.21755
LJ           3.79059        -2.37359        -0.15393
LJ          -0.24207         6.27316        -2.28108
LJ         0.0275623        -1.69782        0.877376
LJ          -3.22949        -4.00702         2.42376
LJ            1.6212         3.95822        -4.78415
LJ          -5.39311         -4.2041         1.80909
LJ         -0.683409         3.75162         1.05914
LJ           0.66988       -0.457441        -2.26439
LJ           -3.4633       -0.441117        -1.30146
LJ           5.78899      -0.0497074          3.5284
LJ          -5.34929        -2.72922         5.28995
LJ            -2.162         4.25652         5.72495
LJ           6.17804         5.44784        -1.43513
LJ           1.57184         2.92124         2.65832
LJ          -3.21396        -3.33678        0.648017
LJ          0.103646        -2.92765       -0.227107
LJ         -0.927795        -2.87214         1.55952
LJ           4.50243        -3.24117         5.56754
LJ           2.27341         1.40464         5.33349
LJ          0.701801        -4.46213         4.06965
LJ          0.492407         1.68429          1.5429
LJ          -1.42892        0.365194         -6.3017
LJ          0.530019        -5.88773        -3.23783
LJ           1.14871         6.34542        -6.12335
LJ           1.07259        -3.79103         6.13392
LJ          -5.77347         -5.6759          6.3185
LJ           5.46385         4.11117         5.34916
LJ          -6.19158        -1.47468        -4.67003
LJ         -0.906964       -0.894202        0.814635
LJ          -3.88468        -5.74821        -1.65504
LJ          0.297376        -5.23153        -5.79999
LJ           4.28296        0.627549         3.25084
LJ          -1.05764        -6.17493          3.2885
LJ          -5.15038         3.78916         -2.9107
LJ           1.55363        -2.16436         2.43607
LJ          -2.64252         4.00796        -5.06577
LJ          -1.33504         1.61797        -3.65235
LJ          -4.85458         2.24706         4.71836
LJ          -6.18961        -2.64767         6.00222
LJ          -1.88021        -3.00993        -1.11649
LJ           -4.4099        -1.50642         2.44524
LJ          -5.94352        -5.22728        -5.17311
LJ          -1.98397          4.3057         3.55464
LJ          -1.61067         2.78957         -4.0565
LJ         -0.794171         5.92776        -3.47063
LJ          0.136422        -1.76903         3.72264
LJ          -4.54549        -1.95198       -0.529513
LJ          -4.56011         5.81726        -5.51439
LJ          -1.27978        -1.17284        -4.49982
LJ           1.75451         1.05786         1.67555
LJ          -4.58968        -4.76386         2.67045
LJ           6.08706        -4.10314         1.04794
LJ           2.16283          2.3955       -0.451767
LJ           5.87092         2.38392        -3.44199
LJ          -1.00123         1.42991        -2.66971
LJ         -0.276576        -1.41967        -1.69008
LJ           4.95935         4.88599        -5.67225
LJ          -5.37796         1.90066        -4.12232
LJ           4.00417         -4.3305         -5.1885
LJ            1.1614        -3.61542         4.51751
LJ           1.64866        -5.71533        -6.46033
LJ          0.665076         -1.7807       -0.464213
LJ          -5.43932         -2.6278        -1.98786
LJ          -3.10997         6.11913        0.801621
LJ            2.6156        -5.77703       -0.650792
LJ          -3.51848        -3.51878        -6.45239
LJ           2.83919         -5.8831        -2.94195
LJ          -4.15106        -6.43721        -2.56914
LJ          -6.29155        -1.88794        -2.17659
LJ          -6.41541         4.43705        -1.97494
LJ           5.48554       -0.880396         4.53724
LJ          -2.34206         -5.7816        -3.71101
LJ           3.21233      -0.0699154         6.11392
LJ          -4.46228        -4.82395        0.569879
LJ           -2.9632        -3.51231        -2.73285
LJ          -6.45446         5.00902        -5.89109
LJ           4.90919         5.44006        -4.78329
LJ           3.39515         1.09468         1.45103
LJ           3.72574         2.83644       -0.432726
LJ           2.90251        -3.18314        -1.52802
LJ         -0.769839         -1.8194         5.15985
LJ          -4.64287         2.48293        -2.08615
LJ          -2.83602        -6.08318        -5.69413
LJ         -0.949499        -1.99309         2.14658
LJ           2.98711        -4.13541         4.58566
LJ          0.599993        0.706849         6.01517
LJ          0.608017        -2.75171        -1.52623
LJ           1.63462        -3.75927           1.476
LJ           1.26813         2.44196        -2.43286
LJ           2.90456          1.5186          -6.163
LJ          -2.35255         3.43138          2.9315
LJ          -5.50153        -1.23816         -1.6516
LJ          -1.00094        -2.18354        -6.01095
LJ          -5.77612         -2.5754        -0.33004
LJ          0.433086         3.58408       -0.345283
LJ           5.43513         6.09194        -0.79696
LJ           1.57624        -4.97004        0.906892
LJ          -4.78595        -2.76937        0.231466
LJ           1.68124       -0.823819        -6.22343
