108
#Comment!
LJ          0.101349         5.84439        -5.47679
LJ          -3.80476        -5.49172        -4.09606
LJ          -3.56809        -2.08306        0.252515
LJ           3.63646        -3.05973        -4.25501
LJ         -0.840313         3.58952         4.41983
LJ          -4.93014        -1.83385         6.22201
LJ          0.921307        -2.49485         5.82593
LJ          -3.33033         1.72317       -0.329709
LJ          -1.47187        -5.57666         6.36313
LJ            3.4891        -2.40727         0.45922
LJ         -0.148287        -6.31519        -2.44534
LJ          0.129377        -1.38214          1.4666
LJ          -3.36729        -3.45183         2.72712
LJ           1.24743         3.85993        -4.95763
LJ          -5.64596         -3.7378         1.69868
LJ         -0.948804         4.18062         1.28371
LJ            1.0031       -0.295423        -1.93637
LJ          -3.57103       -0.472181        -1.82685
LJ           5.36974        0.314702         3.33587
LJ          -4.93514        -3.05778         4.69872
LJ          -2.34405         4.38151         5.78105
LJ          -6.42632         5.64634        -1.49007
LJ           1.53314          3.0416         2.99547
LJ          -3.79217        -4.00317        0.174285
LJ         -0.177718        -1.97144       -0.187356
LJ          -1.32787         -3.3032         1.22514
LJ           4.17838          -3.715         5.31544
LJ           3.08593         1.50125         5.42313
LJ          0.440178        -4.36634         3.92258
LJ          0.609083         1.95347         1.20568
LJ          -1.59235        0.432972        -6.13634
LJ          0.386544        -6.15041        -3.69357
LJ          0.957264          5.9331        -6.14701
LJ           1.32623        -3.70538         6.15249
LJ          -5.14443        -6.02302        -6.40201
LJ           5.26758         4.47253         5.39797
LJ            6.2391        -2.06911        -4.18068
LJ         -0.763027         -1.1427        0.730406
LJ          -3.92554        -5.63866        -1.59378
LJ         0.0533947        -4.94784        -5.60504
LJ           4.65168        0.990801         3.44134
LJ         -0.926299         6.10269          3.2736
LJ          -5.41117         4.20035        -3.03523
LJ           1.47624        -2.20443         2.40584
LJ          -2.72252         4.36458        -4.90607
LJ          -1.18953         2.05327        -3.67625
LJ          -5.64854         1.64708         4.29075
LJ          -6.10619        -2.14866         5.97877
LJ          -1.25041        -2.79966        -1.45389
LJ          -4.32739        -1.18535         2.43326
LJ          -6.11953        -5.37272        -5.03201
LJ          -1.48235         4.16698         3.52389
LJ          -2.01902         2.60493        -4.17243
LJ         -0.920027         6.23735        -3.63519
LJ          0.393049        -2.24268         4.08194
LJ          -4.52649        -2.43286       -0.370382
LJ          -4.87794         5.47214        -5.13967
LJ          -1.73823         -1.4227         -4.5139
LJ           2.31724        0.823205         1.75237
LJ          -4.76635        -4.83692         2.78427
LJ           5.95894        -4.57154         1.37821
LJ           2.29089          3.1225        0.298045
LJ           5.82655         1.88921        -3.49601
LJ          -0.81641         1.19544         -2.3171
LJ         -0.247719       -0.638284        -1.63835
LJ           4.99609         5.06457        -6.09206
LJ          -5.38701         2.31116        -4.65144
LJ           3.69346        -4.42822        -4.93482
LJ           1.32253        -3.50808         4.38999
LJ           2.07533        -5.73299         6.17804
LJ           0.85061        -1.51559      -0.0730193
LJ          -5.43209        -2.68853        -1.76375
LJ          -2.62469         5.83996        0.822755
LJ            2.9814        -5.88661       -0.762515
LJ          -3.38202        -2.90844          -6.338
LJ           2.24391        -6.13154        -3.15558
LJ          -3.83118          6.2928        -2.16955
LJ            -6.279        -1.46449        -2.54269
LJ          -6.11231         4.42922        -1.68923
LJ           5.42692        -1.34491         5.00318
LJ          -2.47976        -5.31498        -3.29586
LJ           3.24395        0.325394         5.92071
LJ            -4.715        -5.06295        0.154694
LJ          -3.40073        -3.66471        -2.90265
LJ           6.18928         5.00624        -6.10429
LJ           4.70398         5.64873        -4.59891
LJ           4.26332         1.50553         1.82816
LJ           3.48303         2.11182       -0.661772
LJ           3.26608        -3.04327        -1.22504
LJ         -0.620678        -1.72388         4.97372
LJ          -4.28033         2.25673        -1.44901
LJ           -2.3892        -6.21414        -6.02196
LJ         -0.823626        -2.11028         1.93344
LJ           2.68715         -4.4293         4.42509
LJ          0.173307        0.736796         5.70827
LJ          0.855852         -2.4157        -2.03236
LJ           1.58139        -4.57503         1.52372
LJ          0.719003         2.59322        -2.77902
LJ           3.26001         1.74302          6.3657
LJ          -2.53398         3.42307         2.87475
LJ          -5.09643        -1.54252        -1.73356
LJ         -0.988311         -1.5139        -6.05437
LJ          -6.36933        -3.09684       -0.741133
LJ            1.1979         2.96851       -0.267315
LJ           5.31756         6.36091        -1.16794
LJ           1.78855        -5.45044        0.785599
LJ          -4.63093        -3.27839        0.643643
LJ           1.14863        -0.93571        -6.28667
