108
#Comment!
LJ        -0.0626415         5.83825        -5.69181
LJ          -3.83114        -5.57952        -3.90208
LJ          -3.50516        -1.84515       0.0722228
LJ           3.75207        -3.01298        -4.31953
LJ         -0.787993         3.70668         4.48257
LJ          -4.65332        -1.79678          6.3098
LJ          0.771468        -2.30202         5.92334
LJ          -3.47553          1.6995       -0.115261
LJ          -1.26556        -5.67028        -6.45591
LJ           3.33497        -2.42874        0.755337
LJ         -0.237516        -6.23789        -2.37979
LJ           0.16147        -1.29197         1.76034
LJ          -3.44579        -3.17859         2.87511
LJ           1.05891         3.81344        -5.04464
LJ          -5.76283        -3.52184         1.62684
LJ          -1.08253         4.39474         1.39861
LJ           1.10802       -0.239274         -1.7533
LJ          -3.63212       -0.493318        -2.08749
LJ           5.33628        0.319044         3.21195
LJ          -4.73878        -3.20428         4.42851
LJ          -2.43244         4.44354         5.80801
LJ          -6.29132         5.70059        -1.51747
LJ           1.51233         3.09911         3.16088
LJ           -4.0983        -4.48384      -0.0387874
LJ         -0.353134        -1.50989        -0.17414
LJ          -1.51654        -3.52256          1.0449
LJ           4.00909        -3.95476         5.18606
LJ           3.44591         1.43603         5.20285
LJ          0.354865        -4.27013         3.87469
LJ          0.679722         2.09077         1.03394
LJ          -1.66854        0.462022        -6.05426
LJ          0.386749        -6.22407          -4.115
LJ          0.920022         5.74472        -6.18733
LJ           1.44531        -3.71029         6.17102
LJ          -4.83551        -6.19699        -6.27999
LJ           5.17148         4.66622         5.45531
LJ           5.99374        -2.36362        -3.92744
LJ          -0.70217        -1.28244        0.716343
LJ          -3.94158        -5.57793        -1.55213
LJ        -0.0672871        -4.81572        -5.51346
LJ           4.65496         1.35148         3.55644
LJ         -0.861853         5.77317         3.26677
LJ           -5.5575         4.41104        -3.07073
LJ           1.42446        -2.22296          2.3905
LJ          -2.76033         4.53967         -4.8262
LJ          -1.13816         2.29255         -3.7323
LJ           -6.0469         1.34635         4.07645
LJ          -6.25778        -1.99987         5.91919
LJ         -0.927949         -2.6887        -1.61662
LJ          -4.28549        -1.02802         2.42523
LJ          -6.19885        -5.45328        -4.97469
LJ          -1.18148         4.11194         3.57647
LJ          -2.21299         2.49977        -4.22195
LJ          -0.91512         6.42792        -3.68288
LJ          0.511298        -2.48896         4.29396
LJ           -4.4757        -2.64446       -0.297785
LJ          -5.04025         5.30551        -4.95648
LJ          -1.96098        -1.54916        -4.53657
LJ           2.59828        0.713285         1.78887
LJ          -4.85897        -4.85387         2.82496
LJ           5.92152        -4.79358         1.54942
LJ           2.31554         3.47373        0.641543
LJ           5.80956         1.64302        -3.52541
LJ         -0.707441         1.07122        -2.10522
LJ         -0.169273       -0.235926        -1.61975
LJ           5.03124         5.12549        -6.36401
LJ          -5.39579         2.51772        -4.91198
LJ           3.53474        -4.44903        -4.79324
LJ           1.36048        -3.47946         4.33056
LJ           2.26962        -5.75499         6.04269
LJ          0.954618        -1.35073        0.131522
LJ          -5.45018        -2.64232         -1.6115
LJ          -2.38138         5.69997        0.833615
LJ           3.16169        -5.93977       -0.815569
LJ          -3.32024         -2.5992        -6.28301
LJ           1.93945        -6.25554        -3.26329
LJ           -3.6749         6.19554        -1.98246
LJ          -6.29117        -1.31207        -2.74389
LJ          -5.96477         4.49537        -1.55663
LJ           5.40415        -1.57633         5.23582
LJ           -2.5766        -5.08332        -3.10034
LJ            3.2496        0.596554         5.81678
LJ          -4.82387        -5.14933       -0.050707
LJ          -3.61765        -3.74867        -2.98748
LJ           6.03177         5.00221        -6.20927
LJ           4.60384         5.77427        -4.47686
LJ           4.69382         1.70457         2.03069
LJ           3.34319          1.7554       -0.767349
LJ           3.44872        -2.96909        -1.06301
LJ          -0.51154        -1.69195         4.86521
LJ          -4.08429         2.13607        -1.11313
LJ          -2.12367        -6.24975        -6.21234
LJ         -0.715262        -2.10306         1.78422
LJ           2.52263        -4.56242         4.35124
LJ        -0.0409395        0.747053         5.55844
LJ          0.971421        -2.23481        -2.26917
LJ           1.54115        -4.85159         1.63456
LJ          0.439369         2.66638        -2.95206
LJ           3.49211         1.89331         6.43794
LJ           -2.6349          3.3805          2.8208
LJ          -4.85723        -1.73146         -1.7411
LJ         -0.984563        -1.17278        -6.07117
LJ           6.30896        -3.34129       -0.973323
LJ           1.63255          2.6603        -0.19696
LJ           5.30645        -6.46247        -1.37152
LJ           1.91083        -5.82017        0.634917
LJ          -4.55731        -3.61781        0.850821
LJ           0.87744       -0.999287        -6.32694
