108
#Comment!
LJ           1.75173        -6.41238        -3.11682
LJ          -3.48459        -3.41316        -4.96077
LJ          -5.07426         1.47057         1.92129
LJ            2.4309        -4.21033        -3.81955
LJ           -2.1389         3.63485         3.78901
LJ          -4.31579       -0.269222         6.10354
LJ           2.68866        -2.53678         4.59174
LJ          -2.04847         2.09052        -3.22489
LJ          -2.30937        -6.36732         6.30413
LJ           5.35456        -2.47268        -3.08171
LJ          -1.45976         4.11066        -1.34547
LJ          -1.09072        -4.22074        -1.48767
LJ           -3.9826        -6.23592        0.592908
LJ           3.32188         4.48336        -3.96897
LJ          -3.76069        -4.62398         2.08886
LJ          0.788833         1.86401       -0.328086
LJ          -1.26409        -1.74521        -3.46688
LJ          -3.72379       -0.649268         1.18309
LJ          -4.00131       -0.180763         2.00169
LJ          -5.81023        -2.40681        -5.85919
LJ         -0.913884         3.60668         4.84129
LJ           4.95999          4.4862       -0.794574
LJ           1.63156         2.40886          1.0151
LJ          0.100944        -4.18506         3.30286
LJ          0.227431        -6.20562         1.52077
LJ           1.10228        -1.98483         1.60186
LJ           5.28253        -1.38925        -5.99184
LJ         -0.607631         1.22018         5.44746
LJ            1.5187         -5.3566         4.78403
LJ          -1.57359        0.939568         3.40917
LJ          -1.38878       -0.896498        -6.44238
LJ           1.90118        -4.82239        -2.86439
LJ          0.433531         5.75863        -4.56877
LJ         -0.154659        -5.53008         6.11673
LJ           5.05422        -5.64535          6.1345
LJ           6.31983          2.5563         5.47086
LJ          -3.78458         1.44471         5.92752
LJ          -1.34965       -0.420091         1.56917
LJ          -4.37077         6.42609        -3.18736
LJ          0.177112        -6.40926        -6.31971
LJ           2.77903        -1.21582         2.41892
LJ           -1.6019        -3.08531         3.11992
LJ          -4.66187         5.31287         -3.2971
LJ           1.65439        -1.64679          3.4587
LJ          -2.04365         2.66886        -5.86086
LJ          -2.88898          1.2651        -6.10252
LJ          -1.60236         5.18098        -5.90529
LJ           4.88141        -3.18177         5.38508
LJ          -4.83073        -3.79563         1.03956
LJ          -4.70281        -3.16914         2.12481
LJ           6.39214        -4.77935        -5.86976
LJ           -2.8635         5.09577         4.94261
LJ          0.141191         2.21848        -3.19871
LJ        -0.0637661         4.78354        -1.19305
LJ          0.355773        0.635118         3.35511
LJ          -5.12783        0.673289       -0.620381
LJ          -4.51748        -6.07017         4.70547
LJ          0.462837       -0.325259        -4.52515
LJ           1.27362        0.921191        0.505615
LJ          -2.56681        -4.62475         3.75797
LJ          -5.84966        -1.84027       -0.449055
LJ           1.87503        -2.14213        -2.82189
LJ           6.44846         4.82066        -3.21692
LJ         -0.879719         1.96541        -2.01543
LJ          0.336614        -4.41233        -1.65743
LJ           5.79134         2.69055         6.41152
LJ          -6.10661        -1.75801        -3.81914
LJ           4.57708        -3.85712         -4.6693
LJ            0.5685        -4.52156         4.89883
LJ           2.14326        -2.95057         6.26593
LJ         -0.307446        -1.79751         -2.2833
LJ          -5.31424        -1.38133        -2.10585
LJ          -4.91465        -6.25243       -0.348344
LJ           2.03728        -5.51258       -0.875416
LJ          -4.56136        -5.12112         5.69567
LJ           5.56851        -4.63973        -1.89979
LJ          -4.91102        -5.27601        -3.30738
LJ             5.139        -3.84004        -1.19778
LJ           4.73354         5.03917        -2.78012
LJ           4.26393        -0.17544         4.64798
LJ          -2.72212         5.64137        -6.19749
LJ           4.86799       -0.794672         5.70829
LJ          -3.92686        -3.70291         1.63015
LJ          -0.65596        -2.86909        -1.58035
LJ          -5.89636         4.96349        -4.77572
LJ           5.93928         5.66971        -3.10257
LJ          -1.33951       -0.292146        0.290475
LJ           4.78554         6.18677        0.541447
LJ           1.11623        -3.37154        -2.74647
LJ          -1.25269        -2.37154         6.06237
LJ          -5.26774         2.06388        -2.85576
LJ          -2.62119        -6.44675        -5.05787
LJ          -2.35243       0.0439783         1.91305
LJ           3.76736        -2.23889         5.38643
LJ            2.6493        0.442451         6.32322
LJ         -0.551212         -5.0804        0.208842
LJ           1.52624      -0.0719423        0.613962
LJ           3.57435         2.92163        -1.95088
LJ           1.72076        0.367706        -3.95445
LJ          -2.60795         2.24702         1.89723
LJ          -5.79197         0.58851        -1.82081
LJ         -0.907712        -5.22211         -6.0628
LJ          -6.20869      -0.0533003       -0.235852
LJ          -3.00779         6.18225       -0.609291
LJ           5.85489         4.20021        -0.18918
LJ          0.260309        -3.06811        0.482027
LJ          -2.73958        -3.48612         1.24959
LJ           1.92668        -0.28285        -5.23316
