108
#Comment!
LJ            2.4924         5.67803        -1.38092
LJ           -4.5013         -1.5378        -4.75811
LJ          -5.04744         4.76662         4.16517
LJ           2.31722         5.48268        -5.08506
LJ          -2.46345         3.77771         4.42734
LJ          -4.86642       -0.682029          6.1153
LJ          0.742446        -3.45134         4.16572
LJ          -1.40439         2.48226        -5.55285
LJ         -0.568649         4.39348         5.72363
LJ           5.90298        -2.55095        -4.94279
LJ          -1.26796         2.70289       -0.491075
LJ          -1.95807        -6.32911        -3.45451
LJ          -5.83195         5.30058       -0.903368
LJ            4.8547          4.5778        -3.69841
LJ           -1.7851        -3.25452         3.65365
LJ           3.14878          2.2724        -3.07926
LJ          -3.05882        -3.09081        -4.42444
LJ          -3.59063        -4.13798        0.857496
LJ          -1.84316         2.34548         2.98955
LJ          -4.91924        -3.06822        -3.79911
LJ         -0.208603         3.53957         3.41589
LJ           4.67008         3.52531      0.00186295
LJ           1.17213         1.12081       -0.810018
LJ           3.05334        -4.77897         5.60276
LJ          -1.17073         4.81369         4.17552
LJ           1.84491        -1.22911        -0.14311
LJ           5.43165        -1.05049        -3.58953
LJ          -1.86424         2.58749         4.59817
LJ           1.57548        -5.19692         5.53176
LJ          -3.73002        0.512797         5.05017
LJ          -2.34081        -2.89836        -5.22653
LJ           3.39853        -4.20314        -2.76188
LJ          0.754607          4.7263        -3.01199
LJ         -0.851698         5.59775         5.71375
LJ           3.85636         6.14212          6.2222
LJ          -5.37888        0.963141         4.84022
LJ         -0.882443         3.99449         4.78916
LJ          -2.99709        0.692278         1.79789
LJ          -4.86754        -5.71477        -5.36467
LJ          -1.26454          5.9588        -5.90051
LJ           2.68812        -1.95674         2.21317
LJ          -1.89858       -0.395428          2.4772
LJ          -4.51973             5.8        -4.19534
LJ           2.16854       -0.943644         3.99191
LJ           -1.4115         2.59075         5.78337
LJ          -3.13922         1.89168         3.89177
LJ         -0.751461        -5.69117        -2.77922
LJ           5.48651        -2.26137         4.23764
LJ           5.29995        -5.34597         2.50812
LJ          -5.01939        -3.25667         3.40489
LJ           3.36941        -4.51375        -5.36724
LJ          -3.41413         4.91218         4.38446
LJ          0.111701        0.845553        -2.90114
LJ         -0.739175         3.08783         1.21631
LJ           1.36744           2.493         3.22188
LJ          -5.71823         2.84108       -0.262272
LJ          -5.46096        -6.33542          1.5167
LJ         -0.377782        -1.16558        -4.90889
LJ           1.26726         1.02365         1.26915
LJ         -0.478319        -4.64599           5.344
LJ          -4.97809         0.47088       -0.805882
LJ          0.959633        -4.08785        -3.19642
LJ           -5.5621         5.50439        -2.20502
LJ         -0.123055         2.98551        -1.88679
LJ           1.59161         6.29589        -1.78318
LJ           6.36241         0.83274        -6.45474
LJ          -5.43689         -5.8188         6.19534
LJ           4.24442        -3.65253        -2.43819
LJ          0.860678         6.44547         5.65105
LJ           2.67663       -0.375563         5.75126
LJ          -2.03774        -2.37925         -4.4543
LJ          -5.49676        0.454394        -3.11461
LJ           -5.0514        -6.16174        -2.19679
LJ           2.35157        -5.65978        -1.92086
LJ          -4.52792        -5.23248         4.23439
LJ          -5.25176        -3.07314       -0.494603
LJ          -5.30588        -4.20894        -3.25226
LJ            4.0799        -5.73944       -0.937128
LJ           3.10412         6.29327        -2.12477
LJ           4.01704       -0.320099         4.79319
LJ          -3.74767         6.11497        -5.55478
LJ           4.60043       -0.107301         3.74027
LJ          -2.25283        -3.47782         1.07703
LJ           2.14218        -2.35772       -0.310596
LJ          -5.34607         4.80113        -4.73005
LJ           6.06323        -5.96378        -1.48489
LJ          -5.21651       0.0645785        0.720094
LJ           6.22874        -3.77845         1.34479
LJ         -0.254592        -2.44154        -2.85131
LJ          -1.22843        -3.80451        -6.46072
LJ          -5.79202         1.48273        -2.22928
LJ          -1.25532         4.97617         -5.3324
LJ          -2.90382       -0.104926        -0.15928
LJ           5.17329         1.11936         6.33843
LJ           4.34684       -0.419586        -6.15518
LJ          -1.24727          5.9428         1.58797
LJ           1.70447        0.804734         0.21799
LJ            5.7196          3.8214        -1.53587
LJ           3.45786         1.21208        -1.28276
LJ          -3.27768         1.72098         1.20414
LJ          -5.80937         2.56908        -1.49092
LJ         -0.668801        -5.77232         6.20145
LJ           5.84738         1.38401       -0.822269
LJ           6.20139        -4.67186        -1.41697
LJ           5.17736         2.53438       -0.731599
LJ            -1.191        -1.38646       -0.530958
LJ          -1.90528        -4.47252         1.56829
LJ           1.25808        0.346808        -4.32248
