108
#Comment!
LJ          -3.01058        0.143102         1.95915
LJ          -4.40805        -2.20074         1.87137
LJ          -5.09466         5.95112         2.48178
LJ          -3.49506          1.0741        -4.79058
LJ           -1.6384         4.23238         1.70374
LJ            3.4694         -2.5752        -6.39167
LJ           1.15139         -1.4333           2.213
LJ           2.05651        0.903785        -4.82757
LJ           0.76623         5.93598        -4.88696
LJ          -5.63523         3.50112        -6.25025
LJ           4.80858        -3.64061        -4.64752
LJ           2.67352        -2.47613       -0.333773
LJ          -3.13314        0.265626         6.04679
LJ           2.23376        -1.81712         4.52941
LJ          -2.53348         4.24492       -0.634411
LJ           1.37528        -6.43784        -5.59974
LJ          0.889801        -2.11764       -0.483034
LJ          -5.72793        -5.11508         5.82659
LJ          -5.14037         2.86437         3.50024
LJ           3.99516        -5.88658        -2.45011
LJ           5.81034           3.473         4.35523
LJ          -2.09971         0.43749         3.32321
LJ          -3.45902         5.36595         -5.6247
LJ          0.126386        -4.31069        -5.05176
LJ          -1.90358        -3.41633         0.27452
LJ           5.76696        -3.26749         3.77542
LJ         -0.559978       -0.534083         2.28805
LJ           4.83556        -5.79832        -1.52527
LJ           5.05887         3.38172         -5.3595
LJ           4.74249        -5.45486         3.26834
LJ           3.74426         2.91238        -6.19254
LJ           4.69353         1.61739        -6.14028
LJ           2.99898        -2.53987         3.27954
LJ           5.14141         4.40386         3.08863
LJ           1.70513        -3.26145         2.69067
LJ           4.69765         4.18098        -5.94519
LJ           -1.4504        -2.64005       -0.311944
LJ          -4.37389       -0.358127         4.11497
LJ           5.41866       -0.966166        0.761208
LJ           -1.9451        -1.32012        -1.90676
LJ           3.38253         1.92066         1.34575
LJ         -0.140522         1.74283         4.31435
LJ          -1.21852      -0.0280506         1.65778
LJ          -5.44339         4.74056        -5.45405
LJ           2.46911       -0.370945       0.0244793
LJ           4.22103       -0.697541         1.02942
LJ          -6.17468        0.518042        -3.71579
LJ           5.87139        -3.90713         1.28016
LJ          -5.62676         4.54371         -4.1933
LJ           2.99475         4.65877         4.93514
LJ           2.99881         2.66666        -3.52604
LJ           0.13562         1.21823         1.37637
LJ          -3.53891       -0.828347         -5.7696
LJ           -5.3912         2.61821        -3.45334
LJ           3.88481        -3.99937         4.03402
LJ          -3.88746          -1.789        -6.17292
LJ           3.90852        -1.98781         3.67617
LJ          -1.63289         4.16502         5.89559
LJ           -2.9373       -0.859969        -1.74491
LJ           2.65909        -3.63496        -2.25384
LJ         -0.108036        -5.57613        -2.30467
LJ         -0.564153        -4.40745         2.28114
LJ          -1.36676        -4.54774        -2.07419
LJ          -5.21248          3.6093        -4.77021
LJ          -3.88545         3.08052       -0.132444
LJ           1.41908         3.37054        -5.74245
LJ          -2.13039        -6.31957         2.92778
LJ         -0.265219        -5.35966        -5.03415
LJ          -1.13227       -0.997149        -3.98836
LJ          0.525684        -5.53151         3.20804
LJ          -5.10024        -1.20793         3.76223
LJ           5.71366         3.01216         5.66778
LJ           2.42591       -0.261776         5.13555
LJ           5.57844         6.17431        -3.68663
LJ          -2.85504         5.10368        -2.73317
LJ           6.21517       -0.758667         2.91669
LJ          -3.46755        -5.11284        -4.46134
LJ           -1.3209         4.93503         3.77892
LJ          -1.81812         3.09219        -1.26002
LJ          -1.43063       -0.568525          3.5702
LJ          -2.04754         5.51641        -2.31151
LJ           3.85023        0.663675         2.38865
LJ           3.46369        -5.96669         3.81441
LJ          -0.37812         4.63518         4.28664
LJ           3.92558         2.94602        -4.99413
LJ           1.88451         -4.6317        -5.42119
LJ           2.18853         3.77177       -0.497066
LJ           3.14756         5.19235         -2.3991
LJ          -4.43661        0.609245        -5.95647
LJ          0.109064        -5.99876         5.46897
LJ         -0.450925       -0.651963        -4.64951
LJ            3.8752         -2.7273       -0.131636
LJ           5.44857         1.50454          5.2129
LJ         -0.493068       -0.139185        -1.32761
LJ          -4.53585        -5.86358          -6.339
LJ           3.09952         4.65591       -0.717916
LJ           2.97811         6.02008        -3.16101
LJ          -3.32665         4.21019        -2.37072
LJ           4.87099         5.53789        -1.98215
LJ           4.10743       -0.545944          3.9492
LJ          -2.71472        -5.46893          4.0091
LJ           1.40545       0.0537166         2.74231
LJ          -3.11964         -1.9591         4.78238
LJ          -5.15393         -2.2398        -1.38013
LJ          -3.53799         1.36268         2.64391
LJ           3.30114       -0.856136        0.539248
LJ          -5.91319         5.71884         1.32268
LJ          -2.46343         1.37407         -2.1822
