108
#Comment!
LJ          -3.80462        0.521794          3.0883
LJ          -5.66353       -0.114889         3.55423
LJ          -4.20544        -5.78922         3.44727
LJ          -4.42621        0.782532        -4.07144
LJ         -0.187346         4.19265        0.668351
LJ           4.88298        -2.76151        -6.32609
LJ         0.0704934       -0.112789         0.54176
LJ           1.50357       -0.319598        -4.01743
LJ           1.89663           5.658        -5.32773
LJ          -6.10333         5.24938         4.43323
LJ           5.46932        -4.41318        -3.28714
LJ           4.73037        -1.71734        0.714525
LJ          -4.34403        0.625039         5.39827
LJ           2.84575        0.802149         3.38377
LJ          -2.04228         4.70184       -0.592086
LJ            3.5375          3.8795         5.33391
LJ          0.747616       -0.965359        -1.98146
LJ          -6.06821        -4.70417        -5.39356
LJ            6.0203         1.51111         6.03927
LJ           5.50766        -3.95696        -1.87513
LJ           4.90139          4.9242         4.25479
LJ          -0.35473       -0.896219         3.61672
LJ          -3.25626         5.27806        -6.29122
LJ           1.90865         -5.8304        -4.63594
LJ          -2.86268        -4.90958       0.0285522
LJ           5.11163        -3.02949         4.08656
LJ        -0.0864049       -0.993171         1.31732
LJ           3.63581         6.05417        0.337764
LJ           5.84535         4.80366        -5.80197
LJ           4.71209        -4.32475         1.05564
LJ           3.07736         3.91603        -5.23105
LJ           4.45691         1.61692         6.45933
LJ           3.55224        -2.92967         4.61711
LJ           -6.1884         4.77572         1.66761
LJ           2.33154         -4.5482         3.92463
LJ           5.65916         5.25937         5.04105
LJ          -2.23907        -2.52882        0.507936
LJ           5.67087        0.216096         2.76557
LJ          -6.23317         -1.2624       0.0769881
LJ          -3.04887      -0.0801425        -1.07134
LJ           3.21579         4.31359         1.03759
LJ          0.520689         1.64587         1.64817
LJ         -0.451942      -0.0166508         1.50226
LJ          -5.28619         4.68996         6.10248
LJ            2.0282       -0.444008         2.28378
LJ           3.26968       -0.489119        0.352244
LJ           5.89792         1.91495        -4.78775
LJ           5.78057        -4.55545         2.08602
LJ          -5.45408          2.9091        -3.28625
LJ           1.98411         4.39304         3.95316
LJ           1.44455         3.84648        -3.86991
LJ           1.49294         2.30735        0.348511
LJ           -2.2377        0.774061        -5.81181
LJ          -4.44019         3.45057         -3.4052
LJ           4.74298        -2.94376         2.87088
LJ          -3.56695        -1.53533         6.38425
LJ           4.60335        -1.38471         4.15349
LJ          -1.27301         3.09205         3.82089
LJ          -3.72399       -0.416301        -1.91728
LJ           3.96063          -5.982        -2.47571
LJ         0.0402416        -4.18706        -1.20407
LJ          0.512625        -4.28321         2.53381
LJ          -2.07289         5.97312        -1.67684
LJ           -5.2939          4.3248        -4.74241
LJ          -4.37248         2.48734        -1.45827
LJ           2.05475         2.78234        -5.90868
LJ          -2.32883        -5.71617         4.49282
LJ         -0.623113         5.06511        -4.25697
LJ          -0.48106        -2.13959        -2.68435
LJ          -1.16275         -4.8744         2.34191
LJ          -6.13696        -1.67439         4.83461
LJ           5.23175          2.1842         5.93998
LJ           1.78397        -2.16232         4.83067
LJ           4.89152         4.45841        -5.13005
LJ          -3.06258         4.59017        -2.68309
LJ           5.45269          1.9089         2.53034
LJ          -1.64468        -4.55114        -5.48594
LJ          0.423821         4.35881         3.52521
LJ           -0.6618         4.20828       -0.437155
LJ         -0.932591        -1.78633         2.68357
LJ           -1.0078         4.56205        -1.67052
LJ           1.82599         1.45829          2.9601
LJ            5.7238        -5.15649         5.33646
LJ         -0.123962         4.70842         4.47872
LJ           3.04253         1.16609        -4.04069
LJ           1.41832        -3.22019        -3.14739
LJ           2.19156          3.0687       -0.311854
LJ           1.86332         4.81446        -2.34161
LJ          -4.28469        0.922769         -5.8843
LJ         -0.980149         -6.0165         5.08418
LJ           -0.2417       -0.280409         5.85826
LJ           4.51718        -3.10091       -0.184883
LJ           5.04325         3.38896         4.98283
LJ          -1.07368        -1.24879        0.396427
LJ          -4.20485        -5.21792          5.3578
LJ           2.42663           2.801         -1.4082
LJ           1.79622         5.65932        -3.83375
LJ          -2.44809         3.26249        -3.60693
LJ            4.8628         4.48727        -2.26273
LJ           3.38637       -0.984932          4.9423
LJ          -3.33055        -4.80374         5.02558
LJ       -0.00185308        -2.97985         3.18739
LJ          -5.01775        -2.38142         -6.2831
LJ          -5.47412       -0.495951        0.268764
LJ          -3.93916         1.25938         3.88558
LJ           3.09548        -0.98557         1.70343
LJ           6.31563        -6.02907       -0.893137
LJ           -1.2233        -1.45783        -1.84739
