108
#Comment!
LJ          -1.38333       -0.449812         1.82152
LJ          -1.34147         5.31239        -1.09759
LJ          -3.97068         5.91625         5.90271
LJ          -3.66814         2.91272         6.36311
LJ           -4.6867         4.35085         4.30102
LJ         -0.447355        -2.28353         6.05862
LJ           5.05808        -5.01518         5.74538
LJ           1.76168       -0.773492          -5.605
LJ          -1.84482         4.93845        -4.26768
LJ           6.30835        0.342746          6.2224
LJ            2.7644         -1.7048         4.70203
LJ          0.772805        -1.18763        -1.36171
LJ          -3.48472       -0.843535        -3.52798
LJ          -2.19881        -6.40176         -5.8099
LJ          -6.04889         1.37457        -2.79096
LJ          -4.77987         1.95395        -2.31589
LJ           3.09371         -3.9067         2.50028
LJ           -5.6025        -4.52016         1.54097
LJ          -3.00521        -4.53711         1.14373
LJ           1.24213        -3.89095        -1.53611
LJ           -4.9063       -0.386545         3.82241
LJ          -3.35087         2.59879         1.01495
LJ            -2.698         3.08824        -4.60445
LJ          -2.75889         3.31329        -5.77432
LJ          -1.27785         -1.4619         1.97391
LJ           4.82216        -2.36958         3.85679
LJ          -2.99829        0.223312         5.63216
LJ           3.00758        -2.75031         5.86859
LJ           5.10309        -1.44769        -2.67427
LJ           3.71087         4.60327         3.55835
LJ           6.18767         3.14766         6.30647
LJ          -6.45272        0.750096        -5.10844
LJ           1.82826        0.159728         1.84137
LJ           1.05495         3.20849        -4.42787
LJ          0.870077        -0.11828         1.91878
LJ           6.44456        -5.81026        -1.78119
LJ          0.666836         1.78468        -2.58572
LJ           3.16845        -4.38823         4.78074
LJ          -6.06146         -1.7088         2.33338
LJ          -1.80709       -0.692906        -3.21631
LJ           4.21055       -0.475864        0.714651
LJ          -1.99309         1.64711        -1.75358
LJ           -3.0558        -2.04684         4.55441
LJ           5.90291         1.89386         5.82477
LJ           1.90897       -0.284938        -4.53151
LJ           5.05711        -4.98003         2.25917
LJ          -5.84746        -3.47769        -3.58044
LJ            5.6851        -1.76114        -1.76298
LJ          -2.60607         5.92121        -2.03438
LJ           5.74723        -6.39793        -6.06443
LJ           6.34362       -0.986366        -1.57013
LJ         -0.675352         2.90139         2.29234
LJ          -2.61284        -1.40636        -5.06273
LJ           6.21359         2.97156        -4.37392
LJ           6.41318          3.8742         4.05722
LJ          -6.34783         5.71486         5.03731
LJ            6.0835        -3.53677         4.31847
LJ          -1.74327        -5.73236        -2.72732
LJ          -1.44578        -1.19529        -1.49309
LJ         -0.262931         1.30463        -3.11646
LJ          -1.00025         4.82619        -5.17442
LJ          -3.17922           5.569         1.72544
LJ           2.74597        -2.43855        -5.78109
LJ           -3.9177         4.18395         1.01865
LJ           1.07348         3.31547        -1.21821
LJ          0.671187         5.93031        -5.69698
LJ          -2.08085         4.72863       -0.413847
LJ          -2.49149        -1.78543        -3.96537
LJ           6.06677       -0.283326        -4.61934
LJ            5.9995         4.91403         5.01723
LJ          0.442245      -0.0693184         4.38195
LJ          -5.78044         4.10131         5.22107
LJ           4.37405         4.55212         6.26987
LJ          -5.54595         6.41806       -0.444066
LJ          -4.72215         6.16238        -2.05622
LJ           6.34281           5.447         3.78508
LJ           6.19051        -3.36872        -2.01619
LJ         -0.975121         4.70738         3.45803
LJ           5.85633         2.40292        -3.09256
LJ          -3.44587         1.19752         2.57883
LJ          -2.58043        -3.50207        -3.30346
LJ           5.24071        0.732383       -0.126773
LJ         -0.312855        -5.98899         1.77611
LJ          -3.71496         4.85293         4.84086
LJ          -0.19629         4.83055        -6.21283
LJ           2.32805         4.95718         4.20508
LJ           4.21889         4.12544        -0.72601
LJ           6.39699         -4.0729        0.521049
LJ          -1.60887       -0.817078        -4.73897
LJ          -1.30907         6.23597         5.15538
LJ           2.85184     -0.00506904        -1.34121
LJ          -1.03897     -0.00265212        -3.28665
LJ          -5.14027        -2.40937        -5.89089
LJ           2.81033       -0.175793        -3.51367
LJ          -4.52051        -6.03098        -5.71693
LJ            3.7006         -4.8001         2.16953
LJ           2.68459         4.91325         6.41132
LJ          -4.64374         6.35625        0.670896
LJ          -4.01305        -6.25998         -1.1497
LJ           5.21839        -4.68683          3.7816
LJ          -3.03434         6.32237        0.623713
LJ           6.22284        -5.70389         2.33031
LJ          -1.29396        0.935768         1.01848
LJ          -5.55369         4.97899        -5.19376
LJ          -3.48343         2.18698        -1.26035
LJ            4.4345        -4.36832        -3.73819
LJ           3.57612        0.404334         1.15567
LJ          -4.54032        -5.55373        -2.68678
