108
#Comment!
LJ           6.00018        0.811931        -2.07828
LJ           1.12297         3.01782        -2.02554
LJ           1.15307         6.00538        -2.74056
LJ          -3.76948         3.77458         4.14471
LJ           3.59717      -0.0127703         4.90271
LJ             6.024         2.84836         6.38208
LJ         -0.828208        -5.23797         5.99332
LJ          -1.80444         6.07385        -2.33202
LJ           2.38094         4.12952        -6.16763
LJ           5.73233        -2.66429         2.35749
LJ          -5.50488         2.98094         2.69616
LJ           4.67069       -0.993472       -0.661214
LJ              3.71        -3.78984        0.589893
LJ           5.99298        -2.57674        -3.29552
LJ         -0.119042         2.95735        -4.84323
LJ          -3.40446          3.4941        -1.35037
LJ          -4.59484         2.87991       -0.148084
LJ           5.08765        -5.20896        0.205881
LJ           5.26661        -5.70856         6.42157
LJ         -0.134476        -2.38716         4.69716
LJ           4.64557         3.53669         2.23577
LJ           1.30814         1.21421         2.64497
LJ           1.93167         -1.7348         2.72798
LJ           1.62611        -2.37723        -4.40056
LJ           3.80573        -5.40832         5.07943
LJ          -6.05625         2.09645        -2.04906
LJ          -1.20192        -3.78811         5.46472
LJ           3.10303        -5.21198        0.235189
LJ           3.68146        -1.07128         6.14616
LJ          -6.05362         2.32023         5.82767
LJ           5.39465       -0.516606        0.925117
LJ           5.34683        -3.16041         4.79447
LJ          0.669655         4.93843         4.66761
LJ         0.0992088         4.44064         1.70064
LJ            6.0204       -0.234588         2.33775
LJ           5.12417          5.4916         1.72018
LJ          -5.52666         3.60103         4.51374
LJ           1.08295         5.31595        -5.10432
LJ          0.035308        -5.94574        -1.66332
LJ          -1.75807         5.36387        -3.47953
LJ          -1.35107         5.39598        -5.78391
LJ          0.608245         -5.5589        -2.74509
LJ         -0.988181        -5.99004         4.06687
LJ            2.3008         1.91678        -4.17722
LJ           -2.4518        -1.62895         4.95555
LJ          -4.27486       -0.687027        -1.36871
LJ         0.0928731         2.83879        0.875106
LJ           1.61226         5.49525        -1.57172
LJ          -5.94985        0.882605        -3.72505
LJ          0.126553        -6.41387         -2.9476
LJ          0.352393         5.58502        -2.45779
LJ          -3.19667         4.89291        -3.96804
LJ           4.09576         1.46809         2.87587
LJ          -3.69033        -4.14825         1.70652
LJ          -1.62238        -6.44269         -6.4167
LJ          -5.93728        -2.40397         5.40139
LJ          -1.64169        -1.15335         5.54656
LJ           0.33191        -1.16198         1.63207
LJ          -4.10359        -6.23329        -4.28037
LJ           2.57573        -1.67313        -4.31942
LJ           1.70074         2.08293       0.0695469
LJ          0.608136         6.45187        -4.01215
LJ          -1.07106       -0.481651        -6.07571
LJ          -3.34044         5.63585        -6.13945
LJ           4.51653        -1.05605          1.0531
LJ        -0.0928168       -0.905488         5.62118
LJ          -3.66377        -1.94582        -2.02989
LJ          -2.72547        -3.59059          2.0309
LJ           3.32465        -2.08207        -2.35844
LJ          0.431203         3.22243       -0.616054
LJ           4.02678         1.43001         5.33373
LJ          -5.51328         5.00705        -2.33007
LJ            6.3551         0.51025         4.03577
LJ           5.84021        -2.48211        -1.45354
LJ           1.84579        -5.59648        -3.94074
LJ         -0.712784         -4.4927         4.30853
LJ           -1.7945        -5.35247         6.44531
LJ           2.61902         6.41806         5.09051
LJ           2.79075         5.53808       -0.224187
LJ           2.35841         2.05948         2.54096
LJ          -3.16286         4.02554         1.93987
LJ           2.17781          6.2487        0.427196
LJ           -5.2519         1.74101       0.0669716
LJ          -4.95708        0.155022         4.16128
LJ           4.21933        -5.27279        -5.80763
LJ          -3.58391        0.880039         3.80313
LJ           1.03263        -2.16377        -3.33535
LJ          -1.88616         4.35093        -3.95835
LJ          -5.60552         2.43561         4.22838
LJ           6.04776        -4.87287        -1.02076
LJ          0.208802        -5.08727         5.27098
LJ           -2.0015         4.41294         1.84295
LJ           4.04741         4.11793         -6.3937
LJ          -4.84324        -5.28679         2.06678
LJ          0.424536         4.41185       -0.691377
LJ           4.34249        -5.11604       -0.656316
LJ           2.06996         5.75921            6.34
LJ            1.6941        -3.08912         1.05709
LJ          -2.99156         1.52174         3.28073
LJ           1.67369         3.42416         6.43403
LJ          -4.63917         3.42295         5.53704
LJ           4.04255         2.51774         4.37246
LJ           3.33381         4.37699         1.15321
LJ          -3.61907        -2.02653         3.16736
LJ          -3.78761         5.12362        -5.34192
LJ           1.76114         1.12451        -4.95999
LJ           0.51695         4.29787        0.712582
LJ           5.73056       -0.804697        -3.24767
