108
#Comment!
LJ          -4.18792        -6.09927        -5.05746
LJ           2.32779         4.03765        -3.91158
LJ           2.93565          3.3607        -2.31778
LJ           4.29776        -3.15039       -0.765929
LJ           2.70858         2.43104         5.53819
LJ          -4.17196         1.23504         6.23297
LJ          0.311255        -1.34935         6.43855
LJ          -3.22189          4.1768        0.754552
LJ           3.05573         3.19637         4.59677
LJ          -5.87566        -4.95213       -0.136133
LJ          -2.29139         2.67796         2.55619
LJ           3.31631         1.20735         1.97558
LJ           1.77574        -2.56771        -1.86761
LJ           2.48627       -0.173378         6.38311
LJ         -0.286901        -0.73976        -4.87763
LJ           1.03525         4.60612        -4.13307
LJ         -0.304604         0.35698        -1.75729
LJ            3.8259        -1.45497        -3.93666
LJ         -0.213152         3.62792         -1.3594
LJ          0.735862        -1.72288         4.45861
LJ          -2.70614         1.09004         2.53835
LJ          -3.56155        -1.39791           4.919
LJ           4.27243          5.4705         5.57185
LJ         -0.305874        -2.94872         5.90208
LJ          0.217204        -1.99126         3.09312
LJ          -1.12932       -0.285267         3.85951
LJ             4.821          -2.344         5.62755
LJ           2.00269        -2.06657       -0.685279
LJ            5.0598       -0.248537         -4.9288
LJ          -6.00381        -1.29637         5.83955
LJ          -3.93421        0.309306         2.50979
LJ           0.61841        -5.47655        -5.58813
LJ          0.808591         5.16633         1.83519
LJ           3.12721         3.31502         2.92818
LJ          -4.18542         1.31087         2.15756
LJ          -4.69453         2.83269         3.69192
LJ           6.40112        -5.89998        -5.02914
LJ           3.31738          3.9073        -3.15166
LJ           2.01929         3.30896        -3.09299
LJ          -1.73898        -6.26919         -3.8335
LJ          -1.78409        -4.81289        -3.72479
LJ           1.88784        -5.85427        -5.62576
LJ          -2.15069        -4.35825        -5.19558
LJ          -0.93505         3.47012         -5.6553
LJ            0.9458        -2.90144         4.52194
LJ          0.495058       0.0884705        -4.24431
LJ          -0.16994       -0.690884        -2.21794
LJ           3.53947         3.75526         -1.1958
LJ           1.19123          2.0905         -2.8514
LJ           2.94452         4.81754        -2.66137
LJ          -3.04218         -6.3245        -3.83413
LJ          -0.60091        -5.91921        -4.12346
LJ           5.07249        -5.58935         4.08941
LJ          -3.54295        -2.54565         5.15114
LJ          -2.44932        -5.63034         6.20551
LJ           4.14317        -3.48334         5.14291
LJ          0.164248        -3.43014         4.01384
LJ          0.819424       -0.278083        -3.07559
LJ          -1.13783         5.32329        -5.42428
LJ          -0.29358          -3.701         5.12329
LJ           3.70695         -2.7464         5.80098
LJ           3.94663         4.20391        -2.20274
LJ          -3.62316        -2.26622        -3.97152
LJ          -4.99813        -3.53444         5.22359
LJ           5.54203        0.574942        -5.93976
LJ          -4.66546        -2.66649         5.96301
LJ           1.84533         5.33309       -0.987641
LJ          -5.85975        -1.62357         4.72288
LJ         -0.164936        0.391059        0.662665
LJ          -6.22035        -2.77496         1.27014
LJ           6.09783        -5.43975        -3.03308
LJ           -2.1473        -3.67132        -3.40481
LJ          -6.27003        -2.28005        -4.50285
LJ           -4.4703        -4.67711        -2.08995
LJ           4.00832         5.30812        -3.06862
LJ          -2.38159        -5.72435        -5.54478
LJ          -1.87588        -6.32113         3.28424
LJ          -1.32248        -1.18698         3.37812
LJ           3.62517        -6.13345        -1.19195
LJ          0.788173        -2.20809       -0.838078
LJ          -3.30229         -3.7638         2.66611
LJ           0.12632        -4.82052        0.873334
LJ           1.72131        -5.49317        0.065051
LJ           4.35753        0.224129          5.9131
LJ           5.08334         5.11322        -3.80677
LJ          -4.73585         2.71767         0.60039
LJ         0.0300265         2.19949        -3.69188
LJ         -0.839527         5.89976        -4.20971
LJ           4.64741          6.4526         4.73393
LJ          -5.34796        -4.53804         6.46104
LJ          -1.59484        -2.51569        -5.12977
LJ           4.53711         2.57138         1.83701
LJ           4.14437        -4.24573         4.51755
LJ          -2.77494        -3.92999        -1.04879
LJ          -1.94256         4.59695         3.54781
LJ           3.88571        -1.74742        -1.02498
LJ           4.27141          5.6917        -4.90738
LJ           6.35442        0.268364        -3.23566
LJ          -2.15888         5.57535         2.46119
LJ          -1.48364         3.81883        -2.83096
LJ           6.37738         6.04102          4.1291
LJ           6.26606        -6.09002         5.41801
LJ           5.69692         6.00807        -4.54675
LJ           6.28043      -0.0396318          5.4499
LJ          -5.63133        -5.50155         4.03165
LJ          -1.76405        -2.10741        -1.25092
LJ           3.80469        -3.12038         2.37311
LJ           5.91289        0.791653         1.99555
