108
#Comment!
LJ          0.129238        -5.82401         4.87441
LJ          -1.18774         6.26847        -4.93132
LJ          -3.84118       0.0453811        -1.81882
LJ          -4.14709          6.0878        -3.40658
LJ           4.16506         3.67216        -3.79878
LJ          -3.32747       -0.653246         6.21973
LJ           6.40791         4.22674         1.79718
LJ          -5.25468         1.15002         2.50244
LJ         -0.904555        -4.01545         6.39996
LJ            1.4248        -1.24768         4.15526
LJ         -0.850358        -1.84018        -3.11184
LJ           4.37972        -5.14656         3.90099
LJ           -4.9216         4.75616         4.25321
LJ          -5.32499         2.80504         5.91187
LJ          -5.05149         1.55709         -2.1359
LJ           2.17203        0.370654         -2.0845
LJ           3.82945        -2.03761         4.79149
LJ           2.72057        -4.22343         -5.0185
LJ          -6.03303        -2.01247        0.574505
LJ          -4.35677         1.14231        -5.80481
LJ          -1.29307        -3.77557         -4.5505
LJ          -0.25418         5.38001        -5.36548
LJ          0.907177        -5.45085           2.301
LJ          -1.60582        -1.89037        -2.13763
LJ          0.998921         4.55434        0.514477
LJ           1.32561        -3.17711         3.32071
LJ         -0.223284         -2.5253         4.61477
LJ          -1.87311         3.92089        -2.52903
LJ           0.27335         -2.4877        -2.91382
LJ          -6.42913        -5.58819        0.969663
LJ          -2.75857        0.148125         -1.3446
LJ           5.00995       -0.837557        0.775223
LJ          0.100209        -2.77148         3.33069
LJ          -2.69071        -4.41333         6.31071
LJ           4.36411         -1.9899        -5.59509
LJ           5.20275         3.68378         5.72375
LJ          0.337393        -3.11777        -3.79313
LJ           2.76187         2.24453         4.57993
LJ           5.98522        0.989925         2.34583
LJ           -6.2667        -3.47584        -3.11052
LJ           5.68129        -1.85533         5.40193
LJ          -5.76053        -5.61305         3.28488
LJ           2.36433         3.93455         1.25907
LJ           4.73241       -0.976838         4.74537
LJ           1.10541        -5.65822        -3.70694
LJ           1.63843         2.61695         4.47356
LJ         -0.159406        -5.37448         6.13589
LJ            5.0348         1.42629         1.22801
LJ           6.21845          5.6668         -1.5499
LJ          -2.09436         5.38302         1.02893
LJ          -5.27413        -1.56346         5.43496
LJ           2.81865         5.73163        -5.31676
LJ          -2.93956         1.23201         0.41942
LJ          -4.50409        -1.28383        -4.04555
LJ           1.16432        -4.61347        -6.08409
LJ           3.91989        -3.25749         1.28565
LJ         -0.597058        -6.20386        -5.99875
LJ           4.78057       -0.584483        -2.10365
LJ           3.54721          3.4596        -1.99106
LJ           5.53201        -6.32977         2.59547
LJ          0.229874         2.13097        -1.18226
LJ           2.54019       -0.880074        -5.02859
LJ        -0.0533254        -6.10873        -4.94072
LJ          -5.30469         1.30386       -0.817348
LJ            2.3668        -3.41949         2.73226
LJ          0.260523        -5.45077       -0.914387
LJ          -5.41146         -2.0277        -3.02997
LJ          -2.84831        -1.82771         6.06478
LJ          -5.07525        -1.51617        0.787687
LJ           5.15782        -4.90957         3.08216
LJ           2.17778        -4.81659         4.82788
LJ          -5.84779        -3.64933         4.14611
LJ           6.19872         1.37098         -5.7111
LJ          -4.13198         3.50556        0.397711
LJ           5.00492        -2.69753        0.487017
LJ          -5.04423        -2.33341          2.1577
LJ          -2.61868         2.44636         5.01592
LJ           -2.4505       -0.210314         3.93605
LJ          -3.12769          1.3658        -3.53039
LJ           2.53602         1.99252        -3.23583
LJ          -1.73446        0.599985        -1.35381
LJ          0.112047         3.44716         4.69429
LJ           2.06369        -1.79197        0.765504
LJ           4.42945         5.35375       -0.814137
LJ           5.41076        0.515006        -1.34094
LJ         -0.917011        -5.07799        -4.77613
LJ           5.62205        -2.20905        -2.49346
LJ           6.11806          2.9452        -5.76637
LJ        -0.0645137          1.8661         4.22732
LJ          -5.18317       -0.746619        -4.48065
LJ           -1.8383        0.240765          4.9948
LJ          -3.35258         3.49518        -3.53644
LJ         -0.163932        -5.49581        -3.90508
LJ           4.50419         6.24881          1.6675
LJ          -1.85617         4.11222         2.94719
LJ            5.9033         3.89623         4.91421
LJ           2.72594       -0.749332        -3.66534
LJ            3.9192        -5.97773         6.19306
LJ           3.45672          4.0885         5.76703
LJ          -1.06645         1.53478         2.51519
LJ          -3.87796       -0.504624        -5.64148
LJ          -2.82075       -0.390649         1.80225
LJ           1.33856            4.91         5.57493
LJ           2.74497        -1.00735       -0.536014
LJ          -0.18656         -2.8655       -0.684558
LJ           1.96564         6.07717        -5.85599
LJ           6.04432       -0.181501         1.66609
LJ           3.35231        0.443688        0.979548
