108
#Comment!
LJ           2.06645        -6.14966        -2.66287
LJ          -3.47686        -2.89835        -5.04014
LJ          -5.07748         2.36293         2.52362
LJ           2.11911        -4.35406        -3.78668
LJ          -2.28803         3.79309         3.94614
LJ          -4.08766       0.0989744         6.08573
LJ           2.28818        -2.46601         4.00292
LJ          -1.88613          2.1924        -3.83901
LJ          -1.75011         6.23248        -6.34651
LJ           5.80272        -2.55763         -3.7471
LJ          -1.50855         3.71425        -1.14692
LJ          -1.39437        -4.78718        -2.00854
LJ           -4.3502         6.32001        0.112786
LJ           3.77712         4.64226        -3.72041
LJ          -3.10288        -4.30331         2.46037
LJ           1.12627          1.7556        -1.12047
LJ          -1.61349        -2.09787        -3.61799
LJ          -3.61256        -1.24939        0.973034
LJ          -3.38848        0.474316          2.3066
LJ          -5.47624        -2.48879        -5.38688
LJ         -0.528377         3.44976         4.40275
LJ           4.73849         4.32898        -0.57757
LJ           1.55963         2.21767        0.523809
LJ          0.834505        -4.38596          4.1003
LJ         -0.141671         6.20708         2.23599
LJ           1.66588        -1.76079         1.55029
LJ           5.30642         -1.2429        -5.34443
LJ         -0.880681         1.57945         5.24659
LJ            1.5684        -5.46708         5.05262
LJ          -2.11677        0.721087         3.84801
LJ          -1.82821        -1.67659        -6.15373
LJ           2.25224        -5.18158        -2.75616
LJ          0.263171           5.688        -4.25229
LJ         -0.294368         -5.8396         5.76721
LJ           4.71972        -5.97801         6.13817
LJ          -6.22037         2.12524         5.20355
LJ          -3.09798         2.19072         5.50502
LJ          -1.56618       -0.206134         1.66386
LJ          -4.58065        -6.09551        -3.75629
LJ          0.090546         6.14169        -6.23111
LJ           2.29728        -1.72476         2.28733
LJ          -1.66835        -2.36034         2.96324
LJ          -4.74667         5.39804        -3.45455
LJ           1.76278        -1.48851         3.72254
LJ          -1.84687         2.64849        -6.12587
LJ          -3.40921        0.921209         6.15006
LJ          -1.08549         6.07023        -5.29379
LJ            5.0654        -2.96849         5.06494
LJ          -5.58663        -4.14956         1.60638
LJ           -4.8724        -3.23333         2.39306
LJ           5.58902        -4.69676        -5.72934
LJ           -3.0018         5.17778         5.33131
LJ          0.435223         1.97737        -2.84673
LJ         -0.169227         4.37073       -0.490755
LJ          0.492576         1.28495         3.36446
LJ          -5.16432         1.31593        -0.43482
LJ          -4.77474        -6.17067         3.81704
LJ          0.183558        -0.56064        -4.62893
LJ           1.09627         1.16348        0.534308
LJ          -2.00961        -4.62524         4.17879
LJ          -5.57499        -1.20624       -0.899869
LJ           1.84749        -3.42898        -3.33881
LJ          -5.97856         5.00454        -3.35755
LJ         -0.630434          2.1378        -2.00378
LJ          0.539005        -5.01045        -1.66864
LJ           5.85367         2.20581        -6.40419
LJ          -6.31265        -2.89658        -4.35172
LJ           4.47849        -3.80631        -4.06537
LJ          0.490329        -4.87968         4.95378
LJ           2.34938        -2.24987          6.0788
LJ          -0.70191        -2.02709         -2.8557
LJ          -5.38016       -0.969522        -2.05788
LJ          -5.17738        -6.44065       -0.972036
LJ           2.22908         -5.5401        -1.19383
LJ          -4.55176        -5.12758         5.33382
LJ           6.21357        -4.19894         -1.5489
LJ          -4.93563        -5.18037        -3.33548
LJ           4.77365        -4.34192        -1.08909
LJ           4.25481         5.20995         -2.8132
LJ           3.97823       -0.153815         4.92266
LJ          -3.08035         5.52419         6.24423
LJ           5.02311       -0.561226         5.01215
LJ          -3.52855        -3.59362         1.30219
LJ          0.129008         -2.7703        -1.25482
LJ           -5.8055         4.94943         -4.3488
LJ           5.95071         6.13323        -2.63318
LJ          -2.61969       -0.594673        0.413439
LJ           5.14639        -5.93988        0.708439
LJ          0.549604        -2.99035        -2.89418
LJ          -1.33867        -2.49911         6.28768
LJ          -5.34445         2.00722        -2.83782
LJ          -2.13965         6.06607        -5.30393
LJ          -2.69563         0.46157         1.47974
LJ           4.14292        -1.43962         5.73365
LJ           3.06573         0.24042         6.34876
LJ         -0.740141        -5.59162        0.570535
LJ           1.64742       0.0351832        0.462599
LJ           4.13279         3.14295        -1.92866
LJ           2.23294        0.567515        -3.21094
LJ          -2.74714         1.89958         1.55201
LJ          -5.89238         1.07823        -1.72946
LJ          -1.04254        -6.08056        -5.88804
LJ           6.37287        0.276478       -0.321423
LJ          -3.91662         -6.1034       -0.700245
LJ           5.82073         3.66704       -0.224331
LJ           -0.1677        -2.60422        0.278342
LJ          -2.45228        -3.84379         1.53345
LJ           1.79244       -0.105968        -5.01063
