108
#Comment!
LJ          -4.69847        -6.26253        -4.88858
LJ           2.09541          3.8236        -3.75212
LJ           2.76326         4.10471        -2.31477
LJ           4.80892        -3.90544        -0.23729
LJ           3.21429          1.9635         5.55881
LJ          -4.56329         1.36224          6.3176
LJ          0.388837        -1.54497         6.32105
LJ          -2.70861         4.42128        0.848859
LJ           3.01601         3.41048          4.7979
LJ          -5.93564        -4.62746        0.164409
LJ          -2.64747         2.82873         2.88571
LJ           3.38279        0.848984         1.69669
LJ           1.49382         -2.6482        -1.36015
LJ           2.88192       -0.360509        -6.17799
LJ         -0.149385       -0.335783        -5.06866
LJ            0.4905         4.66809        -4.44421
LJ         -0.985521        0.790075        -1.47462
LJ             4.137        -1.68715        -3.62055
LJ          0.122707         4.22657        -2.10629
LJ          0.876673        -1.59772         4.54452
LJ          -2.85069         1.64581         2.34648
LJ          -3.09434        -1.09829         4.84262
LJ           3.77731         5.97841         5.07603
LJ          0.209648        -3.08344         -6.3866
LJ          0.446083        -2.65974         3.11047
LJ          -1.78128       -0.260571         4.72132
LJ           5.63606        -2.34219          5.4757
LJ           1.75375        -2.17617       -0.117856
LJ           4.88443       -0.583281         -4.3259
LJ          -5.94841        -1.21142         5.72852
LJ           -4.6182        0.214151         2.55327
LJ           1.20573        -5.52067        -5.54276
LJ          0.804912         5.07873          2.2978
LJ           2.62048          3.1955         2.73811
LJ          -4.25261         1.28065         1.99895
LJ          -5.03418          2.8841         3.39663
LJ           6.29465        -6.40612         -5.8247
LJ           3.13321         4.35739        -3.49444
LJ           1.59147         3.37412        -2.84055
LJ          -1.85812        -6.24695        -3.80336
LJ          -1.49106        -4.79363        -4.13781
LJ           1.77447         -6.1895        -4.78926
LJ          -2.23361        -4.66065        -5.95815
LJ         -0.250263         3.09909        -5.37223
LJ          0.631652        -2.72594         4.36959
LJ         -0.329811       0.0622076        -3.93273
LJ         -0.169675        -0.33598        -2.00687
LJ           3.15559         4.68457         -1.3832
LJ           1.61529         1.93135        -3.18812
LJ           2.78549         5.03672        -2.73337
LJ          -2.90277        -6.39834        -3.37823
LJ         -0.818405        -5.86924        -4.45853
LJ           5.12952        -6.15908         4.00863
LJ          -3.76119        -3.06063         4.87948
LJ          -1.97502        -5.74839         6.32328
LJ           4.70991        -3.17834          5.2542
LJ         -0.503881        -3.51198         4.36273
LJ          0.836102      -0.0227529        -2.16621
LJ          -1.62852         5.42351        -5.23336
LJ         -0.280851        -3.58493         5.62388
LJ           3.46399        -2.08692         5.14365
LJ           3.67223         4.51084        -2.37093
LJ          -3.39298         -1.9436        -4.24926
LJ          -4.51944        -3.76262         5.29576
LJ           5.09678        0.241269         -5.4244
LJ          -4.22763        -2.15021          5.5151
LJ           1.19024         5.99939        -1.08425
LJ          -5.13282        -1.84235         4.63052
LJ          0.673977        -0.54627        0.463188
LJ           6.05936        -1.99407        0.938754
LJ           6.06196        -4.52593        -3.70332
LJ          -2.18746        -4.22218        -3.32541
LJ          -6.07411        -1.99199        -5.28218
LJ          -4.75935        -4.41144        -2.02474
LJ           4.02319         5.53191        -3.17777
LJ          -2.57189        -5.60438        -5.48463
LJ          -1.81304         6.27344         4.14748
LJ         -0.124905         -1.3722         3.03808
LJ           3.35863         6.29159        -1.20372
LJ          0.741392        -2.10074       -0.767033
LJ          -2.42967         -3.4314         2.15227
LJ          0.119681        -4.27052        0.858192
LJ            2.4173        -4.56921       -0.542991
LJ           4.67351        0.335035         6.22454
LJ           4.76711         5.33705        -4.30122
LJ          -4.42832         2.41264       -0.503323
LJ          0.180351         1.67311        -3.65618
LJ          -1.08973         6.05656        -4.39276
LJ           5.03866         6.14535         4.98043
LJ          -5.33547        -5.08845        -5.65701
LJ          -1.49287         -3.5175        -4.91411
LJ           5.08179         3.04719         2.13585
LJ           4.16646        -4.70851         4.80764
LJ          -2.99301         -4.0843       -0.694848
LJ          -2.16985         4.09217         3.00362
LJ           3.51501        -1.82574       -0.423368
LJ           3.94532         5.86992        -5.09123
LJ           5.62319      -0.0404457        -2.95118
LJ          -2.04904         4.77998         1.84468
LJ          -1.23043         3.74059        -3.36122
LJ           6.40632         6.03407         3.96415
LJ           6.46208         5.85494         5.24705
LJ           5.61277         6.16142        -3.77116
LJ           6.02194       -0.200051         5.50943
LJ          -5.11534        -5.69437         4.36712
LJ          -1.49224        -1.79587        -1.62695
LJ           3.16426        -2.62718         2.19886
LJ           6.06517        0.733482         1.33176
