108
#Comment!
LJ           1.70762          -6.439        -3.18061
LJ          -3.48598        -3.48662        -4.94957
LJ          -5.07258         1.34184         1.83494
LJ           2.47848        -4.16769        -3.84818
LJ          -2.11308         3.61258         3.77098
LJ          -4.34464        -0.31648         6.10688
LJ           2.74614        -2.53891         4.67813
LJ          -2.06851         2.07587        -3.13469
LJ          -2.36563        -6.29745         6.27359
LJ           5.28583        -2.45774        -2.98352
LJ            -1.445         4.17004         -1.3727
LJ          -1.03538        -4.13425        -1.41287
LJ          -3.93593        -6.18391        0.639559
LJ           3.26109         4.46319        -3.99933
LJ          -3.84792        -4.69322         2.04544
LJ          0.724604         1.93963       -0.289602
LJ          -1.20388        -1.69494        -3.43462
LJ          -3.69744       -0.641227         1.08793
LJ          -4.11827       -0.190784         2.08488
LJ          -5.85998         -2.3948        -5.92328
LJ         -0.974532         3.62897         4.90094
LJ            5.0031          4.5034       -0.821095
LJ           1.63497          2.4218         1.07594
LJ      -0.000483326        -4.15554         3.19154
LJ          0.279309        -6.13073         1.41709
LJ           1.02342        -2.01558         1.60968
LJ           5.27767        -1.40861         -6.0908
LJ         -0.569551         1.16919         5.47515
LJ           1.49192         -5.3261         4.74655
LJ          -1.49536        0.970322         3.34476
LJ          -1.32993       -0.783021         6.44591
LJ           1.84189        -4.79647         -2.8511
LJ          0.457085         5.77004        -4.61627
LJ        -0.0906223        -5.49016         6.11148
LJ            5.1041        -5.59581          6.1357
LJ           6.26257         2.61771         5.51206
LJ          -3.87572         1.33192         5.99759
LJ          -1.34048       -0.440955         1.54123
LJ          -4.32779         6.44615        -3.10913
LJ          0.181279        -6.35596        -6.32622
LJ           2.83898        -1.14606         2.44444
LJ          -1.59311        -3.19088         3.14184
LJ          -4.67273          5.2252        -3.27733
LJ           1.64972        -1.67458         3.41732
LJ          -2.07402         2.66851        -5.82438
LJ          -2.82214          1.3183        -6.01591
LJ          -1.69442          5.0718        -6.00149
LJ           4.84812        -3.20508         5.43215
LJ          -4.73212        -3.77756        0.917079
LJ          -4.66269        -3.12567         2.12893
LJ          -6.42197        -4.79213        -5.89115
LJ          -2.84151         5.08357         4.88633
LJ         0.0915186         2.25175        -3.24148
LJ        -0.0561698         4.83879        -1.29498
LJ          0.334659        0.542216         3.35398
LJ          -5.14025        0.572537        -0.65677
LJ          -4.48007        -6.04802         4.84127
LJ          0.511869       -0.289455         -4.5108
LJ           1.28831        0.955745        0.568303
LJ          -2.64672        -4.62347         3.69605
LJ          -5.88778        -1.92562        -0.39125
LJ           1.88589        -1.96401        -2.75144
LJ           6.42309          4.7306         -3.2156
LJ         -0.910195         1.94255        -2.02639
LJ          0.301629        -4.32234        -1.65724
LJ           5.78463         2.75982         6.39272
LJ           -6.0716        -1.59947        -3.74928
LJ           4.59211        -3.86358        -4.75506
LJ           0.59135        -4.48882         4.89244
LJ           2.11618        -3.04949         6.28886
LJ          -0.26021        -1.77825        -2.20231
LJ          -5.30789        -1.44061        -2.10594
LJ          -4.85998        -6.22608       -0.245991
LJ           2.00828        -5.50774       -0.833428
LJ          -4.56256        -5.12815         5.73879
LJ           5.47176        -4.70095        -1.94736
LJ          -4.90576        -5.29502        -3.29968
LJ           5.19599        -3.76994        -1.21659
LJ            4.8092         5.01629         -2.7811
LJ           4.31229       -0.187723         4.62176
LJ          -2.67385         5.63497        -6.10347
LJ           4.83479       -0.828707         5.80318
LJ          -3.97382         -3.6903         1.65809
LJ         -0.766371        -2.88052        -1.63684
LJ          -5.91057         4.96653        -4.82351
LJ           5.88963         5.66465        -3.15915
LJ          -1.15646       -0.248066        0.295462
LJ           4.73421         6.07185        0.516904
LJ           1.18909        -3.42833        -2.72029
LJ          -1.23647        -2.35517         6.02744
LJ          -5.25811         2.06885        -2.85548
LJ          -2.68257        -6.39681        -5.04769
LJ          -2.29438      -0.0271826         1.96725
LJ           3.71712        -2.35526         5.33132
LJ           2.58889        0.469065         6.32185
LJ         -0.523327        -5.00725        0.157126
LJ           1.54133       -0.203338        0.653066
LJ            3.4952         2.89133        -1.95386
LJ           1.64425        0.333465         -4.0704
LJ          -2.58807         2.29306         1.94735
LJ          -5.76986        0.519765        -1.81999
LJ          -0.93146        -5.10098        -6.04122
LJ          -6.14642      -0.0949307       -0.231106
LJ          -2.88927         6.09309       -0.587718
LJ           5.84765         4.28224        -0.19036
LJ          0.322115         -3.1335        0.510211
LJ          -2.80165        -3.44161         1.21904
LJ           1.94119       -0.303561        -5.25757
