108
#Comment!
LJ          -1.92113       -0.202603         1.76305
LJ          -1.63293         5.86327        -1.26828
LJ          -3.87011         5.84305         5.61087
LJ          -3.71225         2.75271        -6.45434
LJ          -4.89387         4.16225         4.32719
LJ         -0.098467        -2.29475         6.12136
LJ           4.63034        -4.77087         5.51682
LJ           1.98128       -0.948713         -5.5563
LJ           -1.3887         5.16721        -4.02586
LJ           6.42607        0.646676         6.21633
LJ           2.95198        -1.83778         5.00974
LJ          0.886416        -1.43653        -1.26851
LJ           -3.1732        -1.05832        -3.86698
LJ          -1.90106        -5.95072         -5.8867
LJ          -5.54675         1.59937        -2.57021
LJ          -4.03796         1.38623         -2.1543
LJ           2.84311         -3.7657         2.26933
LJ          -5.71141        -4.62128         1.92083
LJ          -3.19728        -5.01201         1.14918
LJ           1.47887        -4.29946        -1.50579
LJ          -5.09768      -0.0564445         3.86151
LJ          -3.31357         2.23787         1.27246
LJ          -2.84363         3.37061        -4.61935
LJ          -2.36638          2.6347        -5.65878
LJ           -1.0971         -1.5227         1.78731
LJ           4.88767         -2.4381          3.5132
LJ          -2.82407        0.018905         5.63225
LJ           3.24901        -3.06359         6.34971
LJ           5.06502         -1.0424        -2.91591
LJ           3.54271         4.91333         4.06589
LJ           5.95449         3.12074         6.29656
LJ           6.31779        0.862338        -5.21983
LJ           2.03339      -0.0114818         1.93186
LJ           1.32961         3.42343        -4.86357
LJ          0.674692       -0.473439         1.71772
LJ           6.14783        -5.97303        -2.42765
LJ          0.861046         1.16915         -2.3778
LJ           2.45261        -4.06388         4.75497
LJ          -6.22974         -1.5698         2.20322
LJ          -1.73155        -1.06484        -3.02828
LJ           4.02342       -0.411122        0.917847
LJ          -1.83163         1.69507        -2.34806
LJ          -2.92319        -1.95751         4.18462
LJ           6.16413         2.09853         6.01859
LJ           2.01727       -0.564979        -4.19268
LJ            5.3787        -4.63967         1.53141
LJ          -5.89306        -3.62438        -3.01465
LJ           5.80905        -2.32442        -1.62551
LJ          -2.92476         5.98076        -2.37765
LJ           5.54576         6.24938        -6.13512
LJ            6.0622       -0.620451        -1.74176
LJ         -0.659048         2.67179         2.24774
LJ          -2.71725         -1.3441        -5.49109
LJ           6.29739         2.96178        -4.36766
LJ           6.19999         4.16442         4.23904
LJ          -6.13893         6.17847         5.02384
LJ           6.05112        -3.28552         4.27803
LJ          -1.73583        -6.02526         -2.5649
LJ          -1.55522        -1.28643        -1.80243
LJ         -0.102379         1.11233        -2.93898
LJ          -1.02275         4.85717        -5.18213
LJ          -3.03428         5.92241         2.03609
LJ            2.3662        -1.95819        -5.34734
LJ          -3.91786         3.76962        0.942511
LJ          0.522791         3.36095       -0.961583
LJ            0.8478          5.4621        -5.65337
LJ          -1.89045         5.00882       -0.174782
LJ          -2.33532         -1.4878        -4.15714
LJ          -6.37552       -0.422939        -4.47711
LJ            5.4559         5.33751         4.81875
LJ        -0.0688258      -0.0652712         4.18012
LJ          -5.73903         4.03365         4.81721
LJ           4.16615         4.06276         6.13983
LJ          -5.39583        -6.45901       -0.440456
LJ           -4.6443         5.94968        -2.33185
LJ           -5.8626         5.81214         3.97294
LJ           6.30104        -3.41706        -2.16301
LJ          -1.24513         4.79669         3.66375
LJ           6.21105         2.42989         -2.9077
LJ          -3.32221         1.33203         2.56954
LJ           -2.5342        -3.82054        -3.20478
LJ           5.30572        0.649527       0.0477444
LJ         -0.336714        -6.10349         1.78323
LJ          -3.83193         5.22109         4.49714
LJ          0.275909         4.79943        -6.45325
LJ           2.39597         5.04105         4.46326
LJ           4.04343          4.2466       -0.769017
LJ           6.05727         -4.5458        0.520328
LJ          -1.91324       -0.744409        -4.65352
LJ          -1.05159         6.32742         5.21353
LJ            2.7053      -0.0323645        -1.57682
LJ         -0.655557       -0.275093        -2.66796
LJ          -5.38188         -2.0531        -6.02183
LJ           2.42332        0.140392         -3.4328
LJ          -4.51594        -6.07775        -5.60945
LJ           3.63742        -5.13293         1.84982
LJ           2.76166         5.08343        -6.16312
LJ          -4.67768         6.19465         0.31538
LJ          -4.46808        -5.64048        -1.42896
LJ           5.05424        -4.27016         3.82808
LJ          -2.50519         6.36018        0.805285
LJ            5.7897        -6.36692         2.34606
LJ          -1.15533        0.772524         1.28367
LJ          -5.42112         5.55875        -4.93643
LJ          -3.69646         1.87615        -1.30858
LJ           3.91612        -3.87279        -3.50647
LJ           3.93862        0.855599         1.19448
LJ          -4.90613         -5.9951        -2.61274
