108
#Comment!
LJ          -6.40686         2.87466        -2.94067
LJ           1.66159         3.29276        -1.97876
LJ           1.66889         5.74886         -3.2407
LJ          -4.89925         5.34892         2.59497
LJ            4.4662        0.611709         5.08948
LJ           6.19272         1.83634        -6.36465
LJ           0.23224        -4.19133         6.39988
LJ           -1.8191         5.53751        -1.33108
LJ           2.85235          4.1335         6.05253
LJ           6.17688        -3.22606         1.67632
LJ          -4.67783         3.17505         3.48759
LJ           3.78998        -1.08212       -0.232711
LJ           2.76695        -3.45509       0.0675823
LJ           5.18609          -1.557        -4.20972
LJ          0.214041         2.06586        -4.89095
LJ          -2.46322         3.94398        -3.30128
LJ          -3.67355         2.05289       -0.525689
LJ           5.04865        -4.12793        -1.08885
LJ           3.40756        -6.16222        -5.68593
LJ          0.108935        -2.64692         4.77649
LJ           6.23994         2.81637         2.08654
LJ         -0.208989        0.404513         3.46708
LJ           2.73515        -3.42415         2.99858
LJ           1.50667        -3.05485        -4.92499
LJ           2.00025        -4.33389         4.14525
LJ          -4.84694        0.454791        -3.20793
LJ          -2.46027        -3.14684         4.95487
LJ           2.28577        -4.72091        0.827597
LJ           4.01092        -2.33462        -5.47089
LJ             6.264         1.38923         5.43933
LJ           6.39799        0.525955         1.54568
LJ           3.94136        -3.52256        -6.21505
LJ          0.811166         4.53076         4.72725
LJ           0.15081         2.94645         1.81056
LJ           -5.8259        0.101434         2.58922
LJ            6.0622         4.08415         2.03082
LJ          -5.65842         4.14242         4.79847
LJ           1.57444         5.66799        -4.53293
LJ          0.824005          5.4069        -2.38942
LJ          -1.44189         6.22384        -3.44188
LJ          0.134028         6.02721         -4.9261
LJ           1.26683        -5.84619         -2.4293
LJ          -1.84926         -5.8127         4.72169
LJ           1.67142         1.95937        -4.47704
LJ          -1.85798        -2.34084         4.46878
LJ          -3.75736       -0.160248        -2.67426
LJ         -0.347999         2.07292       0.0555865
LJ           1.83513         5.44305        -1.56746
LJ           4.77854         1.37864        -3.96118
LJ          0.354642         6.33858        -3.28331
LJ         -0.873377         5.71427        -2.43625
LJ          -2.17797         5.57316          -4.783
LJ           4.04718          3.0925          3.0794
LJ          -3.82418         -3.9326         2.64318
LJ           -1.3467        -6.31467         6.00482
LJ           6.18494        -2.78984         5.34334
LJ          -1.45961        -2.13284         5.48095
LJ          0.412146      -0.0276088         1.05192
LJ          -3.79771         6.37659        -4.57314
LJ           1.23556        -1.97114        -4.76384
LJ            2.6765         1.00323         1.55733
LJ           1.68407        -5.84428        -3.82972
LJ          -2.14584       -0.174817        -5.78712
LJ          -3.48892        -6.00416         6.32938
LJ           4.74214        -0.21969       -0.897057
LJ           -1.3793       -0.638078         5.81329
LJ          -2.13577        -3.50834        -1.72125
LJ           -3.4466        -3.01546         3.00245
LJ           3.15727        -1.84222        -1.17602
LJ           2.34607         2.06394       -0.546064
LJ           5.43076        0.268031        -6.40618
LJ          -4.43701         6.03856        -2.49523
LJ          -6.09386       -0.187658         3.96435
LJ          -6.27938        -3.03407         -1.6288
LJ           2.45699         6.02076        -3.93124
LJ          -1.77371        -4.78557         5.49626
LJ          -1.83428        -6.39809        -5.76151
LJ           2.66162        -5.10724         4.68643
LJ           2.63995         5.51421       -0.710544
LJ            1.6232        0.135972         1.72922
LJ          -2.33609         1.11426         1.51345
LJ           1.37368        -5.10045         0.34203
LJ           6.30091       0.0252382        -1.01526
LJ          -6.23547        -0.21564         5.04611
LJ           3.21912         6.31527        -4.41953
LJ          -3.06562        0.732843         -6.3517
LJ           1.22132        -1.12586        -3.51091
LJ          -2.02279          5.2006        -3.66008
LJ           6.42315         3.10256         4.82189
LJ          -6.31327        -5.10259        -2.49181
LJ         -0.788998        -3.97477         5.67406
LJ          -4.15123         4.63722         2.41137
LJ           4.04411         5.35822         5.95213
LJ          -4.21107        -4.89109         1.11912
LJ         -0.851828          4.0436        0.330896
LJ           3.59798        -5.12203       -0.103139
LJ           2.53885         5.53524        -6.35022
LJ           1.93781        -1.17642      -0.0275205
LJ         -0.937528         1.76315         2.20033
LJ          0.604414          3.8852        -6.36306
LJ          -5.02356         5.17895         5.01728
LJ           5.06497         3.40076         4.11775
LJ           4.00052        -6.38872       -0.396813
LJ          -5.24818        -1.71935         4.80406
LJ          -3.50292          5.8864        -6.28127
LJ          0.396974         0.29639        -3.76025
LJ           1.27615          2.0742        0.778379
LJ          -6.22258         0.24696         -2.1154
