108
#Comment!
LJ           3.30133         3.65439        0.531647
LJ           4.68621        0.601396        -3.28958
LJ           -4.7676         5.51815       -0.558327
LJ           4.37398         1.61629         -6.3852
LJ          -4.04356         2.43216         4.21892
LJ          -5.73402        -1.60516         5.84463
LJ          -2.04748         -4.7586        -6.13899
LJ            0.2452          3.0203         6.30883
LJ         -0.027623          3.8812        -5.55645
LJ            5.3463        -1.86352        -6.32198
LJ         -0.324002        0.942791         1.03662
LJ          -1.54334         3.62368        -3.84192
LJ           5.32151         2.77562         1.51258
LJ          -5.82059         4.58381        -3.54855
LJ          0.829823         -1.5818         5.93316
LJ          -4.65167         3.11533        -5.65359
LJ          -5.74065        -3.69858        -5.37984
LJ          -2.74412         3.01202         1.05482
LJ         -0.810482         2.18279         3.07897
LJ            -2.708        -2.56606        -1.66982
LJ          -1.46045        -5.95989         3.23633
LJ           -5.9057         3.82856        0.415594
LJ         0.0140975       -0.366347        -3.43766
LJ           6.21279        -6.06269        -4.06473
LJ          -2.83805         6.35691         4.84947
LJ           2.84977        -1.67807        -3.21256
LJ           5.88988       -0.377629       0.0599196
LJ          -1.31532         2.86228         1.67021
LJ           2.91803         -4.0743          6.4283
LJ          -6.23774         1.34628         -4.4069
LJ          -2.30607         5.91176         5.89852
LJ           4.65269        -2.73133         -3.6246
LJ           1.06842         2.67976       0.0434907
LJ          -1.40122         3.16808         -6.0002
LJ            1.6897         4.32091         6.11427
LJ          -5.04135         -1.6843         3.63207
LJ           4.05163          3.2806         1.15753
LJ          -2.96082         1.92058         2.86545
LJ          -4.91146        -4.58108         4.92256
LJ           -2.2958         3.62885        -5.39521
LJ           3.62979        -1.51906        0.862154
LJ          -4.11739         2.34706         2.33111
LJ           -4.0424        -4.67755        -4.51537
LJ           3.32382      -0.0282073         4.44899
LJ          -0.25736         2.95697         4.89957
LJ         -0.596845         3.66158       -0.995955
LJ          -2.42584        -3.42655         1.28236
LJ           6.44436       -0.921113         2.35899
LJ           1.29359         5.46746         3.58321
LJ          -5.28356        -3.60101         5.33972
LJ         -0.425792         -3.5079        -4.18876
LJ          -2.97711         4.21734         3.16188
LJ          -0.42295          -1.779        -3.97281
LJ          -3.96677            1.43         4.00903
LJ           4.72745         2.83606         2.28401
LJ           5.37264         4.89226         1.55485
LJ           -6.4186        -5.55603        -2.93259
LJ          -1.46465        -2.38483        -5.18908
LJ           1.70909        0.664026         1.20387
LJ           0.17573        -6.15096         -5.1023
LJ          -4.81702         3.62955        -1.27102
LJ          -1.12503        -4.63125        -3.19603
LJ           6.38365         6.11364        -3.26609
LJ            1.8991         4.49494         -1.1932
LJ           3.25545          4.4529        -2.63603
LJ          -3.53273        -1.58295         6.36983
LJ          -3.99265         4.14825        -3.37496
LJ          0.630119        -2.09189         1.16517
LJ           2.82994         3.41572         5.90593
LJ          0.228377        0.037998         4.91142
LJ          -5.23123        -1.99536        -5.10318
LJ          -6.29676          3.5301        -3.83116
LJ           -5.3252        -4.28608        -4.45747
LJ         -0.850528        -5.85557        -1.48729
LJ          -4.55256        -5.43048         2.13908
LJ          -2.43651        -1.08848         1.57165
LJ           6.43364        -4.27615        -2.87745
LJ           4.48863         5.24168         1.26855
LJ           3.71948         5.49668        -2.93185
LJ           6.21969        0.191704          3.5762
LJ          -4.55381        -4.87789        -5.77255
LJ           3.77621        0.232482         1.07268
LJ         -0.232471         -4.1902         1.49382
LJ           5.34047        0.564789         1.63309
LJ          -4.29415         4.94139        -5.46167
LJ           4.52939         5.07702        0.175082
LJ           5.24018         1.75214        0.340315
LJ          -4.48236        0.286887         3.38294
LJ         -0.793128        -1.60678        -2.90548
LJ         -0.781473        -5.77156         6.29706
LJ           6.03176        0.976024        -1.13436
LJ         -0.188838         4.14615         4.99433
LJ          -3.34538        -2.17247        -2.80518
LJ           4.85021         5.19333        -5.59242
LJ          -5.70487        -2.17657        -6.13423
LJ          -3.02959         5.55943         2.71531
LJ           1.76052         1.96157        0.660132
LJ          -5.39961         5.34646        -2.60417
LJ           2.20127         2.15733         1.76401
LJ          -4.52153         3.88401         1.22985
LJ          -5.94562         3.38043       -0.785154
LJ          -1.93183         4.43858         4.44558
LJ          -5.62907         2.86546        -2.51619
LJ            6.0219        -1.10791        -2.75215
LJ             2.785         2.03918        -1.50616
LJ          -3.39339         1.04632        -2.14761
LJ          -1.28835        -4.20048        0.765376
LJ         -0.283841        0.240548        -2.27494
