108
#Comment!
LJ         -0.276372         6.01203         6.22286
LJ          -3.88633        -5.67771        -2.81958
LJ          -3.53779       -0.499377        -1.64412
LJ           4.63027        -3.11142         -4.8926
LJ         0.0152866         4.38261         5.04075
LJ          -4.00909        -1.17538        -6.35147
LJ        -0.0334097        -2.81942         4.87742
LJ          -4.15391         1.10901         3.07064
LJ         -0.187493        -5.32713         6.13783
LJ           1.88706        -2.63335         3.13569
LJ          -1.05872        -5.61385        -3.06553
LJ        0.00417805        -2.07378         2.64508
LJ          -4.45286        -1.57172         4.28257
LJ         -0.453518         3.65135        -5.82564
LJ          -6.33376        -1.99981        0.820572
LJ          -1.96007         5.71354         3.32311
LJ           2.09795        -1.30363        0.548589
LJ          -4.22856       -0.848317         -4.0936
LJ           5.92275        0.216199         1.41477
LJ          -2.93835        -3.88444         1.90621
LJ          -3.07258         5.04491         6.13727
LJ          -5.18337         5.67455        -2.11464
LJ           1.55468         3.77437         4.54927
LJ          -4.65884        -5.51419       -0.777862
LJ         -0.415763         1.22164        -1.87535
LJ          -3.11131        -5.19129       -0.384087
LJ           2.26157        -5.78308         3.69537
LJ          -6.40048         1.38092         3.14924
LJ          0.742115        -3.09328         4.10654
LJ           1.48015         3.21877       -0.505028
LJ          -2.11553        0.443905        -5.32436
LJ           1.17748         4.80481        -5.27467
LJ          0.194533         4.09547         6.00682
LJ           1.82624        -3.46501         5.87951
LJ          -2.30708         5.16055        -5.40082
LJ           5.21923         5.23127         4.28489
LJ            3.5526        -3.97983        -2.36436
LJ         -0.218689        -0.15031         1.67804
LJ          -3.53404         6.41289        -1.25793
LJ          -1.09279        -4.34192        -5.02403
LJ           4.92221         3.88025         4.16271
LJ         -0.338564          4.5271         2.92743
LJ           6.46276         5.91962        -3.32841
LJ           1.52105        -1.48418         2.64854
LJ          -3.11395         5.98524        -4.09996
LJ          -2.66264           4.167        -5.15441
LJ             5.119     -0.00348719         3.95018
LJ           5.94752       -0.676818         5.49432
LJ           1.97622        -1.59228        -3.00282
LJ          -3.91034       0.0165593         2.28835
LJ           6.12181        -6.18411        -4.48154
LJ          0.720094         2.23433         4.15654
LJ          -2.86397         1.83321        -4.35091
LJ        -0.0230576         -5.0988        -3.46151
LJ          0.782784        -3.45464         6.29649
LJ          -3.92087        -4.27648        0.166445
LJ           6.34925         4.39419        -2.92789
LJ          -3.68622        -2.32271         -5.2978
LJ           2.27222       -0.237297         1.29863
LJ          -5.49164        -4.79849         3.00288
LJ           5.76057         6.45342          2.9272
LJ           2.25404         6.09868         3.14354
LJ           5.45612       -0.252317        -3.66364
LJ          -1.41059         2.32016        -1.08671
LJ           1.05538         1.79296       -0.853033
LJ           3.76897        -6.24657         6.41211
LJ          -5.49166         4.23151         5.95918
LJ           2.44433        -4.17088        -3.59198
LJ           1.29339        -3.85795         3.62751
LJ           3.90023        -6.05864         5.22997
LJ          0.830843       -0.163085         1.80897
LJ          -5.03432        -2.37822       -0.275255
LJ          -0.84637          5.0623      -0.0197597
LJ           4.67708        -6.41358         -1.2484
LJ          -1.47007       -0.604367        -4.76162
LJ         -0.891137         5.89534        -4.29595
LJ          -2.83928        -6.22947       -0.140977
LJ          -6.08491       -0.337844        -4.43927
LJ          -4.92424         5.56542       -0.995011
LJ           4.86789        -3.53329        -5.79114
LJ           -4.6148        -3.47779         -2.1855
LJ           3.90475         3.04679         5.76273
LJ           4.88464         5.33341        -1.73398
LJ          -4.55361        -4.89725        -3.15623
LJ           5.46998         4.93924          5.4909
LJ           3.87611        -6.13241        -3.53795
LJ           -5.0826         2.98089         4.30432
LJ           2.82914       -0.148084        -1.80728
LJ           4.91572        -2.36456        0.304828
LJ           1.13305        -1.86464          4.7101
LJ          -3.01024         1.71186        0.187922
LJ          -1.32775        -6.19868         4.90202
LJ        -0.0739265        -3.08701         2.05028
LJ           1.05694        -5.37139         4.13742
LJ          -1.78262        0.712225         4.54954
LJ           1.58247       -0.826203        -3.93637
LJ           1.35699         5.53634         2.25003
LJ          -0.73148         3.13264         -3.6895
LJ             4.819         2.23414         6.08717
LJ          -3.31301         3.10665          2.4153
LJ          -3.27285        -3.15632        -1.19033
LJ         -0.815966         1.64762        -6.32652
LJ           4.83031        -5.23161         -2.2155
LJ           5.23793       0.0796192        0.606565
LJ           5.70791        -6.45926        -3.11616
LJ           2.86659         4.42477       -0.335988
LJ          -4.13995        -6.39648         1.96556
LJ          -1.73478       -0.156747        -6.32724
