108
#Comment!
LJ           5.99879        0.690855        -2.03856
LJ           1.08345         3.01596        -2.04835
LJ           1.20396         6.06323        -2.78319
LJ           -3.7154         3.67115         4.24173
LJ           3.55419       -0.039199         4.90228
LJ           6.06599         2.92742          6.3548
LJ         -0.887834         -5.2855         5.92151
LJ          -1.80528         6.09679        -2.40526
LJ           2.40225         4.16111        -6.10277
LJ           5.70594        -2.63024         2.39719
LJ          -5.54224         2.94848         2.63167
LJ            4.7432       -0.967595       -0.648651
LJ           3.76201        -3.83336        0.616974
LJ           6.04033        -2.63237        -3.23767
LJ         -0.135273         3.00915        -4.83986
LJ          -3.45948          3.4703        -1.23662
LJ          -4.55841         3.04545       -0.138887
LJ           5.08713         -5.2756        0.280294
LJ           5.36334        -5.67798         6.37807
LJ        -0.0965321        -2.30289          4.6718
LJ           4.54897         3.58462         2.24592
LJ           1.41603         1.27269         2.58991
LJ           1.88281        -1.63593         2.70945
LJ           1.63755        -2.31156        -4.34469
LJ           3.90163        -5.49951         5.14287
LJ          -6.13143         2.19909        -1.98971
LJ          -1.19233        -3.83832         5.50077
LJ           3.12095        -5.22793        0.218885
LJ           3.65943        -0.97535         6.07824
LJ           -6.0446         2.39857         5.84979
LJ           5.34844       -0.561982        0.863141
LJ           5.43512         -3.1568         4.67011
LJ          0.657341         4.98799         4.61995
LJ         0.0755809         4.57792          1.7928
LJ           5.96669       -0.254061         2.33138
LJ           5.06695         5.56557         1.70273
LJ          -5.54148         3.54887         4.52028
LJ           1.05588         5.31021         -5.1299
LJ       -0.00297981        -5.86452        -1.66753
LJ          -1.81725         5.35404        -3.45653
LJ          -1.42067         5.31885        -5.78977
LJ          0.550536        -5.50433        -2.75207
LJ         -0.935849        -6.02435         4.02468
LJ           2.35846         1.94768        -4.13931
LJ          -2.48304        -1.58966         4.99087
LJ          -4.30475       -0.722208        -1.29442
LJ          0.137917         2.86995        0.869589
LJ           1.61933          5.4848         -1.5547
LJ          -5.82027        0.852727        -3.69496
LJ          0.102933        -6.41011        -2.88892
LJ          0.353339         5.52136        -2.40618
LJ          -3.24862         4.86622        -3.90058
LJ           4.10133         1.38085         2.87213
LJ          -3.65281        -4.13212         1.67023
LJ          -1.67384        -6.36873        -6.41397
LJ          -5.89324        -2.38194         5.40384
LJ           -1.6246        -1.07601         5.55389
LJ          0.284572        -1.18251         1.69424
LJ          -4.11488        -6.22564        -4.26977
LJ            2.6379        -1.67753        -4.30257
LJ           1.63368         2.14706     -0.00926359
LJ          0.604823         6.41029        -4.03111
LJ           -1.0222       -0.502382         -6.0863
LJ           -3.3095         5.56289        -6.12056
LJ           4.47071        -1.13328          1.1504
LJ        -0.0289533       -0.946885         5.58605
LJ          -3.75649        -1.84834        -2.04593
LJ          -2.71229        -3.64841         1.96328
LJ           3.32817        -2.10343        -2.43809
LJ          0.352319         3.16782       -0.630124
LJ           3.91806          1.4611         5.24127
LJ          -5.57563         4.94637        -2.32101
LJ           6.34672        0.543831         4.06529
LJ           5.79107        -2.44979        -1.44577
LJ           1.78374        -5.52851        -3.94418
LJ         -0.643093        -4.47697         4.27437
LJ           -1.7754        -5.32346         6.38455
LJ           2.62504         6.35833         5.11632
LJ           2.78131         5.54614       -0.194698
LJ           2.38932         2.16682         2.58405
LJ          -3.18993         4.21351         1.97091
LJ           2.24903         6.15649        0.423791
LJ          -5.26137          1.7252        0.138308
LJ          -4.90062        0.186366         4.09037
LJ           4.28694        -5.19927        -5.89656
LJ          -3.73893        0.765097         3.76302
LJ           1.03488        -2.22778         -3.3405
LJ          -1.86623         4.25672        -3.98716
LJ          -5.53357         2.43447         4.20549
LJ           6.00491        -4.85865       -0.925005
LJ          0.252332        -5.20205         5.29066
LJ          -1.89592         4.37985         1.81223
LJ           4.06089         4.05541        -6.36124
LJ          -4.88132        -5.31323         2.11643
LJ          0.487852         4.51635       -0.731678
LJ           4.41187        -5.09276       -0.711381
LJ           2.03588         5.78911         6.32735
LJ           1.72692        -3.24712          1.0963
LJ          -2.99634          1.6311         3.21806
LJ           1.68372         3.32083         6.44855
LJ          -4.61648         3.31734          5.5625
LJ           3.98189         2.45342         4.38266
LJ           3.30285         4.23502         1.24488
LJ          -3.52193        -2.04444         3.07215
LJ          -3.83718         5.08629        -5.29173
LJ           1.81787         1.14103        -5.05177
LJ          0.466606         4.41789        0.673219
LJ           5.64992       -0.878319        -3.30527
