108
#Comment!
LJ          0.524377        0.841928         1.13522
LJ          0.625327         3.66712        -1.67201
LJ          -4.68655         6.45104        -5.33224
LJ          -3.28812         2.09247        -6.41143
LJ          -3.57429         5.22133         4.69928
LJ          -2.36273        -2.20061          5.7631
LJ          -5.73213        -5.47225         6.00594
LJ          0.810921         0.13609        -5.80109
LJ          -2.39445         3.73276        -5.52691
LJ           5.60285       -0.757291        -6.15259
LJ           1.79721       -0.942012          3.1356
LJ         0.0133559       0.0509473        -1.78289
LJ          -4.32566      -0.0386055        -2.01638
LJ           -4.5916         4.72455        -6.08894
LJ           4.47526        0.527906        -3.98343
LJ           3.38073         3.71188        -4.24082
LJ           3.54915        -3.29147         4.51927
LJ           -5.4638        -3.10907        0.236975
LJ           -2.0025        -2.12033         1.15073
LJ       -0.00783408        -1.69944        -1.68864
LJ          -4.04656         -2.2237         3.47815
LJ          -3.85253         4.58314        0.572079
LJ          -1.95356         1.89333        -4.06599
LJ          -3.72139         5.65547          6.2892
LJ          -1.69692        -3.44535         3.15378
LJ           4.47734        -2.28576         5.69888
LJ          -3.91814         1.28865         5.63945
LJ           1.87932        -1.14074         4.41794
LJ           3.74913        -3.03572        -4.00187
LJ           4.18743         3.08424        0.877057
LJ          -5.35572         3.10054         4.53777
LJ           6.22315       -0.490321        -4.63151
LJ           2.15553           1.825         1.47294
LJ          0.579042         2.72356         -4.5207
LJ          0.530297         1.36751         3.47089
LJ          -5.15194        -4.96644         1.34136
LJ          -2.40661         2.93013        -1.79894
LJ           6.13431        -6.40555         4.57756
LJ          -5.05843        -2.29758         3.31416
LJ          -3.04465        0.594166        -4.79935
LJ           5.10857        -1.80502       -0.555134
LJ          -3.12531         2.17956         1.22688
LJ          -3.69667        -2.46883        -6.44275
LJ           4.92958         1.26462         5.18561
LJ           1.64887         1.05574        -5.88988
LJ           3.08235         6.32032         5.69618
LJ          -5.13061        -2.84883         6.36696
LJ           6.46016       -0.113986       -0.532695
LJ          -1.30411         5.44609        0.145616
LJ          -5.21643        -5.62146        -5.40615
LJ          -4.57689         -1.9602       -0.444184
LJ          -1.10787           3.684          2.3244
LJ          -1.99415        -1.40371         -4.6516
LJ           5.83706         2.86911        -3.95202
LJ          -6.40578         3.24341         3.89274
LJ          -5.54292         4.81504         5.99749
LJ           5.88153        -4.62662         4.73608
LJ           -2.1156        -4.31578           -3.45
LJ         -0.740953       -0.611344       -0.188819
LJ         -0.532869         3.11856        -3.56526
LJ          -2.72862         4.57187        -3.82261
LJ          -2.76756         -6.2848       -0.606714
LJ            4.6025        -4.53756         3.63145
LJ          -6.06262          4.4948        0.558743
LJ           3.91228         3.03098        -2.64892
LJ         -0.639698        -5.05382        -6.10351
LJ          -3.91573         2.85592       -0.533049
LJ          -2.63888        -1.45013       -0.476929
LJ           4.57224         1.11966        -5.62832
LJ          -5.34336        0.645162         4.77282
LJ             3.136       -0.382055         5.32181
LJ           -5.6974         4.40171        -5.80453
LJ           5.49763        -5.72033        -6.06452
LJ          -4.64889         6.11834       -0.285495
LJ          -4.66017        -5.67678       -0.266862
LJ              2.86         2.77018         3.11474
LJ           5.60563        -2.74101        -1.34664
LJ          0.764344         4.66037         2.58655
LJ           4.59191         2.92308        -4.09575
LJ          -4.07706        0.508199          2.5867
LJ          -2.93447        -3.30049        -4.13768
LJ           4.64926        0.791409       -0.919097
LJ         -0.208802        -5.40838         1.73904
LJ          -4.79655         3.92366         5.24612
LJ          -2.02646         5.45626        -5.67392
LJ           2.43678          4.3606         2.80851
LJ           5.12174         3.47933       -0.504648
LJ          -4.65127        -1.93855        0.542511
LJ         -0.895007         -1.1043        -4.35924
LJ          -2.48091         5.79252         5.04542
LJ           3.77505        0.148139      -0.0654894
LJ          -2.17189         2.08277        -6.13924
LJ          -4.44026        -4.13655        -5.00009
LJ           4.47002        -2.10127        -4.26623
LJ          -4.65934        -5.01781        -6.38048
LJ           5.59658        -4.97797          3.2534
LJ           2.44841         4.02622          4.4292
LJ           -4.8934        -5.90346         2.71615
LJ          -1.98338         4.51737        0.155112
LJ          -5.91244         6.35233          3.6181
LJ          -5.08899         4.81973       -0.160727
LJ          -4.68675        -1.91234         1.91437
LJ          -2.28057         1.64885       -0.339779
LJ          -6.00763         2.30822        -5.23949
LJ          -1.12909         1.91523        -1.35492
LJ           -6.3354         5.81384        -4.00485
LJ            1.7499        -1.23065        0.983092
LJ          -2.56721         -3.9175        -2.57575
