108
#Comment!
LJ          0.792927         6.24242           3.926
LJ          -1.68573         4.98504        -4.37634
LJ           -2.7597         0.58148        -1.97875
LJ          -6.19649        -3.32449        -2.34647
LJ           4.06077         3.41032        -5.71687
LJ          -2.71013       -0.336507         4.89282
LJ          -4.92422         4.89804         2.57346
LJ           -5.6395         1.13514        0.585395
LJ           -0.6043        -2.56707         5.03426
LJ           1.41703       -0.878743        0.125215
LJ          0.244946        -3.36197        -3.58887
LJ          -6.27551        -2.39686         2.86483
LJ          -5.71457         3.12844         5.35715
LJ          -3.71623        -1.01519         6.37984
LJ          -3.86945         3.59373        -1.65482
LJ           0.64063        -1.56147        -3.42576
LJ           3.36568        -2.17654         4.15041
LJ            3.5153        -2.15399         5.99244
LJ           3.66793        -1.54056        0.742941
LJ           4.51587         2.68615         4.44411
LJ           -1.2037        -4.52355        -5.16407
LJ          -2.72685          5.7499        -3.84455
LJ          0.554958        -4.87266         3.78149
LJ           1.17242        -4.14417        -2.58597
LJ          0.371247         4.52815         4.44552
LJ          0.390313        -4.98073         1.15417
LJ         -0.785437        -3.19723         4.13674
LJ          -1.89946         2.70645       -0.934169
LJ          0.532464          -2.834        -4.54831
LJ            6.0307         5.46609         5.55897
LJ          -3.76118          1.4801        -1.53238
LJ           4.77955        -1.27118        -1.60862
LJ          0.441144        -1.87578         3.25592
LJ          0.464284        -4.86313        -5.45753
LJ           4.01271        0.712559        -6.04585
LJ           5.03084         2.72948        -6.35436
LJ         -0.102943        -4.24608        -4.33108
LJ           2.43393         1.86478         3.99431
LJ          -5.77144          2.5238         2.49464
LJ          -4.75414        -3.72619        -4.06906
LJ           4.36107        -4.58109         4.80581
LJ          -1.96515         5.94366         2.66873
LJ         -0.466504         3.71553         3.35064
LJ           3.89779        -1.44688         4.78421
LJ          -1.12744         -5.1908        -3.86343
LJ           2.46198         3.90958         5.21327
LJ           2.54382        -3.63631         6.22315
LJ           5.05488         2.78127         3.03259
LJ          -6.30551         5.19946        -3.27031
LJ          -2.82588         2.43135        0.134315
LJ           -5.1893           1.268         6.22748
LJ           2.15411        -5.36362         6.44039
LJ          -2.82421         1.73605          3.1793
LJ          -2.56863        -2.79419        -3.89262
LJ          0.982776        -3.81422          6.2728
LJ          0.749614        -4.99243       -0.452339
LJ             1.666        -5.85065         5.58596
LJ           6.03523        -1.03948        0.777076
LJ           4.70087         5.56325        -2.39544
LJ           5.83278        -5.27634         2.94553
LJ          -1.56737         5.26308       -0.624347
LJ           2.14799         1.68788          6.2365
LJ          0.836649        -4.50032        -4.53867
LJ          -6.01762        -3.48358          1.7017
LJ           2.43561        -5.73035         2.81701
LJ           1.46755        -3.68718         1.40237
LJ          -6.06837        -3.08666        -1.31385
LJ          -1.64989        -3.78761        -4.13482
LJ          -5.72467        0.144428        0.659996
LJ           -6.3615        -3.64136         2.59844
LJ          0.765705        -2.54849         5.10583
LJ          -5.07126        -2.36773         3.60127
LJ           3.22155         2.93121        -3.97598
LJ          -4.67762         4.42635       -0.824342
LJ           2.14756         -5.2085        0.386289
LJ          -5.20796        -5.22192         3.77462
LJ          -2.26687        -1.03223         3.69233
LJ          -2.03929        -1.04959         5.09846
LJ          -2.18588         2.55625        -2.16102
LJ           3.55115         2.02526        -3.38894
LJ          0.487887         -1.2839        -1.37104
LJ           3.32495         4.52763         5.27522
LJ          0.664278         1.01418       -0.987671
LJ           5.14155        -5.72332        -1.79303
LJ           5.35207         1.18465          -3.707
LJ          0.870081        -6.05992        -4.30046
LJ          -4.94492        -5.90276        -2.92796
LJ            5.5077        0.720779        -5.49364
LJ          -1.52913          1.1015         3.43037
LJ           6.42821        -1.39968        -6.39997
LJ          -5.98267        0.748699         3.26294
LJ          -3.65897         4.41027        -1.01461
LJ          -0.39146        -3.16864        -5.93577
LJ           1.37853        -6.22971         2.18454
LJ          -5.39716         1.25435         2.38296
LJ           4.59463         3.29761         5.69655
LJ            1.9981         0.19223        -6.30569
LJ           6.42883         5.52381        -6.29117
LJ           4.76878         3.80989         3.87411
LJ          -2.52779        0.855876         3.66423
LJ          -4.05349        -2.08574        -3.12222
LJ          -3.62506       -0.182293        -1.10376
LJ           3.75653         5.35602        -2.99641
LJ           4.35619         0.12478        0.648947
LJ         -0.202836        -3.18447         -1.9892
LJ           2.59819        -3.30661        -4.47702
LJ          -6.02776         -1.4646         2.71637
LJ           5.98303         1.80117         2.11675
