108
#Comment!
LJ          -3.16099        -5.49477        -4.87139
LJ           3.96629         3.79205        -3.33422
LJ             3.508         1.58484        -2.17762
LJ           3.17569        -2.52813         -2.7242
LJ           1.59123         4.38427         4.35792
LJ          -2.72904        0.738201         5.90763
LJ         -0.128662       -0.783626        -5.82068
LJ           -5.1728         3.19564        0.537423
LJ            2.6691          2.3422          4.6509
LJ          -5.64774        -6.14345        -1.32334
LJ          -1.11289         1.80887         2.73052
LJ           2.83163         2.48607         3.23512
LJ           2.24294        -2.10701        -3.16031
LJ           1.19465        0.485008         4.98718
LJ           -1.4625        -2.39933        -4.66369
LJ           3.13017         3.98471        -2.66388
LJ           1.77698        -1.40116        -3.90745
LJ           2.65782       -0.597526        -5.03121
LJ          -1.78915         1.42087         1.55942
LJ          0.645317        -2.21169         3.08514
LJ         -0.363356        0.790734         3.47922
LJ          -5.85006        -1.16229         5.04127
LJ          -6.43778         4.11737        -5.83989
LJ         -0.914287        -2.96956         2.99287
LJ         -0.318983        0.143753          4.3967
LJ           1.14233         2.30033          2.5271
LJ            2.2139        -2.08954         6.25236
LJ            1.6109        -1.32835        -1.78888
LJ            6.2355         1.21769         5.29393
LJ           6.12111        -1.25822         5.59308
LJ           -3.6591        0.168497         2.03889
LJ         -0.828291        -5.40886        -5.82392
LJ           1.09916          3.5126        0.670005
LJ           4.80452           3.381         4.10728
LJ          -3.18396        0.835738         2.84999
LJ          -3.42045         2.56848         4.66908
LJ           6.41151        -4.61053        -1.81967
LJ           4.87959          3.3501        -3.03774
LJ           2.95203         2.34679        -2.74178
LJ         -0.581075        -5.98991        -4.34429
LJ          -2.39493        -4.74319        -1.97503
LJ           1.41727        -4.55019         4.11902
LJ          -1.79341        -4.57127        -3.32339
LJ          -3.27246         5.24729         6.32173
LJ          0.639122        -2.99301         4.01074
LJ           3.19443       0.0962876        -6.24527
LJ          0.855502        -1.72622        -3.39962
LJ           3.91714        0.304829        -1.98678
LJ         -0.702897         3.30992        -2.23801
LJ           4.19194         3.73294        -2.18426
LJ          -1.69207        -6.15889        -4.99612
LJ         -0.868356        -5.81266        -3.15269
LJ           4.45472        -3.95146         4.62116
LJ          -2.88783        -2.58028        -6.23851
LJ          -3.27318        -4.69595         5.37197
LJ           2.22861        -3.82611         5.12793
LJ            1.7969        -2.45529         3.62194
LJ            1.0092        -1.11685        -4.68912
LJ          0.243176         4.57983        -6.26343
LJ         -0.299264        -3.89479         3.90632
LJ           4.34635        -4.40977        -3.89301
LJ           4.10658         2.62091        -2.62589
LJ          -4.30083        -3.58986        -2.93224
LJ             6.158       -0.697041         3.90009
LJ          -5.50533         1.07169         6.09547
LJ          -6.31334          -4.671        -6.02488
LJ           4.31517         3.08975       -0.589231
LJ           5.27604       -0.515293          5.8191
LJ          -2.98101         3.65118        -0.17501
LJ          -3.81059        -5.69596         2.62328
LJ           6.11775         4.02807       -0.842173
LJ          -1.71379        -2.08304        -3.64733
LJ           5.94002        -3.38167        -1.63948
LJ          -4.00453         -5.8965        -2.19902
LJ           4.44197         4.83887        -3.50265
LJ          -2.40296        -5.64385        -5.81463
LJ          -1.34496        -2.93595        0.679279
LJ          -5.55731        -3.50096         2.78511
LJ           4.58917        -4.33715        -1.19225
LJ           1.98328        -2.35978        -1.78343
LJ           6.29207        -4.86518         4.68086
LJ          0.144513        -5.39848        0.444048
LJ          -1.13531         4.49436          2.2363
LJ           2.52396       -0.298721         3.79225
LJ           5.72641         4.94552        -2.28575
LJ          -5.69498         3.83201         4.75366
LJ          0.129275         4.03758        -3.20262
LJ         -0.720609         6.05338        -3.08767
LJ            3.9169        -4.90804         4.43213
LJ          -5.48595         -3.7439         4.77821
LJ          -1.70604         1.05991        -5.80816
LJ           2.79587         1.00757        0.346757
LJ           4.22244        -4.72818         2.41621
LJ          -1.92862        -2.92863        -2.04029
LJ          -1.61193        -5.93788         4.72839
LJ           5.32344       -0.002633        -3.74073
LJ           -6.3754         4.79129        -3.04425
LJ          -3.90611         1.38642        -4.37392
LJ          -2.87105         5.73853         4.91583
LJ          -2.28823         4.06681       -0.786424
LJ           6.05673         -5.7248         5.05222
LJ           4.99398         -2.7989         4.68638
LJ           5.18523         5.51323         5.99157
LJ          -5.75223      -0.0577661         5.51412
LJ           5.06481        -5.16205         3.57336
LJ          -2.83294        -3.81636       -0.469877
LJ          -6.34775        -4.93928         2.96514
LJ           5.32209         1.03841         4.51021
