108
#Comment!
LJ          0.495326        -6.00866         4.30773
LJ            -4.244         6.11652        -2.43476
LJ          -3.29685         0.85406        -3.57218
LJ           5.42748        -2.42648         -3.8307
LJ           2.29712         4.90661         4.77089
LJ          -3.55488         -1.1243        -6.12727
LJ          -2.31327        -4.86269         3.91115
LJ          -5.00611         1.49089        -5.35084
LJ         -0.634525        -4.73839         5.07056
LJ           1.80822        -2.29939        -6.34403
LJ         0.0807195        -4.28335        -4.41057
LJ          -1.70668        -2.60571         2.85985
LJ          -5.93691        0.262232         6.40812
LJ           -1.8648         6.29845         6.20344
LJ          -3.99384        -5.03132       -0.528033
LJ          -1.96857        -5.06654         6.11081
LJ           2.13859        -2.13061         2.60605
LJ           -6.2063       -0.893381        -6.15346
LJ           -2.1985       -0.400552        0.629428
LJ           0.39103        -5.75847        0.448118
LJ          -3.10664         6.45312        -6.04071
LJ           -3.6849          5.3622        -3.00048
LJ           1.14889         5.50336         5.67663
LJ           5.53195        -5.24119        -1.36825
LJ          -0.27905         3.50399        -4.00731
LJ          -2.79888        -5.40262       -0.737353
LJ          0.345933        -4.89743         4.03356
LJ          -2.86449          1.3559         1.50905
LJ          0.130388        -4.07406        -6.44874
LJ           3.43205         4.63127        -2.75675
LJ          -2.67229        0.589598        -2.47551
LJ           3.33331         1.77345        -3.93659
LJ          0.164765         1.47926         4.29209
LJ          0.701884        -3.04148         6.11891
LJ           1.07963         3.68303        -5.34464
LJ           4.13664         4.70531         5.47318
LJ         0.0207363        -5.26243        -1.30444
LJ          0.549958          1.2798         3.04658
LJ          -4.00634         5.23328        0.746493
LJ          -2.56296        -4.12041         -4.5042
LJ           4.29048         4.65339          4.2818
LJ          0.527329         3.68925         2.96535
LJ          -3.89734         4.71972        -5.47387
LJ           2.28489        -1.44266         3.59761
LJ          -2.87805        -5.59567        -3.86837
LJ           -6.2761         5.03436        -6.18157
LJ           4.02923       -0.559561          5.1421
LJ           4.66258         1.03585          4.4568
LJ            5.1506           0.711        -4.59033
LJ          -3.65684        0.427291         1.20942
LJ          -6.21044         4.78721        -4.08747
LJ           2.23628        -1.17867         5.38079
LJ          -3.19698         1.30137         -5.2147
LJ         -0.392482        -4.35282        -3.26476
LJ           1.69207        -3.43662        -6.45308
LJ          -2.86184         6.45622       -0.181291
LJ            3.9558         5.19401        0.327795
LJ           -5.3614        -1.91361         5.16265
LJ          -2.45571        -2.57476       0.0302836
LJ          -6.19617        -4.85556         2.99901
LJ          -4.97406        -5.69585         1.03781
LJ           2.20882         3.51696         4.23002
LJ           3.96025        -2.41609        -3.36985
LJ          -3.08864         5.45063        0.138325
LJ           2.49175         4.77849      -0.0369507
LJ           2.94175        -4.24337         4.61099
LJ          -5.70976        -6.41546         3.11451
LJ          0.788574        -3.59245        -2.77906
LJ           3.23299        -2.74362         1.92876
LJ           4.99862        -4.73999         5.99055
LJ           1.56273         1.00766         3.52988
LJ          -4.80789         -2.2074         1.42042
LJ          0.935709          4.4578        -1.61598
LJ          -6.12463         5.45749        -2.49591
LJ         -0.290353         2.63365        -1.86596
LJ          -5.11716         4.94881         6.15625
LJ          -2.01429        -5.16979         2.08828
LJ          -4.09657      -0.0982289         6.05047
LJ          -2.68206         4.63693        -1.68762
LJ           4.39303         5.86221         -5.0261
LJ           4.60499        -2.76828        -2.34076
LJ           6.21672         4.07147         5.92751
LJ          0.615348         3.47313        -3.15863
LJ          -6.02245        -4.98025        -2.85929
LJ           5.07146         4.43576          5.9606
LJ           3.44677        -5.42863        -3.30434
LJ          -2.02559         4.63225        -5.20381
LJ           3.96453        -1.66993        -4.66572
LJ           -5.0983       -0.504386         1.70798
LJ           3.13045        -1.66214         5.25572
LJ         -0.602182         1.23783         1.63861
LJ          -1.99212        -6.39595         2.36882
LJ          0.155058        -3.39442         3.49072
LJ          -0.04689        -5.76215         3.42791
LJ          -4.28321        0.488242         3.22065
LJ           2.65745        0.734516        -5.65736
LJ           1.29846         2.26006         3.32235
LJ          -1.58948         3.84914         -4.6894
LJ           5.31346         4.05433         5.06668
LJ          -4.15089         2.69879         2.00975
LJ          -2.96481        -3.91778       -0.815657
LJ          -2.08475         2.75213        -5.00597
LJ           3.19212         5.82905       -0.932092
LJ           5.92214        0.021722         0.93643
LJ           2.07726        -5.86919        -3.56015
LJ           3.01067          1.0028        -1.89289
LJ          -3.69301         2.78817         3.21615
LJ          -3.73485         1.14608         4.72329
