108
#Comment!
LJ          0.207139        -5.95475         4.72186
LJ         -0.910403          6.3435        -4.76154
LJ          -3.89815        0.270838        -1.87328
LJ          -4.36789        -6.40478        -3.25231
LJ           4.32247         3.53809        -4.09813
LJ          -3.25813       -0.622124         6.06928
LJ          -6.40473         4.35171         1.91292
LJ          -5.35254         1.60598         2.36829
LJ         -0.919915        -3.72333          6.2084
LJ           1.43019        -1.18828         3.65526
LJ         -0.775288        -1.81708        -3.18042
LJ           4.61283        -4.92063         3.70419
LJ          -5.00663         4.55662         4.39285
LJ          -5.05415         2.38364         5.96423
LJ           -4.8546         1.38395        -1.79556
LJ           2.12793         0.46456        -2.37385
LJ           3.90595        -1.95139         5.02934
LJ           2.62305        -3.99179         -5.3863
LJ          -6.31648        -1.97658        0.595463
LJ          -4.98767         1.33719        -5.98045
LJ          -1.35659        -3.85141        -4.71243
LJ          -0.67778         5.20671        -5.20977
LJ          0.813335        -5.20949         2.55018
LJ          -1.39424         -2.4621        -2.34364
LJ           0.84388         4.63545        0.993173
LJ           1.06774        -3.32173          3.0214
LJ          -0.25036        -2.62847         4.38854
LJ           -1.8496         3.76894        -2.34563
LJ          0.482818        -2.51871        -3.08394
LJ          -6.39241        -6.29017         1.43233
LJ          -2.90011        0.389143        -1.38509
LJ           4.88953       -0.967322        0.486979
LJ           0.17232          -2.879         3.45139
LJ          -2.30028        -4.56722        -6.43964
LJ           4.27647        -1.81054        -5.99792
LJ           5.12098         3.56898         5.87203
LJ          0.436445        -3.30564        -3.99468
LJ           2.75822         2.19676         4.52089
LJ           6.10432         1.02582         2.46371
LJ          -6.01976         -3.5173        -3.30481
LJ           5.48007        -2.16645          5.3576
LJ          -5.27282        -5.78504         3.21233
LJ           2.08498         3.81894         1.52558
LJ           4.58723        -1.00523          4.7403
LJ          0.838012        -5.44307        -3.62429
LJ           1.28433         2.52952         4.44734
LJ          0.216653        -5.36575         6.25555
LJ           5.36966         1.25839          1.4429
LJ           6.32129         5.74117         -1.7684
LJ          -2.18072         5.02178         0.92383
LJ          -5.25583        -1.19365         5.39547
LJ           3.06934         5.93356        -5.57449
LJ          -2.53257         1.06899        0.251313
LJ          -4.22041        -1.53318        -3.95874
LJ           1.23614        -4.29634        -6.12809
LJ           3.56247         -3.4918         1.01433
LJ         -0.490596        -5.97554        -6.13132
LJ           4.92491       -0.619038         -1.7746
LJ           3.66897         3.71136        -2.05113
LJ           5.50811        -6.07248         2.69952
LJ         0.0365317         2.53421         -1.0947
LJ            2.4933       -0.528111         -5.1887
LJ        0.00800774        -6.03599        -4.70678
LJ          -5.42995         0.78596       -0.818728
LJ           2.46836        -3.71159          2.7481
LJ          0.382869        -5.20128       -0.636278
LJ          -5.69761        -1.75162        -2.81999
LJ          -2.71444        -2.09131         6.39316
LJ          -4.94346        -1.27259        0.770767
LJ            5.5117        -4.63729          3.1481
LJ           2.13073        -4.48856         4.96689
LJ          -5.87355        -3.61816         4.00369
LJ           5.74711          1.4176        -5.42669
LJ          -4.22184         3.62472        0.255576
LJ           4.66588        -3.02244        0.479839
LJ          -5.00535        -2.68157         2.34897
LJ          -2.61089          2.0379          4.8718
LJ          -2.28739       -0.503559         4.02217
LJ          -3.07314         1.52061        -3.33849
LJ            2.4995         1.66157         -3.0978
LJ          -1.75331        0.627086       -0.811094
LJ          0.511754         3.61159         4.77395
LJ           1.99328        -1.39615        0.489672
LJ           4.50626         5.59448       -0.923808
LJ           5.69225        0.275396        -1.68732
LJ         -0.845298        -5.26875        -4.90234
LJ           5.77319        -2.82213        -2.50071
LJ           6.08805         2.80376        -5.78493
LJ          0.198621         1.99224          4.2363
LJ          -5.23955       -0.824131        -4.72816
LJ          -2.40149         0.39107         4.90363
LJ           -3.4113         3.65071        -3.24737
LJ         -0.200889        -5.21877        -3.99939
LJ            4.0934         6.27868         1.71128
LJ          -2.32714         3.76173         2.82087
LJ            5.8257         3.88081          4.9454
LJ           2.62367       -0.666233        -4.05377
LJ           4.03795        -6.19822         6.35398
LJ            3.5499         4.08751         5.47712
LJ          -1.25905         1.42126         2.65138
LJ          -4.06313       -0.633869        -5.35315
LJ          -3.04768       -0.407151         1.47954
LJ           1.63625         4.93608         6.13453
LJ           2.79578       -0.883983       -0.327547
LJ         -0.190759        -2.89686       -0.800944
LJ           1.96794        -6.35551        -5.76018
LJ           5.97398        0.174743         1.76838
LJ           3.62804        0.592155         1.10538
