108
#Comment!
LJ           -5.8846        0.674946         5.42151
LJ          -6.03462         1.89559         5.80954
LJ          -2.82655        -2.88533         6.07597
LJ           -6.0399        0.769907        -2.03948
LJ           3.09316         3.87979          1.5229
LJ          -5.35974        -2.37182          5.8235
LJ         -0.820259      0.00108345        -1.72112
LJ          0.541709        -3.48635        -2.48242
LJ            3.9971         6.37859        -4.08836
LJ          -4.11097        -4.52293        -1.19825
LJ           6.25037     0.000369903        -2.01666
LJ          -4.08552       -0.640325         2.50839
LJ            4.9081        0.840392         4.45998
LJ           5.28435         4.75128         2.62548
LJ         -0.322848         4.99855        -1.60788
LJ          -3.72015         -1.2031         4.34173
LJ          0.172986         1.35726        -4.75093
LJ           5.80881         -3.3158        -1.96581
LJ           1.48357        -3.35139        -4.66681
LJ          -5.42308        -1.35382        -1.97373
LJ           2.31726         5.85853         3.36673
LJ          0.918041        -4.21844         2.03301
LJ          -3.10087         5.14107         5.20892
LJ           5.20051         3.12617        -2.99679
LJ           -4.5817        -5.87698       -0.658088
LJ           2.45224        -2.68918         3.89625
LJ         -0.453337        -1.25496        -2.52815
LJ           2.46745        -2.67597         2.43679
LJ           5.73871        -5.80357        -6.03008
LJ          -6.15789        -4.31751        -1.33501
LJ           2.75437         5.30014        -5.99551
LJ           5.27581         3.17272         4.98357
LJ           5.64328        -3.45017          4.4207
LJ          -3.20393         3.97676       -0.558888
LJ            3.0422         5.71387         5.37304
LJ           5.28344        -5.50751         3.73397
LJ          -3.00926        -2.39917         2.13853
LJ         -0.497462        0.215674         1.69004
LJ          -3.63921         -2.0623        -1.32178
LJ          -5.33275         2.27066        -1.48694
LJ           1.20563          2.5705         2.40503
LJ         -0.944773       -0.248599        -3.02327
LJ           1.08507        -1.08605         1.29776
LJ          -5.67517         3.98057         3.21028
LJ           3.46344       -0.323162         4.32176
LJ          0.112152       -0.320402          2.7149
LJ           3.41131         4.15609        -5.75281
LJ            4.1774        -5.73496          3.3596
LJ          -4.26938          5.9191         -2.1625
LJ           5.85157         5.28932         3.79413
LJ          -2.39059         6.41207        -2.33922
LJ           3.50428         3.03225       -0.432961
LJ          0.385735         3.09682         5.71738
LJ          -3.14889           5.182          -2.868
LJ          -6.07234        -3.14546         3.50055
LJ           -3.5995        -1.22143          5.4145
LJ            -6.016        -1.28053         6.41788
LJ          -1.68791         1.15281        -1.57839
LJ          -4.46399         1.49768        -1.09531
LJ          -6.12526         2.01183        -2.93445
LJ          0.165228        -1.85929       0.0487078
LJ           1.88793        -4.52037         2.72001
LJ          -1.49969         2.23759        -2.37873
LJ          -4.60657         5.20313        -2.83032
LJ          -5.65987       -0.390189        -2.66541
LJ           1.58582         2.28855        -5.17741
LJ          -2.19235        -4.66362        -5.32819
LJ          -2.39289        0.841269        -2.72926
LJ            3.0395         6.01528        -3.07452
LJ          -3.78439        -2.55244          0.4701
LJ           6.29167        -0.54017        -5.85716
LJ           4.13441     -0.00363582         3.51522
LJ          0.706295        -5.99576         5.51706
LJ           4.48864         1.85358         3.37311
LJ          -2.06744         2.32654        -3.23293
LJ           3.89504         5.96593         2.77965
LJ           2.06417        -3.68359         5.06124
LJ          0.907763         3.07354         3.74934
LJ           1.78438         3.73306       -0.776513
LJ           1.11655        -3.34305        -5.75977
LJ          -2.89572         4.00064        -1.74684
LJ          -2.67773         3.98473         3.29904
LJ          -2.99155        -2.99938        -4.49807
LJ         -0.395636         2.55868         4.78262
LJ          0.553948        -1.36904        -2.27165
LJ          0.047584        0.845191       -0.552616
LJ           4.02654         5.08426        -3.00357
LJ          -2.40155         4.16018        -3.86263
LJ          -3.38068         1.20049        -6.26594
LJ          -3.50438        -5.74038         4.34805
LJ          0.111353        0.716623         2.60502
LJ           5.06232       0.0165724        -1.11759
LJ           4.29234        -5.86344         6.02853
LJ          -1.09305        -2.38136         2.06166
LJ          -5.42367        -5.43171         3.75785
LJ           1.01912       -0.164136       -0.519038
LJ          0.291869         4.64902        -5.83475
LJ         -0.581756         3.08823        -4.38076
LJ           5.97193         2.58328        -3.57053
LJ           1.45765        -1.74812        -6.36459
LJ          -1.54299        -3.50864         5.49535
LJ         -0.600662         5.54491         3.06932
LJ           4.24853        -2.92469        -2.66707
LJ          -5.96221         2.98271         3.58689
LJ          -4.30048         1.42083         6.22428
LJ          0.730718        0.549914         1.47507
LJ           5.96725         4.18903        -2.46678
LJ           -2.1148        -4.06479         0.86632
