108
#Comment!
LJ           2.54269           5.476         -1.0848
LJ          -4.90122        -1.29875        -4.59194
LJ          -5.00615         5.27528         4.51677
LJ           2.37089         4.80617        -5.35426
LJ          -2.46056         3.71284         4.46453
LJ          -5.03942       -0.847932         6.11227
LJ          0.376521        -3.72716         4.36187
LJ           -1.3015         2.55207        -5.97183
LJ         -0.286522         4.15965         5.85238
LJ           5.92527        -2.51904        -5.19091
LJ          -1.16753         2.49767       -0.339339
LJ          -1.95737         6.28136        -3.76409
LJ          -6.16087         5.09288       -0.649425
LJ           5.07007         4.56242        -3.69106
LJ            -1.519        -3.04908         3.89063
LJ           3.68418         2.35114        -3.38749
LJ          -3.40738        -3.26086        -4.55241
LJ          -3.48616        -4.79313        0.884437
LJ          -1.54147         2.72541         3.12414
LJ          -4.78446        -3.20652        -3.46653
LJ         -0.390437         3.79144         3.33375
LJ           4.71081          3.2643       0.0126286
LJ           1.04757        0.887359        -1.09975
LJ           3.42727        -4.90786         5.94227
LJ          -1.56751          4.7086         4.46216
LJ           1.89646         -1.2145       -0.532954
LJ           5.47381        -1.05145        -3.22812
LJ          -2.11228         2.78391         4.24469
LJ           1.73406        -5.06808         5.60253
LJ          -4.12008        0.596619         5.29956
LJ          -2.29794        -3.35836         -5.5121
LJ           3.53114         -4.0423        -2.89926
LJ          0.946381         4.46681        -2.70175
LJ         -0.978226         5.32471         5.78017
LJ           3.66963         5.98268         6.24558
LJ          -5.18252        0.705153         4.79438
LJ          -0.26666         4.01586         4.55256
LJ          -3.20864        0.630963         1.94169
LJ          -4.93485        -5.68607        -5.73184
LJ          -1.54413         5.89523        -5.79749
LJ           2.80138        -1.90655         2.07735
LJ          -1.97293       0.0446714         2.35622
LJ          -4.48205         5.87878        -4.41579
LJ           2.27686       -0.857246         4.03347
LJ          -1.30926         2.65494         5.67458
LJ          -2.97975         2.03878         3.40611
LJ         -0.892077        -5.40671        -2.30948
LJ           5.57162        -2.10328         4.06372
LJ           4.86623        -5.57357         2.62471
LJ          -5.04964         -3.2723         3.61388
LJ           2.90103        -4.48094        -5.29849
LJ          -3.56456         4.91625         4.24568
LJ         0.0154808        0.578972        -3.01928
LJ          -0.88453         2.80046         1.54378
LJ           1.74396         2.52955         3.11648
LJ          -5.85361         3.14785       -0.238716
LJ          -5.61021        -6.36279         1.03381
LJ         -0.493026        -1.29673         -4.9575
LJ           1.34294         0.99824         1.29984
LJ         -0.165046        -4.69309         5.67286
LJ          -4.86914        0.830861       -0.724375
LJ          0.764685        -4.20305        -3.13759
LJ          -5.54341         5.53481        -2.49688
LJ        -0.0813162         3.18571        -1.81392
LJ           2.00748         6.05615        -1.88602
LJ          -6.23639        0.563107         -6.4497
LJ          -5.20636        -6.42005         5.76239
LJ           4.29433          -3.564        -2.01642
LJ           1.05638         6.07491         5.63131
LJ           2.57203      -0.0722439          5.8137
LJ          -2.32334        -2.24281        -4.49187
LJ          -5.53522        0.835156        -3.29213
LJ          -5.01196        -5.92544         -2.3979
LJ           2.13495        -5.71688        -1.96738
LJ          -4.52562        -5.25307         4.00165
LJ          -4.94607        -2.85883       -0.273132
LJ          -5.38722        -4.00573        -3.26428
LJ            3.9189        -6.04718       -0.938577
LJ            2.9918         6.43411        -1.98581
LJ           4.31599       -0.262811         4.55656
LJ          -3.92465         6.25512        -5.27249
LJ           4.43787      -0.0127519          3.5192
LJ          -2.03443        -3.51964         1.06543
LJ           2.54093        -2.14812      -0.0654384
LJ          -5.20004         4.85082        -4.77968
LJ           5.98819        -6.12391        -1.32654
LJ          -5.69832        0.275779        0.718994
LJ          -6.45158        -3.34746          1.5474
LJ         -0.330433        -2.37812          -2.824
LJ          -1.20985        -4.09303        -6.43272
LJ            -5.886         1.31242        -2.08968
LJ          -1.01042         4.84562        -5.44757
LJ          -2.98105       -0.288919       -0.454114
LJ           5.12114         1.57782         6.43132
LJ           4.62702       -0.522443        -6.06354
LJ          -1.35537         5.65083         1.80657
LJ           1.72207        0.944222        0.285383
LJ           6.06015         3.90791        -1.34076
LJ           3.68734         1.38863       -0.888402
LJ          -3.46607         1.95681         1.06217
LJ          -5.83962         2.84346        -1.45414
LJ          -0.83929        -5.83083         6.10916
LJ           5.78129         1.69927       -0.956623
LJ           5.74189        -4.13691        -1.51105
LJ           5.04031         2.38532       -0.852808
LJ          -1.40085        -1.13028       -0.707247
LJ          -1.85091        -4.50293         1.52654
LJ           1.12375         0.43777        -4.16656
