108
#Comment!
LJ           5.55008        -4.03011        -3.49299
LJ          -1.36532         2.87864        -3.19185
LJ          0.475954        -4.54872        -5.38751
LJ          -3.81688        -2.17615        -3.63384
LJ           2.17248         2.47363          1.6914
LJ          -3.88583         6.24103         6.11333
LJ         -0.708176        -2.31443         5.03478
LJ          -2.13615         5.61654        -6.41345
LJ           3.02322         5.13742        -3.45757
LJ           2.62922        -2.13668         4.16547
LJ           4.87276         1.96579       -0.429996
LJ          -5.80441       -0.660297         1.55678
LJ           5.33676        -4.73454         1.97692
LJ          -5.56528        -4.94082      -0.0220669
LJ          -1.98443         3.40196        -4.94593
LJ          -4.55117         1.60366         2.98804
LJ          -3.64017       -0.854319         2.24192
LJ           4.46561        -4.69225         1.11113
LJ          -5.00111        -3.31276         3.41924
LJ          0.197243       0.0225033         1.45268
LJ           1.04413         4.98753         2.33975
LJ           3.01181        -4.14815         1.01852
LJ         -0.857911         2.47894         2.16045
LJ           4.59923       -0.763823        -4.02312
LJ          -3.70355         3.23795        -4.38738
LJ           3.82267         5.61346        -1.32581
LJ         -0.591582         3.69976         6.26678
LJ           5.01058        -4.91508        0.172777
LJ           3.68546        -1.19249         5.79373
LJ          -4.48682         6.21285         -5.7749
LJ           2.83027        -2.91726        0.565575
LJ           -4.9404        -3.15789        0.360332
LJ           3.70417         2.24809         4.12535
LJ         -0.963755        -3.36361         1.95028
LJ           3.75973        -2.17451         1.14347
LJ           1.52252        -5.99334        0.651311
LJ          -4.67035        0.452162         4.77326
LJ         -0.261046         5.42468         6.14971
LJ          -1.41925         -4.1436        -3.15132
LJ          -4.97271         5.13691        -2.92017
LJ          -1.77176         2.53433        -5.63966
LJ          -1.40047        -2.37839        -2.86552
LJ           1.09525        -4.05783         2.60987
LJ           4.92444         3.11254        -2.92757
LJ         -0.701634        0.650703        -5.35298
LJ          -5.40592        -1.54216        -3.24069
LJ           1.65447         4.26843       -0.837932
LJ           3.53597        -6.38502        -4.29305
LJ          0.438718       -0.754067         -1.8714
LJ        -0.0979511         4.34061       -0.346684
LJ          0.115307         5.46132        0.196473
LJ          -5.12976         4.06318        -1.99446
LJ           2.77873        -3.23645          1.5506
LJ           -2.2322        -4.61919       -0.410534
LJ          -2.90832        -3.39775         5.87393
LJ          -3.81565        -1.30767         5.35487
LJ         -0.124059       -0.661108         6.06526
LJ          -1.99758        -2.23668         4.78234
LJ          -4.41304         6.16222        -3.69314
LJ           3.58822        -1.05762        -3.45606
LJ          -1.07756        -5.80401        -1.29961
LJ           2.01344        -6.34029        -1.97685
LJ         -0.715012        -1.68852         6.27765
LJ          -5.69575         3.30973        -3.08917
LJ           4.99864        -2.73213          5.5264
LJ           1.04575       -0.604258        -6.00716
LJ           4.12241         3.47451       -0.240596
LJ          -1.71146         -5.0195        -1.23913
LJ           4.39659        -4.36395        -3.81936
LJ          -1.88218         1.39169       -0.815141
LJ          -1.75739        0.253751         2.24412
LJ            3.4692          1.7755       -0.494955
LJ          -5.05117         1.78967         4.85205
LJ           5.02288        0.449811        -1.24591
LJ         -0.645193        -3.20863        -3.70354
LJ           1.17954        -5.30817         4.50188
LJ          -2.66119        -3.43025         4.55245
LJ           1.84299         3.79016        -6.02448
LJ           5.05392         2.41423        -1.66193
LJ           1.68389         5.30561         6.03317
LJ          -4.08573        0.779657         3.28876
LJ           4.31954         0.98151         2.63181
LJ          -5.09907        0.278973         2.82709
LJ          0.596071         -1.2504         5.45758
LJ          -3.92057         -3.5436         2.47557
LJ          -1.16921       -0.483722        -2.02492
LJ          0.705533        -5.64307        -4.41436
LJ          0.644224         3.37349        -5.09756
LJ          -4.20527         1.20198         5.64286
LJ           6.02067        -5.23207          4.1382
LJ          0.736009         5.16796         5.65901
LJ           3.21393         3.88347        -1.09193
LJ           4.14617        0.744723        -5.31836
LJ          -5.73766         5.64664         5.18666
LJ         -0.024692        -6.01563        0.967679
LJ          -5.05025         -6.2325        -1.47128
LJ        -0.0240669         4.89833         4.85557
LJ           1.49919         4.01581         4.78017
LJ          -3.75749        -6.29801        0.320621
LJ          0.900202         1.00739        -5.88992
LJ          -3.65093        0.318718         4.23488
LJ          0.590115         4.57145         1.09716
LJ          -5.09159        -4.82309         2.65471
LJ           1.31012        -3.38336        -1.79146
LJ          -4.78066         3.24044        -4.17955
LJ          -6.34014         4.03312         6.12479
LJ          -2.19179        -3.14672        -1.59055
LJ        -0.0218372        -3.55846         -5.6953
