108
#Comment!
LJ           2.65645         5.31812       -0.849438
LJ          -5.20141         -1.1225        -4.46752
LJ          -4.94412         5.62752          4.7375
LJ           2.41191         4.30043        -5.55769
LJ          -2.50746          3.8698         4.52156
LJ          -5.17086       -0.959572         6.10799
LJ          0.095806        -3.94088         4.51912
LJ          -1.22322         2.61087        -6.32229
LJ        -0.0889352         4.04856         6.02274
LJ           5.94275        -2.49329        -5.37578
LJ          -1.08786         2.34597       -0.223374
LJ          -1.95437         6.04539        -3.99871
LJ          -6.41647         4.91786       -0.479557
LJ           5.23209         4.55052        -3.68433
LJ          -1.31605        -2.89716          4.0692
LJ           4.08631         2.41043        -3.61745
LJ           -3.6243        -3.36489        -4.66579
LJ           -3.3935        -5.27829        0.909011
LJ          -1.33252         3.02548          3.2689
LJ          -4.56287        -3.14571        -3.27246
LJ          -0.54669         3.97554         3.32465
LJ             4.761         3.03143      -0.0183255
LJ          0.967397        0.710519         -1.2898
LJ           3.69238        -5.00791         6.20279
LJ          -1.90193         4.65283         4.65803
LJ           1.96141        -1.24104        -0.80612
LJ           5.50648        -1.05261        -2.95817
LJ          -2.22007         2.73791         3.89796
LJ           1.85635        -4.97596          5.6588
LJ          -4.38286        0.662948          5.5275
LJ          -2.28269        -3.69693        -5.70049
LJ           3.61576        -3.93345        -2.99734
LJ           1.08881          4.2708        -2.46364
LJ          -1.06086         5.07672         5.84235
LJ           3.52673         5.86594         6.26401
LJ          -5.07097         0.50084         4.72824
LJ          0.183333         3.95112         4.29251
LJ          -3.33922        0.593551         2.04849
LJ          -4.96676        -5.69691        -6.01193
LJ          -1.71794         5.80265        -5.73198
LJ           2.88567        -1.86768         1.97448
LJ          -2.06142        0.391644         2.25487
LJ            -4.583         5.81807        -4.45988
LJ           2.36314       -0.790112         4.06808
LJ            -1.239         2.71683         5.60075
LJ          -2.81776         2.17702         3.06058
LJ         -0.998216        -5.19453         -1.9609
LJ           5.63451        -1.98239         3.93329
LJ           4.54154        -5.74392         2.71182
LJ          -5.07245        -3.28704         3.77056
LJ            2.5513        -4.45874        -5.25472
LJ          -3.68512         4.91008         4.14916
LJ        -0.0417717        0.377652        -3.11992
LJ         -0.998987         2.58471         1.79814
LJ           2.02415         2.55695         3.03663
LJ          -5.97105         3.37123        -0.29465
LJ          -5.72262         -6.3837         0.66998
LJ         -0.581772        -1.39672        -4.99152
LJ           1.37983        0.984143         1.37322
LJ         0.0354904        -4.74541         5.94445
LJ          -4.79822         1.10183       -0.660562
LJ           0.61689        -4.28943        -3.09153
LJ            -5.524         5.58075        -2.70792
LJ        -0.0485757         3.33804        -1.75826
LJ           2.16243          5.9162        -2.01183
LJ           -5.9957        0.360799         -6.4524
LJ          -5.03151         6.08772         5.49398
LJ            4.3632        -3.49556        -1.69862
LJ           1.19966         5.80446         5.61787
LJ           2.49783        0.152782         5.85417
LJ          -2.55895        -2.17735        -4.53277
LJ          -5.57777         1.14052        -3.37947
LJ           -4.9945          -5.771        -2.55143
LJ           1.81068        -5.63174        -1.97514
LJ          -4.52546        -5.26761         3.82839
LJ          -4.71738          -2.699       -0.106218
LJ          -5.55972        -4.01861        -3.22529
LJ           3.77291        -6.29111       -0.968357
LJ           3.17754         6.39212        -1.85061
LJ           4.50482        -0.25062         4.50878
LJ          -3.98286         6.46062        -5.20617
LJ           4.34647       0.0854422         3.22799
LJ          -1.87955        -3.53517         1.04675
LJ           2.81334        -1.94955        0.102174
LJ          -5.05845         4.93437        -4.80182
LJ           5.93394        -6.24053        -1.20818
LJ          -6.05392        0.439067        0.706825
LJ          -6.26572        -3.02446         1.69942
LJ         -0.386709        -2.33196        -2.80523
LJ          -1.18311        -4.32316        -6.42214
LJ          -5.94692         1.18399        -2.00377
LJ         -0.847455         4.79413        -5.56622
LJ          -3.03316       -0.429031       -0.675164
LJ           5.09301           1.912        -6.42478
LJ           4.83814       -0.596285         -5.9981
LJ          -1.43638         5.43095         1.97174
LJ           1.74269         1.04388        0.255695
LJ           6.35086         3.95337         -1.1687
LJ           3.87367         1.53276       -0.592329
LJ          -3.60226         2.11198        0.969548
LJ          -5.89358         3.06121        -1.36993
LJ         -0.952741        -5.85232         6.03197
LJ           5.88491         1.81239        -1.08467
LJ            5.3801        -3.73849        -1.58747
LJ           4.78247         2.43812       -0.894687
LJ          -1.56597       -0.934076       -0.838471
LJ           -1.8166        -4.54744          1.5015
LJ           1.00841        0.506815        -4.03545
