108
#Comment!
LJ          0.231202        0.612191         1.32711
LJ          0.278567         3.98716        -1.55621
LJ          -4.51712         6.30234        -5.68674
LJ          -3.08779         2.74314        -6.26518
LJ          -3.59378         5.21192         4.96506
LJ          -1.95212        -2.21552          5.8101
LJ          -6.28329        -5.48773         5.81323
LJ           1.01769      -0.0220561        -5.79335
LJ           -2.6115          3.7021        -5.64558
LJ           5.74748       -0.583221        -6.32004
LJ           1.98358        -1.10253         3.35028
LJ          0.192242       -0.162159        -1.72711
LJ          -4.19376       -0.180498        -2.30051
LJ          -3.96305         4.88386        -5.89118
LJ           4.88646        0.750238        -3.73033
LJ           4.27045         3.61763        -3.77942
LJ           3.37043        -3.35174         4.06295
LJ          -5.50809        -3.65827        0.313491
LJ          -2.20097        -2.58794         1.13305
LJ          0.238382        -2.14238        -1.66233
LJ          -4.15393         -1.8333          3.5942
LJ          -3.79068         4.24823         0.64859
LJ          -2.13655         2.13989        -4.11688
LJ          -3.72385         5.35494         6.03827
LJ          -1.60715        -3.07104         2.94804
LJ           4.56408        -2.27036         5.34862
LJ          -3.73919         1.07145         5.63165
LJ           2.05905        -1.51107         4.72403
LJ            4.0183        -2.86142        -3.67661
LJ            4.1365         3.38646         1.42858
LJ          -5.74443         3.15455         5.02946
LJ           6.38462       -0.252166        -4.68559
LJ           2.15497         1.51247         1.51886
LJ          0.669733         2.78722        -4.36679
LJ          0.495931         1.05675         3.13554
LJ          -5.14405        -5.30777         1.07087
LJ           -1.7131         2.94784        -2.12967
LJ            5.8656        -5.95915         4.81991
LJ          -5.29524        -2.28074         2.99494
LJ          -2.85166        0.263913         -4.5234
LJ           5.06691        -1.50583       -0.396954
LJ          -2.97392          2.0145        0.734211
LJ          -3.59938        -2.38896         6.11333
LJ           5.08609         1.37595         5.29676
LJ           1.66896        0.783739         -5.5998
LJ           3.42569        -6.34281         5.04984
LJ          -5.41957        -2.90847        -5.97632
LJ           6.13773       -0.480023        -0.69084
LJ          -1.42699         5.60817       -0.314529
LJ          -5.68492        -5.67153        -5.44683
LJ          -4.91676         -1.7587       -0.640701
LJ         -0.982891         3.62998         2.37161
LJ          -2.09362        -1.31435         -4.6692
LJ           5.92554         2.88309        -4.02652
LJ          -6.31422         3.35178         3.91973
LJ          -5.77485          5.0396         5.84873
LJ           5.76584        -4.59929         4.23438
LJ          -1.97347        -4.61689        -3.30833
LJ         -0.900819       -0.731278       -0.408681
LJ          -0.53074         2.64068        -3.50841
LJ          -2.30451         4.64498        -4.01969
LJ          -2.85261         6.37556      -0.0978444
LJ           4.24891        -4.20956         4.41581
LJ          -5.42006         4.40991        0.655904
LJ           3.35428         3.08223        -2.35128
LJ         -0.375498        -5.41218        -6.02453
LJ          -3.54814         3.24202       -0.550259
LJ          -2.61868        -1.62559        -1.14993
LJ           4.75209        0.853365        -5.45906
LJ          -5.64313         1.34596         4.83713
LJ           2.63399       -0.225556         5.17526
LJ          -5.70722          4.4403        -6.14804
LJ           5.24271        -6.25132        -6.16095
LJ          -5.04384         6.17844       -0.401587
LJ          -4.73937         -5.6312       -0.428794
LJ           3.50648         3.25729         3.19183
LJ           5.72481        -2.89409        -1.48984
LJ          0.378439         4.57366         2.70104
LJ           4.88159         2.55714        -3.95679
LJ          -3.95613        0.642906         2.58505
LJ          -2.86551        -3.22533        -3.99356
LJ           4.81016        0.847909        -0.78585
LJ         -0.227017        -5.51851         1.74636
LJ          -4.40967         4.04051         5.39135
LJ          -1.64418         5.35098        -5.78415
LJ           2.38898         4.50857          3.0513
LJ           4.95271         3.60757        -0.55061
LJ          -5.00042        -2.29801        0.822387
LJ          -1.01191        -1.09459        -4.47264
LJ          -2.44063          5.7847         4.99068
LJ            3.5357       0.0975463       -0.308371
LJ           -2.0414         1.69834        -5.71163
LJ           -4.4389        -3.84951        -5.17123
LJ           4.15153         -1.6138        -4.16578
LJ          -4.68162        -5.43842        -6.15582
LJ           5.39598        -4.80546         3.36067
LJ           2.48866         4.19262         4.84756
LJ          -4.92948        -5.76667         1.88327
LJ          -2.44233         4.53874       -0.173485
LJ          -6.30254        -6.15374          3.7118
LJ          -4.82945         5.08823         0.05139
LJ          -5.07893        -2.53446          1.8488
LJ          -2.01989         1.42528      -0.0423641
LJ          -5.96327         2.71734        -5.48065
LJ          -1.65123         2.22807        -1.20788
LJ           6.34516         6.38405        -4.23874
LJ             2.059       -0.916899         1.04114
LJ          -2.99856        -4.23535        -2.57531
