108
#Comment!
LJ          -2.98718        -5.37559        -4.66828
LJ           4.33933         3.56747        -3.26055
LJ             3.772         1.26423        -2.18614
LJ           3.37502        -2.55794         -3.6177
LJ           1.39519         4.83019         3.95559
LJ          -2.29152        0.625338         5.87709
LJ          -0.19781        -0.65732        -5.51266
LJ          -5.70319         2.93045        0.474578
LJ           2.46239         2.25417          5.1676
LJ          -5.56716        -6.43496         -1.6985
LJ         -0.797132         1.38751         3.06279
LJ           2.67456         2.76391         3.11811
LJ           2.31222        -1.81361        -3.01718
LJ          0.780933        0.631736         4.54158
LJ          -1.98479        -2.89487        -4.63018
LJ           3.41794         3.69226        -2.15601
LJ           2.22862        -2.02106        -4.84941
LJ           2.26576        -0.58011         -5.1349
LJ          -2.18479        0.959812         2.54791
LJ           1.03225        -2.24189           2.934
LJ          0.357764        0.889181         3.68264
LJ          -6.16083        -1.29554         4.94793
LJ          -5.85834         3.77075        -5.46269
LJ         -0.556551        -3.25235         2.28513
LJ          -0.38191        0.749803         4.77364
LJ           1.74441         2.96642         2.18802
LJ           1.50366        -2.06608         6.42332
LJ            1.3467        -1.29167        -1.79553
LJ          -6.15234         1.42847         4.57856
LJ           5.46638        -1.02092         5.33303
LJ          -3.63124        0.319885         2.03794
LJ         -0.634736        -5.01116        -6.28973
LJ           1.19578         2.76009         0.47701
LJ           5.18759         3.32625          4.4689
LJ          -2.98474        0.441316         2.95955
LJ          -3.08712          2.4825         4.91528
LJ          -6.38708        -4.44368       -0.941324
LJ           5.32844         3.10673         -2.8366
LJ           3.25156         2.27552        -2.52262
LJ         -0.338091        -5.83765        -4.34288
LJ          -2.04364        -4.50027        -1.69823
LJ          0.965538         -4.3337         3.15405
LJ          -1.70394        -4.85335        -2.79013
LJ          -3.93102         5.78407         6.07074
LJ          0.250288        -3.03679          3.2997
LJ           3.85502        0.179169         5.99078
LJ           1.50436        -1.85963        -3.73852
LJ           4.02009       -0.664097        -2.24233
LJ          -1.08037         3.80223         -2.2808
LJ           4.66709         3.29299        -2.08264
LJ          -1.97799         -6.3968        -4.74334
LJ           -1.1548        -5.65487        -3.22655
LJ           4.39953        -3.44757         4.55948
LJ          -2.71247        -2.62462        -5.80388
LJ          -3.26036        -4.37627          4.8774
LJ           1.99097        -3.62941         5.17765
LJ           1.75014         -2.1306         3.71523
LJ           1.02223        -1.14138        -5.10961
LJ          0.582647         4.37293         6.44869
LJ         -0.354165        -3.84287         3.66304
LJ           4.50474        -4.82445        -3.04254
LJ           4.15825         2.51368        -3.29177
LJ          -4.44513        -3.97391        -2.64054
LJ           5.53797        0.167201         3.60928
LJ          -5.23629         1.21566           5.615
LJ           6.18187        -5.23072        -5.95861
LJ           4.92661         2.65635       -0.486768
LJ           5.29226       -0.264845         6.25694
LJ          -4.03343         4.23217       -0.496977
LJ          -3.16834         6.45285         3.02804
LJ           6.02853          3.1031       -0.387294
LJ          -1.54943        -1.66288        -3.70395
LJ           5.73935        -3.50184       -0.805467
LJ          -4.32113        -6.36375        -2.12423
LJ           4.73313         4.59445        -3.33855
LJ           -2.3254        -5.75052        -5.57067
LJ          -1.19012        -1.97175     -0.00951135
LJ           6.20545        -4.21522         2.68076
LJ           4.74887        -3.90327        -1.25989
LJ           1.98465        -2.30025        -2.18364
LJ           5.56537        -4.24529         4.88528
LJ         0.0853735        -5.20431        0.251277
LJ          -1.86489         3.65137         2.79383
LJ           1.97871       -0.434052         3.26536
LJ           6.05092         4.79907        -1.90047
LJ          -5.93263         4.11934         5.88931
LJ         0.0268025         4.40863        -2.85141
LJ         -0.668601          6.1137        -2.91575
LJ           3.94985        -4.59029         4.57873
LJ          -5.70363        -3.76863         4.38203
LJ          -1.73551         1.98095        -6.03856
LJ           2.37423        0.633761      -0.0907306
LJ            3.9462        -4.54708         1.60162
LJ          -1.74067        -2.64468        -2.20547
LJ          -1.71932        -5.35374          5.0074
LJ           5.68743        0.546011        -4.48729
LJ          -5.87909         4.51963        -2.38538
LJ          -3.18742         1.68567        -4.69182
LJ          -2.83487         5.79058         5.61951
LJ          -2.06479         4.31991       -0.523753
LJ           5.72618        -6.05151         5.55744
LJ           4.51257        -2.15938         4.35826
LJ           5.02797         5.37205          5.4259
LJ          -5.91702        0.101064         5.64872
LJ           4.82853        -5.04069         3.95945
LJ          -3.06451        -4.37873       -0.511162
LJ          -5.65867        -5.42731          3.2603
LJ           5.34111         1.09542         5.32944
