108
#Comment!
LJ         0.0875381         6.45103         5.43088
LJ          -3.73389        -6.16082        -2.20187
LJ          -3.61943        0.282623        -2.86362
LJ           4.98694        -2.77243        -4.37327
LJ          0.834451         4.83851         4.60443
LJ          -3.72563          -1.031        -6.00564
LJ           -1.1471        -3.77007         4.29927
LJ          -4.61075         1.40606         5.33954
LJ         -0.222678        -5.24091         5.15278
LJ           1.98853        -2.33404         3.77512
LJ         -0.980505        -4.90059        -4.11983
LJ         0.0549633        -2.67766         2.93247
LJ           -5.1874       -0.693006         5.26909
LJ          -1.43682         4.29188         -6.4378
LJ          -5.70039        -2.94687       0.0549889
LJ          -2.23693        -6.25521         4.78334
LJ            2.1502        -2.08665          2.6903
LJ          -4.91445        -1.17023        -5.57457
LJ          -4.54521        0.293594         1.05489
LJ          -1.62516        -4.35104        0.248548
LJ          -3.15287         5.82961         6.43499
LJ          -4.35211         5.44982        -2.35173
LJ           1.62747         4.53766         5.56325
LJ          -5.76717        -5.62849         -1.0566
LJ         -0.177672         2.44376        -2.84366
LJ          -3.55875        -5.93111        -1.15222
LJ          0.932835        -4.63057          4.1698
LJ          -4.25724         1.08807         1.79296
LJ          0.722903        -3.93237         4.84327
LJ           2.33886         3.93644        -1.60862
LJ          -2.29767        0.572874        -3.89278
LJ           2.26663         3.28238        -4.61633
LJ        -0.0951983         2.55634         5.42806
LJ           1.16108        -3.13096         5.59183
LJ         -0.436535         4.50875        -5.27705
LJ           4.69314         5.31077          4.4472
LJ           1.60582        -4.66382        -1.60581
LJ        -0.0952866        0.583322         2.26319
LJ          -3.65776         5.93714      -0.0411939
LJ          -1.66972        -4.34928        -4.64654
LJ           4.81788         4.23673         4.12264
LJ          0.246824         4.10638         2.85824
LJ          -5.09328         5.20913         -4.2411
LJ           1.76528       -0.919889         3.08222
LJ          -3.11142        -6.13061        -3.73709
LJ           -4.5085         4.71797          -5.969
LJ           4.54857       -0.286929         4.49554
LJ           5.35356        0.201769         5.01718
LJ           3.93591       -0.575402        -3.87936
LJ          -3.68527       0.0631712         2.08988
LJ           6.23498         5.90088        -3.95664
LJ           1.45806        0.591518         4.81228
LJ          -3.08228         1.43037        -4.57106
LJ         0.0490839         -4.6596        -3.12715
LJ            1.2795        -3.51923        -5.99361
LJ          -3.40033        -5.84319       -0.135482
LJ           5.16263          4.6616        -1.24413
LJ          -4.76914        -2.07497        -6.20908
LJ        -0.0947251        -1.37059        0.572768
LJ          -5.83929        -4.76609          3.0276
LJ          -6.37398         6.42771         2.43778
LJ           2.19457          4.6503         3.50148
LJ           4.70878        -1.19926         -3.6297
LJ          -2.19305         3.82196       -0.462275
LJ           1.69182         3.28423       -0.307455
LJ           3.24302        -5.17438         5.57905
LJ          -5.58731         5.37266          4.5481
LJ            1.7671        -3.82229        -3.06435
LJ           1.44034        -3.36591         2.75881
LJ           4.81162         6.35545         5.64869
LJ           1.44228         0.47626         2.82049
LJ          -4.64846        -2.24119        0.642347
LJ         0.0262676         4.78477       -0.814539
LJ           5.82577         5.94889        -2.12292
LJ          -0.76714        0.863035        -3.21312
LJ           -3.0222         5.39122        -5.25238
LJ          -2.51714        -5.67838         1.03768
LJ          -5.24123       -0.173026        -5.67044
LJ          -3.82406         5.94675        -1.59427
LJ             4.641        -5.30067        -5.40502
LJ           6.46003        -3.10917         -2.2158
LJ           5.14016         4.24929         5.85797
LJ             2.624         4.43509        -2.71333
LJ          -5.32662        -4.88456        -3.07502
LJ           5.00409          5.4106         5.69299
LJ           3.66709        -5.44582        -3.09251
LJ          -3.15479         3.77083         5.95329
LJ            3.1107       -0.895228        -3.00324
LJ           6.25803        -1.67077         1.18722
LJ           2.27614        -1.58398         5.18676
LJ          -2.32196         1.47056        0.989648
LJ          -1.18953        -6.03378         3.62796
LJ         -0.116621        -3.72187         2.42692
LJ          0.132268        -5.53685         3.95499
LJ          -2.95062        0.640524         4.07292
LJ           2.05826      -0.0089263        -4.85368
LJ           1.34109         3.89844         2.90489
LJ          -1.22429         3.45733        -4.08228
LJ           5.05361         2.86232         5.48563
LJ          -3.76838         2.88919         2.14402
LJ          -2.56829        -3.79497       -0.408336
LJ          -1.31384         2.88309         -6.0365
LJ           3.86053        -6.09565        -1.70444
LJ           5.90354       -0.357508        0.633591
LJ            3.9888           6.463        -3.65742
LJ           3.17655         2.60996        -1.05236
LJ           -3.8988           4.758         2.68117
LJ          -2.74416        0.446127         5.45777
