108
#Comment!
LJ          -2.71839        0.205558         1.81238
LJ          -3.26889        -4.12622        0.356664
LJ          -4.15742         5.46099         3.60544
LJ          -3.58329          1.7042        -5.47768
LJ          -3.04438         4.33609         2.98596
LJ           2.02233         -2.4092         6.41176
LJ           2.29306        -2.96034         3.83256
LJ           2.41049         1.35666        -5.43882
LJ           0.53946         5.74854        -4.49389
LJ          -5.79434         2.33776        -6.35171
LJ           4.09127        -2.87664        -5.96547
LJ           1.54022        -2.66693       -0.896357
LJ          -2.61507       -0.548993        -5.43449
LJ          0.118899        -3.37278         6.18662
LJ          -3.11116         3.28863        -1.31937
LJ          -1.00901        -3.34211        -3.99866
LJ           1.55006         -3.1961         0.80113
LJ          -6.15702        -5.16131         4.18572
LJ          -3.82787         4.50647         1.43154
LJ           2.93288         6.14896        -1.27802
LJ          -6.23884         1.93177         4.11733
LJ          -3.42076         1.09547         2.47695
LJ          -3.61633         5.00795        -4.73891
LJ         -0.718308        -1.40573        -5.38715
LJ          -1.26988        -2.57747        0.886221
LJ           5.74383        -3.34675         3.25822
LJ          -1.06052       -0.218403         3.94123
LJ           4.58961        -4.78019        -3.80577
LJ           5.08213         1.34618        -4.40013
LJ           4.59734        -6.43016         5.82192
LJ           5.04533         3.00971         6.13413
LJ           5.45316         1.15036        -6.05372
LJ            2.7274        -1.42286         2.45027
LJ           3.61386         3.93732         4.86975
LJ          0.942961        -1.92919         1.32836
LJ           4.74208         5.80302        -5.87851
LJ         -0.186792        -1.88407        -1.58655
LJ          -1.75154        -1.97581         4.75527
LJ           5.54905        -0.96244         1.46243
LJ          -1.26485        -1.84272        -2.66717
LJ           3.61337       -0.134752         1.66731
LJ         -0.820898         1.78326        -5.99981
LJ          -1.91908       -0.988749         2.10584
LJ          -5.75118         3.63997        -5.89704
LJ           2.68754       -0.572775        -2.21486
LJ           4.88387        -1.61386         1.91861
LJ          -5.78973        -1.66048        -3.09432
LJ            5.6938        -3.31517        0.530305
LJ          -4.66502         6.38258        -4.06386
LJ           4.10242         4.88638         5.95224
LJ           4.16867         1.30822        -2.68269
LJ         -0.690793         1.10985         1.96119
LJ          -3.60062       -0.967424        -6.42969
LJ          -6.05539         2.60139        -3.84855
LJ           3.49298        -6.22604         4.77659
LJ          -4.82123        -3.76906         6.12932
LJ           5.11292        -1.85617         2.88802
LJ           -1.8706         5.38352        -5.08067
LJ          -1.43305        -1.51168         -1.5282
LJ           1.59651        -1.37075        -1.43911
LJ          -0.67061         6.07021        -3.41322
LJ          -1.59312        -4.92728         2.27115
LJ        -0.0655862        -2.56943        -2.66776
LJ          -4.82981         3.00932        -1.38397
LJ          -2.82722         3.63307        0.585903
LJ           1.07452         4.02058        -5.45247
LJ          -1.91512         6.01991         1.56584
LJ         -0.821395         -3.9384        -5.47387
LJ          -3.43742       -0.804404        -3.99238
LJ           2.30849        -6.00414         3.71202
LJ          -3.25628       0.0332188         2.91187
LJ           5.87693         3.39827         5.42863
LJ           3.10052         1.38994         5.46342
LJ          -6.00298         -5.8238        -2.44498
LJ          -3.59411         4.80827        -3.19304
LJ          -5.63467        -3.56189         3.43142
LJ          -5.39093        -5.47224        -3.38037
LJ           -2.1815         5.26253         4.56284
LJ          -3.70653         2.36752        -2.07015
LJ          -2.18709        0.956444         3.69158
LJ          -2.26094        -5.81592        -2.61423
LJ            5.2357        0.198657         1.44288
LJ           1.39093        -6.37456         2.37809
LJ          -1.76126         4.80923          3.5237
LJ           2.41072         3.20319          -6.024
LJ            2.4418        -6.34632         5.47967
LJ           2.99291          5.0307        -1.02112
LJ           4.98729          5.6833        -1.73189
LJ          -3.53203        0.561674        -5.51796
LJ          0.455165        -6.10033           5.634
LJ           1.11616       -0.235373        -3.60413
LJ           1.72831         -1.6507       -0.507202
LJ            6.0656        0.249435         6.22006
LJ          0.269402        0.537497         -2.2561
LJ          -4.35641         6.41978        -5.18926
LJ           3.28803         6.15068      -0.0166671
LJ           3.03852         5.85466        -4.22287
LJ          -3.98698          5.1466        -1.00183
LJ           5.54589         -6.2625        -1.97155
LJ            4.0972        -1.49438         3.46801
LJ           -1.9708        -6.23328         2.84849
LJ            3.1647         2.75152         2.56556
LJ          -1.61276       -0.964885         3.36002
LJ          -4.88157        -3.96441        -2.99643
LJ           -3.4345         1.44947        0.991463
LJ           2.64367        -1.41391        -1.36184
LJ           5.91622         3.81939         1.47719
LJ          -4.40563          4.4655        -2.48453
