108
#Comment!
LJ         -0.352256         5.97786         6.34598
LJ          -3.89737        -5.68316        -2.78949
LJ          -3.52199       -0.646544        -1.41814
LJ           4.51184        -3.07889        -4.79319
LJ         -0.120362         4.30091         5.01027
LJ          -4.04797        -1.26224        -6.38584
LJ        -0.0380115         -2.6077         5.12808
LJ          -4.06524         1.02689         2.61583
LJ         -0.176772        -5.40375         6.30034
LJ           2.07876        -2.56003         2.81016
LJ          -0.95801        -5.69086        -2.90037
LJ        -0.0574647        -1.97566         2.56643
LJ          -4.31336        -1.73274         4.10282
LJ          -0.28171         3.62531        -5.69613
LJ          -6.27317        -2.18487        0.936458
LJ          -1.84857         5.57327         3.06541
LJ           2.05392        -1.03973          0.1624
LJ          -4.15162       -0.795231        -3.84202
LJ           5.59827        0.232629         1.63338
LJ          -3.16414        -3.83155         2.23642
LJ          -3.00146         4.95114         6.05928
LJ          -5.33551         5.74602        -2.00925
LJ           1.47097          3.6464         4.35171
LJ          -4.62182        -5.41306       -0.726238
LJ         -0.466398          1.0097        -1.68289
LJ          -2.86566        -4.96392       -0.198768
LJ           2.39178        -5.56718         3.95124
LJ           6.14225         1.43174          3.4119
LJ          0.659401        -2.98229         4.12526
LJ           1.37754         3.08881       -0.305195
LJ          -2.03209        0.385687        -5.52834
LJ          0.963142         5.08726        -5.40591
LJ          0.360391         4.39531         6.17282
LJ           1.90533        -3.51561         5.95145
LJ          -2.62741          5.3919        -5.43257
LJ           5.18495         5.19345         4.37842
LJ           3.93798        -3.88665        -2.45551
LJ         -0.384441       -0.297074          1.5498
LJ          -3.57103        -6.35055        -1.41295
LJ         -0.974907        -4.35956        -5.07481
LJ           4.86228         3.58231           4.085
LJ         -0.431968         4.62318         2.94587
LJ          -6.41961         5.82188        -3.27518
LJ           1.46994        -1.70735         2.56646
LJ          -3.07122         5.80841        -4.24413
LJ          -2.38897         3.92966        -4.92996
LJ           5.26049       0.0490035         3.88605
LJ           6.02894       -0.837399         5.54377
LJ           1.58519        -1.70747        -2.86245
LJ          -3.97277       0.0478762         2.34777
LJ           6.19968        -6.07787        -4.56912
LJ          0.585415         2.55456         4.03621
LJ          -2.81692         1.89726        -4.33313
LJ         -0.159925        -5.23315        -3.52393
LJ          0.707839        -3.43194         6.10294
LJ          -4.00338        -4.04406        0.149454
LJ          -6.35589          4.3968        -3.25073
LJ          -3.48033        -2.27069        -5.14146
LJ           2.68121       -0.098826         1.47789
LJ          -5.42676        -4.80901         2.99651
LJ            5.7745         -6.2658         2.75213
LJ           2.25113         5.75116         2.81418
LJ           5.60906      -0.0791637        -3.68292
LJ          -1.25382         2.02405        -1.20866
LJ          0.933254         1.51782       -0.942437
LJ           3.92122         6.46244        -6.46224
LJ          -5.47515         4.01142         6.21637
LJ           2.56399        -4.21898         -3.7451
LJ           1.38631        -3.88657         3.67845
LJ           3.68632        -5.96141         5.24242
LJ          0.917375       -0.288054         1.59128
LJ          -5.13769        -2.40353       -0.441998
LJ          -1.01125         5.11228        0.129079
LJ           4.44592        -6.33316        -1.16482
LJ          -1.67106       -0.805694         -5.1187
LJ         -0.508279         5.94786        -4.16219
LJ          -2.94642        -6.35062       -0.424719
LJ          -6.22498       -0.392338        -4.19135
LJ          -5.02804         5.36565        -1.00484
LJ           4.95853        -3.30016        -6.05861
LJ          -4.24968        -3.56598        -2.17779
LJ           3.75922         2.71006          5.7437
LJ           5.32005         5.57371        -1.52709
LJ          -4.46701         -4.8007          -3.192
LJ           5.59058         4.93157         5.71739
LJ           3.95107        -6.26684        -3.66427
LJ          -5.44918         2.83932         3.99984
LJ           2.77047      -0.0356134        -1.62289
LJ           4.72864        -2.44068        0.132401
LJ          0.879049         -2.0223         4.57087
LJ          -3.13647         1.76048       0.0364979
LJ          -1.37311        -6.26708         5.14841
LJ        -0.0186581         -2.8774         2.05561
LJ           1.33773        -5.29951         4.13656
LJ          -1.56672        0.722482         4.65454
LJ           1.53253        -1.02964        -3.70074
LJ             1.392         5.86927         2.18764
LJ         -0.639981          3.0732        -3.62395
LJ           4.70284         2.21731         6.17906
LJ          -3.22949         3.14259         2.46696
LJ          -3.46376        -3.03888        -1.36534
LJ         -0.793977         1.33334        -6.30214
LJ           5.03837        -5.15069        -2.25974
LJ            4.7753        0.426218        0.479401
LJ           5.58436        -6.16803        -2.82082
LJ           2.74661         4.75816        -0.21923
LJ          -4.18343        -6.06175         1.82957
LJ          -1.53254        -0.28496        -6.10394
