108
#Comment!
LJ           -5.5212          5.2405        -4.13707
LJ           2.00929         3.93275        -2.81045
LJ           1.15793         4.90674        -2.84559
LJ           6.08461        -5.55904        0.978261
LJ           4.35506         1.10323         5.49077
LJ          -5.46415         1.63647        -6.42461
LJ          0.511776           -2.46          6.0266
LJ          -2.27847          4.9428      -0.0232945
LJ            2.9355         3.70537         5.33446
LJ          -6.19418        -3.92256        0.825376
LJ          -3.46416         3.02132           3.398
LJ           3.55336       0.0203618         1.05058
LJ            1.6357        -3.25115       -0.618486
LJ           3.88144       -0.759437        -5.36451
LJ         0.0854956         0.68406         -5.1084
LJ         -0.851092          4.6986        -4.98253
LJ          -2.23633         1.39185        -1.03008
LJ           4.82801        -2.77746        -2.70071
LJ           1.16668         5.42086        -3.94681
LJ           0.81422        -1.73078         4.58984
LJ          -4.13663         2.37331         2.02863
LJ          -2.01843       -0.564392         4.38526
LJ           3.28496        -5.54771         3.92741
LJ           1.07891        -3.24979        -5.49918
LJ          0.842939        -3.68738         3.47364
LJ          -3.22045         0.06042        -6.00023
LJ          -5.10645         -2.3755         5.27296
LJ           1.24988        -3.43149        0.859901
LJ           4.42368        -1.50355        -3.32811
LJ          -6.10193        -0.14257         5.38004
LJ          -5.67125        0.735062         2.24504
LJ            2.5814        -5.80753        -5.01771
LJ            0.7995         4.86229         3.35345
LJ           1.47499         2.93081         2.34673
LJ          -4.55265        0.681285         2.14103
LJ           -5.8092         2.99808         2.68763
LJ          -6.45834         5.43444         5.95337
LJ           2.62044         4.96804        -3.45142
LJ           1.08485         3.77736        -2.20459
LJ          -2.18608        -5.96559        -3.96627
LJ         -0.553654        -5.52763        -4.16375
LJ           1.55816         6.07473        -3.11898
LJ          -2.49426        -5.31605         5.66733
LJ           1.34026         2.30779        -4.59445
LJ         -0.577257        -2.52566         4.14464
LJ          -1.97328       0.0187902        -3.41791
LJ         -0.426747        0.715823        -1.31102
LJ           2.23656         5.11561        -2.37402
LJ            2.2259         1.95246        -4.00361
LJ           2.40034         -6.2097        -4.15192
LJ          -1.83294         6.39048        -2.88076
LJ          -1.03099         -6.4266          -4.687
LJ           4.83472         5.21895         3.92349
LJ          -3.84081        -3.42039         3.83236
LJ          -1.39542        -5.95515        -6.18899
LJ           5.30246        -3.07923         5.27062
LJ          -1.14883        -3.07497         4.96444
LJ          0.752566        0.598459       -0.251606
LJ          -2.81421         5.71663        -5.06405
LJ         0.0189212        -2.96431        -5.84056
LJ            3.1561       -0.732452         3.62662
LJ           3.26449         5.71201        -2.57791
LJ          -2.85124        -1.21743        -4.89328
LJ          -3.79398         -4.5104         5.86195
LJ           4.91824       0.0115139        -3.35843
LJ          -2.85556        -1.25153         5.39181
LJ         -0.253677        -5.43588        -1.34286
LJ          -4.24786        -2.47701         4.08931
LJ           2.23502        -1.61783       -0.216826
LJ           4.56722       -0.181206        0.184214
LJ           5.98794        -2.46315        -5.25045
LJ          -2.98303        -5.62997        -2.83793
LJ          -5.71577        -1.18356          5.6773
LJ          -5.40171        -3.80557        -1.85571
LJ           3.68227          5.8785        -3.76876
LJ          -2.31893        -5.23118        -6.00631
LJ          -1.67793         5.52756         6.15519
LJ           2.02152        -2.65173         3.16524
LJ           3.02431         5.87739        -0.83779
LJ          0.723982        -1.28789        0.149606
LJ         -0.931667        -2.35769         1.21158
LJ          0.154932        -3.38097        0.686792
LJ           3.97036        -2.39965        -1.93302
LJ           5.00964        0.183943         5.72458
LJ             4.137         5.80007        -4.90735
LJ          -3.71526         1.71248        -3.01181
LJ          0.770557        0.412812        -3.52889
LJ          -1.88248         5.72602        -4.25372
LJ           5.84351         4.98751         4.93897
LJ           -5.6773        -5.31833        -4.19916
LJ          -1.51229        -4.13654        -5.75868
LJ           6.36022          4.1043         2.85198
LJ           4.23977        -5.84817         5.39035
LJ          -3.51084        -4.43605       0.0899444
LJ          -2.28165         3.53395         1.73302
LJ           2.86237        -2.44215        0.659792
LJ           3.11734          6.2682        -5.47402
LJ           3.87804       -0.501932        -1.96985
LJ         -0.930559          2.9473         1.61356
LJ         -0.444753         3.70112        -4.64936
LJ          -6.17569         5.97349          4.3939
LJ           6.25706         4.37797         4.11913
LJ           5.06951         6.37811        -2.25467
LJ           5.80197       -0.884847          5.8311
LJ          -4.02242        -6.16575         5.17168
LJ         -0.790506       -0.975272        -2.49272
LJ           2.13512        -1.10355         1.39639
LJ           6.40539        0.576644       -0.167608
