108
#Comment!
LJ          0.799807          6.0459        -4.43348
LJ           -3.5198        -4.89471        -4.79674
LJ          -4.58194        -1.08341        0.742764
LJ           3.10807        -3.51024        -4.06992
LJ          -1.49912         3.29989         3.76276
LJ          -4.81978        -1.27632         6.01905
LJ           1.75555        -2.69262         5.16471
LJ          -2.69467         1.87856        -1.52106
LJ          -2.81574        -5.32275         6.14681
LJ           4.21903        -2.34607         -1.1093
LJ         -0.749717          5.5258        -1.86206
LJ         -0.205176        -2.31203      -0.0132182
LJ          -3.21026        -4.86434         1.90775
LJ           2.17454         4.11618         -4.5244
LJ          -5.09822        -4.92259         1.68066
LJ         -0.244497         3.12778        0.640738
LJ         0.0383724       -0.832035        -2.67174
LJ          -3.36262       -0.445074       -0.497204
LJ          -6.21127       -0.212873          3.2454
LJ          -5.81591        -2.40132         5.90302
LJ          -1.88208         4.06115         5.61514
LJ           5.64902         5.04083        -1.36379
LJ           1.60663         2.68359         2.11688
LJ          -2.08457        -3.57149         1.41969
LJ          0.528644        -4.29502       -0.116439
LJ         -0.317591        -2.65305         1.63614
LJ           5.00808         -2.5519         5.94695
LJ           1.04549         1.15707         5.36035
LJ           1.02485        -4.81241         4.19237
LJ        -0.0198536         1.39357         2.13824
LJ          -1.16377        0.253877         6.38075
LJ          0.948895        -5.38527         -3.0676
LJ          0.911892          6.2444        -5.56638
LJ          0.767362         -4.2772         6.09233
LJ           6.22345        -5.11639         6.19202
LJ           5.75973         3.58708         5.31906
LJ          -5.44171       -0.589203        -5.40951
LJ           -1.0673       -0.686602        0.936779
LJ          -3.89661         -5.9587        -1.90358
LJ          0.463912        -5.78351          -6.046
LJ           3.79883       0.0486865         2.96737
LJ          -1.25431        -5.20113         3.31302
LJ          -4.90166         3.89846        -2.90456
LJ           1.62608        -2.13797         2.51013
LJ          -2.49964         3.45559        -5.29844
LJ          -1.84697         1.51486        -4.48677
LJ          -3.66165         3.14883          5.3596
LJ           5.94618        -3.56886         6.18364
LJ          -2.82295        -3.32084       -0.613358
LJ          -4.52741        -2.00226         2.42208
LJ          -5.67012        -5.06433        -5.55626
LJ          -2.33938         4.72733         3.96691
LJ          -0.97241         2.75184        -3.81494
LJ         -0.431325         5.59895        -2.95077
LJ         -0.209862        -1.07621         3.26121
LJ           -4.6702        -1.05399       -0.902375
LJ          -4.04256         6.40258        -6.06176
LJ         -0.581009       -0.811118        -4.51922
LJ           1.39803         1.33357         1.45739
LJ          -4.02424        -4.57181         2.52144
LJ           6.37883        -3.38947        0.582899
LJ           2.01741         1.18915        -1.48902
LJ           5.98526         3.12837        -3.36457
LJ          -1.02363         1.56599        -2.41317
LJ        -0.0694962        -2.61534          -1.729
LJ           5.15273         4.15604        -5.92033
LJ          -5.39064          1.3082        -3.28917
LJ           4.43548        -4.11132         -5.5135
LJ           0.88321        -3.84227         4.78595
LJ           1.56864        -4.82823        -6.40986
LJ          0.276595          -1.876       -0.858285
LJ          -5.31189        -2.33422        -2.13082
LJ          -3.84355        -6.37327         0.77065
LJ           2.05475        -5.59694        -0.47457
LJ          -3.71952        -4.45448         6.30443
LJ           3.71984        -5.50692        -2.61619
LJ          -4.54418        -6.08132        -3.03017
LJ           6.12642        -2.62054        -1.84676
LJ           6.06201         4.59461        -2.39388
LJ           5.19741       -0.535172         4.39612
LJ          -2.23934        -6.46225        -4.41074
LJ           3.34169       -0.505322         6.29653
LJ          -4.13666        -4.38772         1.38949
LJ          -2.29862        -3.28663        -2.44333
LJ          -6.21046         5.00997        -5.54995
LJ           5.17073         5.59076        -4.23843
LJ           1.96795        0.506241        0.934966
LJ           4.00297         3.91483      -0.0757401
LJ           2.36677        -3.37396        -1.94687
LJ         -0.936236        -1.98549         5.42821
LJ          -5.10623         2.10823        -2.83064
LJ          -3.37414        -6.05031        -5.45349
LJ           -1.0578        -1.23773         2.63431
LJ           3.39375        -3.66399         4.84729
LJ           1.33001        0.687678         6.42085
LJ          0.122485        -3.35894        -0.97793
LJ           1.66013        -2.40718         1.46989
LJ           2.07193         2.34667         -2.0084
LJ            2.3276          1.0997        -5.66499
LJ          -2.27917         3.10343         2.81574
LJ          -5.62801        -0.86417        -1.38457
LJ           -1.0158        -3.15236        -5.96625
LJ          -5.66081        -1.30291       -0.333648
LJ         -0.705821         4.45861       -0.363392
LJ           5.71105         5.61425       -0.298299
LJ           1.29189        -4.32871        0.964251
LJ          -4.27076        -2.88807        0.516501
LJ           2.24413       -0.675222        -6.03767
