108
#Comment!
LJ          0.744241         6.02043        -4.47866
LJ          -3.52131        -4.99155        -4.80101
LJ          -4.49472         -1.1981        0.735303
LJ           3.14032        -3.47529        -4.07803
LJ          -1.43253         3.30696         3.82103
LJ          -4.85455        -1.34504         6.01475
LJ           1.69314        -2.71514         5.18583
LJ          -2.73702         1.86889        -1.43999
LJ          -2.71138        -5.33867         6.14661
LJ           4.17205        -2.34831        -1.00218
LJ         -0.693509         5.61045        -1.88822
LJ          -0.15652        -2.22375       0.0493239
LJ            -3.201        -4.77112         1.97908
LJ           2.11348         4.09804        -4.55325
LJ          -5.13259        -4.85075          1.7182
LJ         -0.294957         3.19214          0.6956
LJ          0.110552       -0.786161        -2.62882
LJ          -3.36498       -0.438398         -0.5872
LJ           -6.3283       -0.212323         3.30276
LJ          -5.75424        -2.41514         5.84669
LJ          -1.91271         4.08328         5.63019
LJ           5.70872         5.08008         -1.3809
LJ            1.6052         2.71678         2.18043
LJ            -2.206         -3.5422         1.33196
LJ          0.481593        -4.13871        -0.15122
LJ         -0.386721        -2.68851         1.63036
LJ           4.94392        -2.62354         5.90298
LJ           1.18612         1.19323         5.34157
LJ          0.989671         -4.7567         4.18704
LJ         0.0686289         1.41354         2.06807
LJ           -1.1941        0.266655         6.40739
LJ          0.903595        -5.43855        -3.08582
LJ          0.932148          6.2952        -5.66017
LJ          0.794076        -4.21824         6.10842
LJ           6.32224        -5.18234          6.1951
LJ           5.72727         3.64444         5.32016
LJ          -5.52569       -0.686753        -5.32557
LJ            -1.054       -0.702095        0.921276
LJ          -3.88634        -5.92924        -1.85709
LJ          0.494116        -5.74989        -6.02058
LJ           3.85148        0.113679         2.99824
LJ          -1.23248         -5.3097         3.31028
LJ          -4.91858         3.82342        -2.88388
LJ           1.62178        -2.15907         2.45444
LJ          -2.51674         3.51757        -5.27271
LJ          -1.79601         1.51219        -4.40071
LJ          -3.79487         3.04822         5.28835
LJ           6.04007        -3.47469         6.16297
LJ           -2.7177        -3.28623       -0.668252
LJ          -4.51469        -1.94707         2.42881
LJ          -5.69723        -5.08032         -5.5027
LJ          -2.30434         4.69319         3.92168
LJ          -1.03854         2.77127        -3.84054
LJ         -0.473861          5.6321        -3.02629
LJ          -0.23808        -1.16428         3.25789
LJ          -4.66076         -1.1464       -0.880578
LJ          -4.10703         6.32975        -6.00427
LJ         -0.658912       -0.851441        -4.51693
LJ           1.39088         1.31631         1.48916
LJ          -4.10226        -4.59281         2.53747
LJ           6.34398        -3.46883        0.634275
LJ           2.02439         1.37417        -1.42216
LJ           5.96985          3.0447        -3.37431
LJ           -1.0186         1.54919        -2.43564
LJ        -0.0848696        -2.50129        -1.69882
LJ           5.12538         4.23277        -5.89572
LJ          -5.38015         1.39548        -3.36882
LJ           4.38867        -4.13753        -5.47855
LJ          0.918767        -3.81379         4.75023
LJ           1.54444        -4.94589        -6.39506
LJ          0.295584        -1.91705       -0.804844
LJ          -5.32124        -2.37211        -2.12536
LJ          -3.76158        -6.42366        0.773523
LJ           2.11793        -5.61833       -0.494759
LJ          -3.70182        -4.34384         6.32221
LJ           3.62247        -5.54906        -2.65254
LJ          -4.51017        -6.12733         -2.9969
LJ           6.17406        -2.54759        -1.88514
LJ           6.10928         4.58188        -2.34272
LJ           5.24498        -0.55618         4.38649
LJ          -2.24432        -6.38953          -4.327
LJ             3.241        -0.48234         6.31895
LJ          -4.17068        -4.43463         1.26924
LJ          -2.37264        -3.31196        -2.47916
LJ          -6.23172         5.01096        -5.58806
LJ           5.14039         5.57768         -4.2942
LJ           2.13996        0.563474        0.986084
LJ           3.97241         3.79509       -0.115127
LJ           2.42608        -3.35316         -1.9011
LJ         -0.918632        -1.96588         5.39689
LJ          -5.07079         2.18974        -2.78265
LJ          -3.33464        -5.99768        -5.43273
LJ         -0.982033        -1.30372         2.64366
LJ           3.35043        -3.71764         4.81712
LJ           1.23752        0.682886         6.38606
LJ          0.170614         -3.2486        -1.02881
LJ           1.65809        -2.53534         1.52007
LJ           1.99177         2.30613        -2.00781
LJ            2.3965          1.1517        -5.71469
LJ          -2.29646         3.13322         2.81567
LJ           -5.6097       -0.956153        -1.29474
LJ          -1.01483        -3.04617        -5.96871
LJ           -5.6634        -1.39533       -0.427633
LJ         -0.578021         4.36671       -0.369636
LJ             5.681         5.67089        -0.34715
LJ           1.32662        -4.40587        0.962623
LJ          -4.35361        -2.87968        0.471033
LJ           2.27119       -0.672746        -6.10076
