108
#Comment!
LJ          0.387759        -6.20932         4.45844
LJ         -0.924879          6.0907        -4.65495
LJ          -3.75259        0.337942           -2.04
LJ          -4.86774        -5.42884        -2.90382
LJ           4.68082         3.22446         -4.7714
LJ          -3.09097       -0.587077         5.73767
LJ          -6.07818         4.25246         2.10113
LJ          -5.70167         2.56352         2.07623
LJ          -0.99695        -3.13565         5.80876
LJ           1.42955        -1.08194         2.52882
LJ         -0.565913        -2.07925        -3.14883
LJ           5.10649        -4.47914         3.32383
LJ          -5.21014         4.10259         4.70749
LJ          -4.50925         1.34385         6.19415
LJ          -4.31367         1.77121        -1.85981
LJ           1.75282       0.0700784        -2.80583
LJ           4.08725        -2.08684         5.23827
LJ           2.40273        -3.48405        -6.26696
LJ           6.03497        -1.82361        0.653655
LJ          -6.38579         1.87685         6.45209
LJ          -1.39346        -4.20075        -5.11961
LJ          -1.63822         5.16357        -4.76197
LJ          0.626356        -4.54762         3.11309
LJ         -0.726369         -3.5587        -3.00334
LJ          0.608227         4.72409         2.10902
LJ          0.781963        -3.86896         2.23638
LJ         -0.537085        -2.73986         4.34817
LJ          -1.83647         3.41979        -1.95223
LJ          0.735401        -2.70027        -3.66157
LJ          -6.41754         5.45842         2.60722
LJ          -3.05862         1.00177        -1.36213
LJ           4.64484        -1.24482       -0.181331
LJ          0.415534        -3.16489         3.37792
LJ          -1.28828        -4.86442        -5.98278
LJ           4.13361        -1.21685         6.41371
LJ           5.03786         3.36056         6.05877
LJ          0.598709         -3.6246        -4.23895
LJ           2.58848           2.148         4.39021
LJ            6.4123         1.38843         2.71666
LJ          -5.55863          -3.541        -3.65554
LJ           4.84969        -2.75417         5.22508
LJ          -4.20058        -6.17043         3.03933
LJ           1.34201         3.65193          2.0889
LJ           4.37251        -1.04309         4.69584
LJ           0.36367        -5.12406        -3.57201
LJ           1.48941         2.78992         4.62281
LJ           1.26189        -5.08675         6.42074
LJ           5.79494         1.79427          1.8353
LJ          -6.39297          5.9086        -2.25078
LJ          -2.38019         4.19942        0.693016
LJ          -5.20164       -0.357365         5.31739
LJ           3.12324         6.43561         -6.0463
LJ          -2.43483         1.20113        0.888714
LJ          -3.59625        -2.05664        -3.81948
LJ           1.30407        -3.72957        -6.25574
LJ           2.72644        -4.00551        0.368455
LJ         -0.318014         -5.6441        -6.20597
LJ           5.39453       -0.570115        -1.02376
LJ           3.94876         4.28115        -2.19535
LJ           5.45636         -5.3235         2.95198
LJ         -0.409258         3.44197       -0.902133
LJ           2.37384         0.33518        -5.77077
LJ          0.677837         -5.5414        -4.54611
LJ           -6.0197        -0.74301       0.0507129
LJ           2.54672        -4.33573         2.80445
LJ           0.65624        -4.62972      -0.0129416
LJ           -6.3215         -1.2145        -2.36922
LJ          -2.43843        -2.60705        -5.80724
LJ          -4.72116       -0.748635        0.722847
LJ           6.37789        -4.14963         3.14907
LJ           1.99836        -3.75062         5.32271
LJ          -5.92527        -3.54181         3.63614
LJ           4.79825         1.68581        -4.84717
LJ          -4.41948         3.89223       -0.061271
LJ           3.93505        -3.74254        0.517428
LJ          -4.95695        -3.47036         2.80199
LJ          -2.53259          1.0883         4.53912
LJ          -1.95621       -0.991512         4.38443
LJ           -2.9761         1.85838        -2.86002
LJ           2.70341         1.50661        -3.02161
LJ          -1.20037        0.123946       -0.731912
LJ            1.4785         3.94458         4.94172
LJ           1.59527        -0.57419      -0.0362156
LJ           4.69749         6.13047        -1.18227
LJ           6.16678       -0.358913        -2.42456
LJ         -0.521956        -5.84286        -4.90522
LJ           6.23943        -4.21281        -2.59807
LJ           5.95799         2.34179        -5.82726
LJ         -0.115561         1.81316         4.03275
LJ          -5.58458        -0.99727        -5.31505
LJ          -3.72005        0.540957         4.59408
LJ           -3.4966         3.98435        -2.57193
LJ         -0.533472        -4.17694        -4.03246
LJ           3.20697         6.36296           1.834
LJ          -3.38477         2.97113         2.53022
LJ           5.51869         3.78749         5.19221
LJ           2.40983        -0.54257        -4.68843
LJ           4.59344         6.27732        -6.33988
LJ           3.82305         4.05781         4.84852
LJ          -1.69523         1.16861         2.97465
LJ          -4.24199       -0.967116        -4.66188
LJ          -3.59201       -0.435729        0.728201
LJ           2.33145         5.02871        -5.52398
LJ           3.18604       -0.535208       0.0552888
LJ         -0.209573        -2.97056        -1.09425
LJ           2.09563        -5.33358        -5.56249
LJ           6.18031       -0.186929         2.05242
LJ           4.29798        0.916302         1.38587
