108
#Comment!
LJ           6.08942        -2.69099        -6.39459
LJ          -4.39422         2.87439        -5.52083
LJ         -0.912327        -1.23554        -5.79039
LJ          -3.23412         4.37055        -1.69014
LJ           3.32964          4.1045       -0.379157
LJ          -3.55693        -3.29628         6.04249
LJ          -2.14926       -0.520902        -5.62423
LJ         -0.926267        -5.84284         1.08279
LJ            3.6479         4.99319        -1.52712
LJ          -2.60317         -3.1514        -5.98933
LJ           2.98277        0.708079        -1.72239
LJ          -3.84602        -1.74607         3.73448
LJ           4.44005        -2.14061         1.21485
LJ          -4.12853         5.93669         2.71634
LJ          0.570139         4.51722        -2.44556
LJ           1.58093        -5.00258         3.61431
LJ          -1.34838         3.67256         6.17115
LJ           5.38236        -2.57162         1.63248
LJ          -2.24363         4.20892        -1.51381
LJ           -3.2275        0.483603        -1.61395
LJ           1.05726         5.92033         2.70045
LJ           2.34525        -6.06549         1.11563
LJ          -3.62847         5.15458         3.10858
LJ          -6.32222       -0.634607        -2.32084
LJ          -5.32982         -2.0309        -1.39825
LJ           1.17068        -3.22739        -5.21033
LJ          -1.87327         -1.5526        -5.15271
LJ           3.86647         -2.3568          3.0172
LJ           4.72294        -3.99851         6.04132
LJ          -4.55748        -4.61992         -3.5743
LJ          0.999075        -6.05808        -2.29888
LJ           6.41937        -5.78907         2.64698
LJ           5.81603        -2.81454         2.79744
LJ          -2.14876         1.10535        0.827234
LJ           3.63198         -6.2626         2.39659
LJ           2.92555        -4.74654         2.13102
LJ          -2.61647        -2.33765          3.7519
LJ         -0.450803         2.73436         4.17233
LJ          -2.03497        -2.25466          -3.082
LJ          -6.11432         4.38892        -2.25937
LJ          -1.06436         1.38393         4.27509
LJ          -2.23537       -0.775762        -3.76008
LJ           2.11572        -1.44473         1.31382
LJ          -6.32819         3.47023        0.844336
LJ           2.31002        0.440464         6.08342
LJ          -2.65633       -0.135423         4.24477
LJ           2.05557         5.41183        -4.35912
LJ           4.57954         -5.7446         5.40704
LJ           5.43545        -3.84521        -1.15826
LJ           -2.5931         6.01548         2.86109
LJ          -2.48361        -5.15122        -2.73186
LJ           5.50261         4.28553       -0.983722
LJ           1.83847         4.48637         3.10301
LJ          -1.14209        -6.10738        -1.38239
LJ          -5.16802          -3.597         4.77509
LJ           -3.5138       -0.579996         6.05414
LJ          -3.53806        -1.32304        -5.38453
LJ          -1.34479       0.0385542        -6.39164
LJ          -5.54539         3.19651        -2.13021
LJ          -5.85069       -0.546414        -4.07868
LJ         0.0649706        -2.79117       -0.909892
LJ           2.79741        -4.91799         1.02295
LJ         -0.179546        0.166753        -3.01722
LJ          -4.32438         3.99517        -2.22227
LJ           5.91026        -1.28846         -3.6847
LJ           1.51167         1.55938        -4.35695
LJ          0.236758        -5.09274        -3.30724
LJ           -3.0566         -3.6496        -3.14614
LJ           3.51284         6.16176        -3.90087
LJ          -4.66196       -0.374308       -0.879873
LJ          -5.01819        0.946241         -3.2122
LJ           4.36456        -1.69165         2.23741
LJ         -0.710757         2.57351        -5.54795
LJ            3.6717         1.98675       -0.192973
LJ         -0.830018       -0.532124        -4.81328
LJ            2.0775         -6.2517         4.40722
LJ           6.06998        -4.23739          3.2235
LJ          0.983737         2.94043         4.58656
LJ           4.13665         2.34908        -1.58734
LJ           1.52649        -6.28739         -4.9335
LJ          -3.01572         3.18746        -5.24075
LJ          -5.71425        -6.21379         4.05555
LJ           -2.1271       -0.331704       -0.639088
LJ         0.0248592        -1.23029        -6.06552
LJ          -1.54107        -2.38102      0.00371027
LJ         -0.323617         5.71156        -3.52463
LJ          -4.03825         5.10595        -5.47611
LJ           5.80469         3.73286        -4.44183
LJ          -3.03043         1.45835         6.01079
LJ          -5.99578        -4.72374         5.15217
LJ          -1.15446         2.26004         3.34056
LJ           5.04227          2.9693        -2.06399
LJ           3.91762        -2.84313         -5.7913
LJ           -2.7985        -3.10517         5.08236
LJ          -4.50332        -5.27925         2.62531
LJ         -0.591336         1.75802      -0.0195551
LJ         -0.418264         4.06785         5.97387
LJ          0.282784         3.12642        -4.41207
LJ          -4.47553       -0.866391        -2.56009
LJ          0.999075       -0.828549        -5.24223
LJ          -1.98035         -1.9338        -6.10238
LJ          -1.10268         5.03699         1.55273
LJ          0.955684        -3.14793        0.475059
LJ           5.67631         6.43056          6.3753
LJ          -5.53962         1.62427        -5.13222
LJ          -2.40557         1.14765        -1.94844
LJ          -6.19279         1.13361        -2.89994
LJ          -2.78531        -5.45035         3.89567
