108
#Comment!
LJ           6.18167        -2.32066         6.39644
LJ          -4.56659         2.84741        -5.73471
LJ          -1.05346       -0.951249        -5.80316
LJ          -3.42943         3.89685         -1.7619
LJ           3.26096         4.04641       -0.222834
LJ          -3.54631        -2.91833          5.5771
LJ          -1.92365       -0.583824        -5.20641
LJ         -0.749666        -5.62511        0.582291
LJ           3.76169         5.22042        -1.76798
LJ          -2.77637         -3.3346        -5.47017
LJ           3.38854        0.821606        -1.30834
LJ          -3.58592        -1.85841         3.93085
LJ           4.49564        -1.64547         1.38146
LJ           -4.2006          6.0712         2.75006
LJ          0.539487         4.57106        -2.26317
LJ           1.03317        -4.60539         3.73711
LJ          -1.26353          3.3418         6.30993
LJ            5.4656        -2.68807         1.21947
LJ          -1.79196         4.77582         -1.7986
LJ          -3.64953         0.38585        -1.72146
LJ           1.16683          5.9191         2.73561
LJ           2.12802        -5.93043         1.18482
LJ          -3.52911         5.08247         3.39989
LJ          -5.99784       -0.473189        -1.99723
LJ          -5.26323        -2.47176        -1.34705
LJ           1.03974        -2.74638        -5.73709
LJ          -1.81517        -1.55454        -4.80936
LJ           3.52937        -2.36823         2.87544
LJ           4.86214         -4.2099         6.12348
LJ           -4.7177        -4.58012        -3.34474
LJ           1.15402        -6.22077        -2.68597
LJ            6.2344        -6.21568          2.8612
LJ           6.02288        -3.23731         2.94401
LJ          -2.27264         1.42211        0.693093
LJ           3.65019           6.435         2.73688
LJ           3.24274        -4.72834         2.39806
LJ          -2.76939        -2.30638         3.46357
LJ         -0.821903         2.45056          4.0796
LJ          -2.13003        -2.28107        -2.79143
LJ          -6.03962           4.159        -2.12311
LJ         -0.816558         1.15132          4.1841
LJ          -2.27627        -0.78151        -3.68067
LJ            1.9651         -1.3425         1.26646
LJ          -6.25312         3.51829         1.08965
LJ           2.49188        0.395623         5.88068
LJ          -2.21465      -0.0227047         4.09763
LJ           2.26988         5.31838        -4.46073
LJ           4.53496        -5.78022         5.21465
LJ           5.76586        -4.19511         -1.2146
LJ          -3.11021         6.30427          2.9641
LJ          -2.48776        -5.23466        -2.71652
LJ           5.27398         4.17629       -0.928857
LJ           1.71863         4.38592          3.3918
LJ          -1.41009        -6.27667        -1.44875
LJ          -5.32892        -3.72564         4.71635
LJ          -3.57315       -0.671756         5.97373
LJ           -4.0074        -1.20263        -5.24041
LJ          -1.32952     -0.00630929        -6.09183
LJ          -5.51682         3.05581        -1.92043
LJ          -5.68016       -0.572879        -4.19064
LJ          0.147411          -2.624       -0.826464
LJ            2.7096        -4.81306         1.12128
LJ         -0.476154        0.208994        -2.81044
LJ          -4.31857         4.21752        -2.31272
LJ            5.9258        -1.23793        -3.52029
LJ           1.42132         1.68061         -4.4059
LJ        -0.0363309        -5.03193        -3.53813
LJ          -3.18035        -3.17166        -3.10105
LJ           3.40045         6.01651         -3.9048
LJ          -4.90692        -0.50813       -0.981162
LJ          -5.23485        0.920048        -3.58414
LJ           4.34191        -1.59351         2.59233
LJ         -0.463619         3.13599        -5.57078
LJ           3.70923         1.63019       -0.228874
LJ         -0.805924        -0.16883        -4.67289
LJ           2.17715        -6.24821         4.25712
LJ           5.62658        -4.15224         3.34821
LJ          0.987626         2.89488         4.49447
LJ           3.85129         2.57583        -1.41553
LJ           1.48483        -5.95298        -5.02483
LJ          -2.97441         3.26626        -4.85175
LJ          -5.46715         6.29503         4.04554
LJ          -1.94789        -0.28033         -1.1185
LJ          0.205676        -1.33274        -6.28537
LJ          -1.38176        -2.27404       -0.227015
LJ         -0.311826         5.08958        -3.44138
LJ          -4.58989          5.1553        -5.22124
LJ           6.30191         3.74275        -4.40045
LJ          -3.03702          1.4363            6.07
LJ          -5.71646        -4.68239         4.88327
LJ          -1.02355         2.17309         2.98868
LJ           5.10226         2.69682        -1.99082
LJ           3.93179        -3.13368        -5.87329
LJ          -2.79222        -2.91865         4.82994
LJ          -4.81539        -5.18201         2.76454
LJ         -0.316529         1.37182       0.0868088
LJ         -0.355602         4.15002         5.92447
LJ          0.244069         3.14264        -4.24258
LJ           -4.5949       -0.418926         -2.6945
LJ           1.13442       -0.873746        -5.25256
LJ          -1.93168        -2.18774        -6.30488
LJ          -1.05074         5.08902         1.71349
LJ           1.34587        -3.14108        0.146994
LJ           5.85265         6.02929         6.11501
LJ          -5.44441         1.55543        -5.32277
LJ          -2.03946        0.946213        -1.59526
LJ          -6.36165         1.47892        -2.88012
LJ          -2.84883        -5.51933         3.53045
