108
#Comment!
LJ          -6.26727       -0.495137         5.73029
LJ          -5.58272         2.39484         6.29052
LJ          -2.21261        -2.06516        -6.38195
LJ          -4.71117         1.79219        -2.08433
LJ           3.09934         3.83376         0.71376
LJ          -4.47904         -2.2293         5.51643
LJ         -0.830368       -0.250051         -3.1625
LJ          0.119548        -4.58534        -1.98695
LJ           4.21947         6.25456        -3.07584
LJ          -3.56899        -4.04402        -2.93231
LJ           5.25884       0.0163798        -1.72195
LJ          -2.79825        -0.40436         3.15549
LJ            4.6453        0.160597         3.31675
LJ          -6.23232         6.07262         2.75795
LJ         0.0615756         4.85682        -1.80461
LJ          -1.74439        -2.61605          4.2952
LJ         -0.223719         2.09767        -5.57157
LJ           5.65602         -3.0531       -0.703152
LJ          0.167346        -5.01719        -2.95074
LJ          -4.96092       -0.596976        -1.91966
LJ           1.91085         5.93999          3.1192
LJ           1.29717        -4.93013         1.64575
LJ          -3.06409         5.12036         4.67463
LJ          -6.43325         1.31833        -2.61538
LJ           -4.9605        -4.74086         -1.1843
LJ           1.74083        -2.53824         5.15776
LJ         -0.930323        -1.33533        -3.31093
LJ           2.34123        -2.07171         2.15279
LJ           5.36945        -5.13527        -6.29018
LJ          -5.51998        -4.33255        -2.07022
LJ           2.01686         5.83844        -4.70592
LJ            5.4599         4.60787         4.07579
LJ           6.25127        -3.92392           3.738
LJ            -2.837          2.9772      -0.0309557
LJ            3.4125         5.68523         4.48599
LJ           4.61633        -4.96164         3.14186
LJ          -3.10747        -2.43375         2.48573
LJ          -2.06867        0.171078         2.99733
LJ          -2.99941        -2.30846        -1.74051
LJ           -5.5671         3.09502        -1.55612
LJ          0.479372         1.73186         3.36721
LJ           -1.8862       -0.535423        -3.66227
LJ           1.41465        -1.09251         1.22181
LJ          -5.88326         3.77042         2.30641
LJ            3.3839        0.160641         4.87389
LJ          -0.54626      -0.0447946         3.30083
LJ           3.01347         4.67064        -5.29929
LJ           4.32047        -5.91512         4.21802
LJ          -5.40808        -5.80396        -1.53834
LJ          -5.44469         6.10627         3.75572
LJ          -2.41712        -5.78472        -2.53386
LJ           4.02985          3.4369       -0.708564
LJ          0.956755          3.7257         4.88863
LJ          -2.51121         5.62623        -2.18757
LJ          -5.76123         -3.2796         4.06264
LJ          -3.71878        -1.17883         5.56702
LJ          -5.37906        -1.20805        -5.72349
LJ          -1.48381        0.507218        -3.66229
LJ          -5.03446         2.26963         -1.1317
LJ          -5.95312        0.726603        -3.25214
LJ          0.354131        -1.76213       -0.191752
LJ           2.26811        -4.58924         2.07869
LJ          -1.08647         1.42371        -2.32848
LJ          -4.54092          4.8893        -2.63937
LJ           6.32798       -0.770962        -2.76835
LJ          0.994415         2.25383        -4.72374
LJ          -1.35198        -4.80319        -4.64589
LJ          -3.12168       -0.601121        -2.74242
LJ           3.07056         5.63187        -3.42496
LJ          -4.37665        -1.73877       -0.138496
LJ          -6.29448        0.248718        -5.09966
LJ           4.10036        -1.08778         3.19073
LJ          0.364901         5.72751         6.43331
LJ           4.16267         1.67693         1.80742
LJ          -1.54332          1.6374        -3.53114
LJ           2.92041         6.42857          3.2505
LJ           3.38583         -3.8557         4.25477
LJ          0.993964         2.93343         3.91408
LJ            2.7949          3.4814       -0.812451
LJ           1.29075        -4.36684        -5.38786
LJ          -2.86069         3.64346        -2.93502
LJ          -3.93823         4.66172         3.52878
LJ           -2.2291        -1.81224         -3.2886
LJ        -0.0370466         0.73702         5.52737
LJ         -0.215656        -1.78282         -1.5334
LJ         -0.238399         2.31784        -2.00343
LJ           5.57944          5.1846        -3.88687
LJ          -4.09075         3.94119        -4.18872
LJ          -3.07934         1.28503         6.40421
LJ          -4.39923        -5.57503         4.19129
LJ         -0.430173         1.46216          2.3683
LJ           5.12091         1.28479        -1.45281
LJ           4.18661        -4.81077         6.42945
LJ          -1.67051        -2.49936         2.93772
LJ          -5.66305        -5.46692         3.26082
LJ          0.731755        -0.35234        0.361316
LJ        -0.0822126         4.27409         6.45096
LJ         0.0394297         3.01168        -4.22659
LJ          -5.79278         1.80748        -3.50972
LJ           1.37173        -1.36976        -5.84803
LJ          -1.56601         -3.1231         5.92138
LJ         -0.782919         5.36492         2.52947
LJ           3.11346        -3.01662        -1.56512
LJ          -6.23953          4.0925         4.72158
LJ          -4.75344         1.42761        -6.13356
LJ         -0.190207        0.453964         0.18646
LJ            6.0294         3.09758         -2.7459
LJ          -2.43875        -4.73261         1.87988
