108
#Comment!
LJ          -2.63113          0.2162         1.73006
LJ          -3.71061         -3.3953         0.93314
LJ          -4.63618         5.61487         3.04837
LJ          -3.51587         1.53083        -5.14331
LJ          -2.50049         4.27815         2.49097
LJ           2.58455        -2.46491        -6.46018
LJ           1.74107         -2.3857         3.32876
LJ           2.42344         1.70571        -5.33292
LJ          0.634861         5.79198         -4.6481
LJ          -5.69668         2.91256        -6.25113
LJ           4.37441         -3.1706        -5.45761
LJ           1.87646        -2.83655       -0.786692
LJ          -2.82627       -0.131584        -5.98649
LJ          0.904164         -2.7834         5.54876
LJ          -2.82753         3.59479        -1.05589
LJ        -0.0308983        -4.54043        -4.50932
LJ           1.16402        -2.84013        0.386517
LJ          -5.99107        -5.14594         4.81212
LJ          -4.16125         3.74291         1.96698
LJ           3.45491         6.22899        -1.67284
LJ           6.37157         2.48176         4.22174
LJ          -3.08049        0.960272         2.89569
LJ          -3.73186         5.48274        -5.23196
LJ         -0.408574        -2.50689        -5.25931
LJ          -1.52842        -2.91943        0.685239
LJ           5.90699        -3.32072          3.4618
LJ         -0.664916       -0.139717          3.0982
LJ           4.95546        -5.24837        -3.07078
LJ           5.06086         1.97193        -4.86872
LJ           4.57782        -6.00297         4.79723
LJ           4.64162         2.81911         6.27711
LJ           5.14546         1.47356        -5.99237
LJ           2.86097        -1.85623         2.70185
LJ           4.19383         4.09755         4.12979
LJ           1.17527        -2.44052         1.85748
LJ            4.5937         5.01008        -5.75448
LJ         -0.735157         -2.2196        -1.17791
LJ          -2.83015        -1.33023         4.67017
LJ           5.60539        -1.05216         1.12819
LJ           -1.3975        -1.75212        -2.45675
LJ           3.65328        0.192863         1.69147
LJ         -0.560111         1.76941           5.933
LJ          -1.58643       -0.240603           1.865
LJ          -5.64629         3.93838        -5.71121
LJ           2.56021       -0.400638        -1.43893
LJ           4.22426       -0.737611         2.07977
LJ          -5.93871       -0.831415        -3.32995
LJ           5.76271        -3.54776        0.809731
LJ          -5.11598          5.8804        -4.07036
LJ           3.64475         4.81976         5.58177
LJ           3.71993         1.82487        -2.98951
LJ         -0.775933        0.617441         1.91691
LJ          -3.70904       -0.789869        -6.14035
LJ          -5.88654         2.48876        -3.71692
LJ           3.75045        -5.41571         4.54546
LJ          -4.45791         -2.9943         6.38235
LJ           4.72415        -2.03521         3.19499
LJ          -1.76648         4.91384        -5.82653
LJ          -1.91211        -1.29617        -1.60017
LJ           1.96263        -2.19662        -1.97568
LJ         -0.432169        -6.36914        -2.98271
LJ           -1.1815        -4.69693         2.26415
LJ         -0.718554        -3.12267         -2.3128
LJ          -5.02191         3.29193        -2.61774
LJ          -3.45665         3.53287        0.595584
LJ           1.18693         3.77838        -5.56487
LJ          -2.04015         6.35802         2.25173
LJ         -0.695971        -4.45046        -5.39311
LJ          -2.55476        -0.87184         -4.0014
LJ           1.54157        -5.74432         3.63114
LJ          -4.05718       -0.396883         3.18811
LJ           5.78509         3.29428         5.48329
LJ           2.83979        0.759233         5.33631
LJ           6.22632        -5.96759         -2.8446
LJ          -3.30496         4.93448        -3.09987
LJ          -6.15784        -2.52464         3.23746
LJ          -4.60485         -5.4926        -3.85955
LJ          -1.97781         5.18675         4.30547
LJ          -2.81962         2.62228        -1.62125
LJ          -1.89137        0.403413         3.79578
LJ          -2.18005        -6.38778        -2.47523
LJ           4.90279         0.35997         1.80812
LJ           2.24874        -6.30893         2.78613
LJ          -1.07743         4.68168         3.81883
LJ            2.9699         2.84124        -5.55866
LJ           1.75316        -5.75851         6.10208
LJ           2.68697         4.67025       -0.809861
LJ           4.24453         5.35672        -2.02411
LJ          -3.77554         0.26919        -5.81812
LJ           0.80894        -5.98682         5.71909
LJ          0.515327       -0.399816        -3.99885
LJ           2.75092        -2.09927       -0.155617
LJ           5.79495        0.764356           5.868
LJ        -0.0179173        0.296246        -1.89398
LJ          -4.21205         6.32747         -5.5586
LJ            3.1588         5.53887       -0.365554
LJ           3.09888         6.03411        -3.73968
LJ          -3.83425         4.84392        -1.45105
LJ           5.07745         6.31352        -1.91247
LJ            4.1408       -0.866108         3.08738
LJ          -2.23296        -6.05183         3.11709
LJ           2.48043         1.73595          2.6432
LJ          -2.09223        -1.45835         3.81582
LJ           -4.9849        -3.30414        -2.37834
LJ          -3.29949         1.22971         1.58032
LJ           3.01738        -1.05311       -0.630073
LJ            6.4417          4.5875         1.54981
LJ          -3.64795         3.29901        -2.56097
