108
#Comment!
LJ           6.10941         1.70669        -2.38803
LJ           1.36876         3.05031        -1.78808
LJ           1.43562         6.16328        -2.71925
LJ          -4.20058         4.47608         3.49418
LJ           3.92267        0.211587         4.94536
LJ           5.82382         2.23905        -6.43367
LJ          -0.32685        -4.87478         6.33351
LJ          -1.75802         5.86341        -1.92385
LJ           2.69938         4.34542        -6.46177
LJ           5.91553        -2.89791         2.07816
LJ          -5.24768         3.20386         3.23065
LJ           4.17503        -1.17023       -0.677221
LJ           3.33482         -3.5566        0.378947
LJ           5.65957        -2.16525        -3.68087
LJ       8.69313e-06         2.59673        -4.86699
LJ          -3.02719         3.65843        -2.14061
LJ          -4.34946         2.36121        -0.28285
LJ           5.13273        -4.73261       -0.315726
LJ           4.47808        -5.88325        -6.12575
LJ         -0.430625        -2.99598         4.90212
LJ           5.31407         3.20669         2.16483
LJ          0.641391        0.862692         3.00849
LJ           2.26616        -2.42776         2.84471
LJ           1.57851        -2.71866        -4.66939
LJ           3.09601        -4.82626         4.65167
LJ          -5.61998         1.30653        -2.46927
LJ          -1.17936        -3.56381         5.12098
LJ           3.01237        -5.06932        0.342034
LJ           3.83511        -1.72667         -6.3235
LJ           -6.1905          1.8538          5.6717
LJ           5.92736      -0.0799405         1.39353
LJ           4.74165        -3.17948          5.6682
LJ          0.763627         4.59047         5.01388
LJ         0.0186893         3.50339         1.48889
LJ           6.35989       -0.102376         2.32643
LJ           5.51515         4.95945         1.84174
LJ          -5.39468         3.78174         4.43784
LJ           1.27389         5.38802        -4.91575
LJ          0.408849         6.33008        -1.93883
LJ          -1.28168         5.76436        -3.42253
LJ         -0.763196         5.72488        -5.50577
LJ           1.14655        -5.83266        -2.59921
LJ          -1.32633        -5.63864          4.4038
LJ           2.03555         1.89973         -4.3445
LJ          -2.30578        -1.95169         4.64295
LJ          -4.05245         -0.4711        -1.90226
LJ         -0.143192         2.76636        0.868772
LJ            1.4723         5.63167        -1.80275
LJ           6.05794         1.08781        -3.88801
LJ         0.0251359         6.31156        -3.10324
LJ         -0.400836         5.49965        -2.35827
LJ          -2.88786         5.14884        -4.57022
LJ           4.04653         2.10276         2.92092
LJ          -3.90472        -4.24642         2.00931
LJ          -1.39507          6.2947          6.2675
LJ          -6.26042        -2.56318         5.37953
LJ          -1.59031         -1.6092          5.5991
LJ          0.678908         -1.0312         1.19794
LJ          -4.01033        -6.31654        -4.36862
LJ           2.02873        -1.72912        -4.42667
LJ           2.14956         1.65315        0.624694
LJ          0.945308        -6.13725        -4.04939
LJ          -1.38283       -0.380391        -6.09917
LJ          -3.43446         6.26163        -6.43288
LJ           4.65785       -0.637315        0.343463
LJ         -0.660921       -0.642152          5.9054
LJ          -3.03081        -2.59622        -1.90412
LJ          -2.92637        -3.25555         2.46956
LJ            3.3035        -1.92813        -1.79999
LJ           1.16855         3.03243       -0.526841
LJ            4.7721         1.20022         5.92476
LJ          -5.07405         5.43105        -2.39443
LJ          -6.45388        0.259122         3.82072
LJ           6.17844        -2.70483        -1.52128
LJ           2.14958         -6.1319        -3.87587
LJ          -1.18805        -4.64813         4.70773
LJ           -1.9129        -5.63021         -6.0622
LJ           2.60392        -6.06232         4.94898
LJ           2.82451         5.50811       -0.365368
LJ           2.07187         1.24988         2.25589
LJ          -2.87065         2.79384         1.72944
LJ           1.74474        -6.05697        0.405321
LJ          -5.68162         1.21544       -0.377864
LJ           -5.3892      -0.0328795          4.6335
LJ           3.84672        -5.82721        -5.27127
LJ          -3.32304        0.871641         4.89938
LJ           1.10171        -1.74688        -3.42842
LJ          -2.06165         4.70144        -3.84076
LJ          -6.07258         2.59816         4.43579
LJ           6.30291        -4.97604         -1.6509
LJ         -0.301495        -4.26234         5.18177
LJ          -2.84175         4.55566         2.05753
LJ           3.88657         4.55085          6.3114
LJ          -4.51927        -5.04025         1.71151
LJ         -0.129534         4.21438       -0.322496
LJ           3.80347        -5.27393       -0.277329
LJ           2.32538          5.5042         6.41201
LJ           1.46354        -1.97021        0.794335
LJ          -2.16579         1.55995         2.90908
LJ           1.17785          3.7929         6.15602
LJ          -4.83247         4.17362         5.29583
LJ           4.46829         2.91569          4.3093
LJ           3.53168         5.39902        0.470771
LJ          -4.29102        -1.90385         3.83705
LJ          -3.48968         5.27606        -5.42187
LJ           1.22107        0.813777        -4.41725
LJ           1.02326          3.3117        0.435096
LJ           6.30206       -0.286441        -2.84432
