108
#Comment!
LJ           6.09129        -1.18335        -1.78548
LJ          0.421601         2.99973        -2.14799
LJ           1.32492         -5.7157        -3.76326
LJ          -3.32132          1.9984         5.86511
LJ           2.77367        0.155779         3.85485
LJ          -6.39533          4.2253         6.05023
LJ         -0.526503         -5.6841         4.39052
LJ          -1.78615          6.2338        -3.65084
LJ           2.64281         4.50133        -5.25765
LJ            5.3475        -2.16865         3.07838
LJ          -6.05365         2.39658         1.74365
LJ           5.82567       -0.629052       -0.415164
LJ           4.30123        -4.84388        0.851462
LJ          -6.23427        -3.38195        -2.28846
LJ         -0.477879         3.82491         -4.7486
LJ            -3.922         2.87101        0.137227
LJ          -4.42097         5.70083        0.349869
LJ           5.05723        -5.85122        0.820378
LJ           6.38108        -5.14215         5.84866
LJ          0.320473         -1.3123         3.77396
LJ           3.09655         4.30297         2.42369
LJ           2.60238         1.28738         2.06733
LJ           1.02882       -0.173281         2.39813
LJ            2.2164        -1.32951        -3.50415
LJ           5.43189         6.17665         6.26205
LJ           5.70285         3.75816         -1.1442
LJ         -0.909062        -5.18877         5.87041
LJ           3.67873        -5.30417       0.0882368
LJ           3.53335       0.0542912         6.01501
LJ          -5.24925         3.47238         6.01806
LJ           4.53671          -1.337        0.410319
LJ          -6.25086         -2.9616         2.68046
LJ          0.455593         5.79339         3.90692
LJ         -0.271342        -6.44984         2.68902
LJ           5.05073       -0.590051         2.17322
LJ           4.12517        -6.22352         1.42188
LJ          -5.45294         2.64102         4.68236
LJ          0.680822          5.3523        -5.41031
LJ         -0.536734        -5.13162         -2.0519
LJ          -2.79741         5.06532        -3.19866
LJ          -1.93954         4.18661        -5.89367
LJ         0.0998506        -4.49994        -2.92388
LJ        -0.0322355        -6.33279         3.81552
LJ            3.1302            2.29        -3.75568
LJ          -2.43196       -0.693086         5.72096
LJ            -4.671         -1.4292       -0.666388
LJ          0.858152         3.39598        0.344967
LJ           2.08249         5.65899        -2.06019
LJ           -3.8972         0.38917        -3.20456
LJ          0.141748          5.9673        -1.92627
LJ          0.406242         5.01787        -1.56489
LJ          -3.83379         4.55517        -3.13877
LJ           4.16908        0.091006         2.86612
LJ          -3.48006        -4.14277         1.01978
LJ          -2.27142        -5.55639        -6.46178
LJ          -5.26345        -2.06296         5.41271
LJ          -1.44344       -0.238077         5.83933
LJ         -0.295017         -1.4759         2.70255
LJ          -4.25098        -6.20442        -4.13254
LJ           3.02681        -1.61015        -4.36427
LJ          0.373485         3.34637        -1.16296
LJ          0.855872         5.96532        -3.60255
LJ         -0.481503       -0.879242         6.15114
LJ          -3.58524         4.55867        -5.56528
LJ           3.97885        -2.21479         2.51317
LJ          0.817781        -1.23687         5.67757
LJ          -5.25235       -0.191019        -1.81357
LJ           -2.1695        -4.24726         1.10491
LJ           3.49783        -2.64379        -3.29698
LJ         -0.532822         2.42759       -0.637373
LJ           1.93649        0.691089         4.75486
LJ           6.38703          3.9719        -2.13569
LJ           6.42431        0.953364         4.44005
LJ            5.0837        -1.83441         -1.3589
LJ          0.683089        -4.89171        -3.83764
LJ          0.300205        -4.48218         4.08151
LJ          -2.30282        -4.59597         5.85331
LJ           2.65556         5.41079         5.72398
LJ           3.34804         4.76911       -0.771399
LJ           2.47193         3.29662         3.56466
LJ          -3.42372        -5.90043         2.41094
LJ           2.54198         5.73028         1.30342
LJ          -5.39167         1.60125         1.23214
LJ           5.94291       -0.293465         4.03215
LJ           5.56541        -4.34283         5.39824
LJ          -3.26768        0.244966         2.14529
LJ            1.1721        -3.09663        -3.45119
LJ          -1.59086         3.21164        -4.34306
LJ          -4.48633         2.37354         4.03295
LJ           5.45674        -4.86086        0.976588
LJ          0.239627         6.12967         5.50576
LJ         -0.390382          3.9165         1.36761
LJ           4.14648         3.13695        -5.86001
LJ          -5.41244        -5.67677         2.84169
LJ          0.579801         5.73959       -0.578245
LJ           5.30213        -4.85866        -1.31743
LJ           1.53956         6.24872         5.99068
LJ           2.26606        -5.63496         1.66386
LJ          -3.17759         3.17521         2.35418
LJ           1.80971         2.12282        -6.17774
LJ          -4.67258         1.96425         5.43434
LJ           3.28438         2.58316         3.54221
LJ           3.77711         3.40765         2.04623
LJ          -2.05182        -2.35683         1.62933
LJ          -4.21257         4.59928        -4.47215
LJ           2.92647         1.37419        -6.25488
LJ         -0.244232         6.13092      -0.0591913
LJ           4.39829        -2.04245        -4.11393
