108
#Comment!
LJ           5.88399        -3.81285        -2.76613
LJ         -0.840472         2.88501        -2.90687
LJ          0.752557        -5.07958        -5.09339
LJ          -3.70483        -0.97728        -4.57632
LJ           1.96733         1.42297         2.19148
LJ          -4.67824          5.7755         5.74945
LJ         -0.759161        -3.13971         5.01868
LJ          -2.05149         5.84554        -5.61877
LJ           2.96471         5.11254        -3.97123
LJ           3.64602        -1.94141         3.93231
LJ           5.57209         1.95332        0.412585
LJ          -6.17609       -0.633883         1.00718
LJ           5.00701        -4.69873         1.97439
LJ          -5.69864        -4.50245       -0.643784
LJ          -2.15422         3.79729        -4.71963
LJ           -4.5005         1.81334          2.2998
LJ          -4.18756        -2.62084         1.45339
LJ           4.62766        -5.09605        0.953712
LJ          -5.37555        -3.88994          4.2138
LJ          0.686007      -0.0701616         2.07306
LJ            1.3429         4.80859         2.35978
LJ           2.91206        -2.60385         1.28377
LJ         -0.390012          1.8181         2.18122
LJ           4.18991       -0.721355        -3.66041
LJ          -4.31884         4.13505        -5.07115
LJ           4.36213         5.87305       -0.965651
LJ         -0.775496         4.85268         5.95191
LJ           4.61656        -5.83202        -0.41461
LJ           3.60529       -0.723462          5.8037
LJ          -4.48539         5.39807        -6.04732
LJ           3.45335        -2.43524        0.216176
LJ          -4.96899        -2.83945        0.535546
LJ           2.73971         3.21785         3.87636
LJ          -0.80649        -4.22343         2.16293
LJ           3.79845        -1.83997         1.41812
LJ           1.86435        -6.02561        0.929815
LJ          -4.98102         1.02045         4.00839
LJ           0.11068         5.55244        -6.03255
LJ          -1.11405        -4.27083        -2.94799
LJ          -4.33752         5.07941        -2.95846
LJ           -1.6183         2.14692        -5.73113
LJ          -0.97071        -3.07697        -2.89684
LJ           0.82485        -4.65696         2.80911
LJ           4.39964         2.86209        -3.27497
LJ           -1.5175         1.03152        -5.83659
LJ          -5.27767        -1.83213        -1.75265
LJ           1.42887         4.08159       -0.711975
LJ           3.08778         6.13288        -3.69602
LJ         -0.744596       -0.433743        -2.29417
LJ         0.0602406         4.87333       -0.960402
LJ          0.347769         5.38124     -0.00606872
LJ          -4.84399         4.17205        -2.17424
LJ           3.26737        -2.06578          2.3355
LJ          -2.77275          -4.294        0.137267
LJ          -2.75593        -4.02742         6.07759
LJ          -4.23626        -1.53251         5.38856
LJ         -0.284992       -0.263258         6.29191
LJ          -1.44954        -2.02286         4.14484
LJ          -4.36906        -6.46109        -3.88313
LJ           3.12079        -1.27656        -3.91713
LJ          -1.05894          6.0172        -1.35115
LJ           1.70551         6.39104        -2.38753
LJ         -0.543341        -1.51882         5.54299
LJ          -5.42053         3.41226        -3.88181
LJ            4.6391        -2.94686         4.80111
LJ            1.0604       -0.894694          6.3384
LJ           5.05877         2.46566       -0.718114
LJ          -1.69945        -5.11855       -0.491188
LJ           4.12656        -3.89945        -3.67085
LJ          -1.50769         1.69705       -0.747154
LJ         -0.905747       0.0524875         3.32032
LJ           4.01012         2.58717       -0.790411
LJ          -5.74022         1.53031         4.77024
LJ           5.00531       -0.200932        -1.28834
LJ         -0.550529        -3.66331        -3.76488
LJ            1.0153        -5.13158         4.46546
LJ          -2.63276        -3.78372          4.9194
LJ           2.14012         4.16648        -6.15062
LJ           4.50231         3.41359        -1.68073
LJ           2.20836         4.80174         5.39406
LJ          -3.83324        -1.18011         3.01234
LJ           3.77772         2.43589         2.27324
LJ          -5.03634        0.943136         2.98042
LJ           2.03747       -0.867045         5.20804
LJ          -4.95502        -3.67862          3.2514
LJ          -1.82633       -0.292942       -0.792709
LJ           1.04133        -4.81587        -3.96366
LJ        -0.0114387         3.15998        -5.00253
LJ          -4.04281         1.73424         5.24418
LJ           6.13671        -5.32501         3.57621
LJ          0.728403         4.90814         5.69019
LJ            2.6071         3.27207       -0.260033
LJ           4.12875         1.44952        -5.36862
LJ          -5.90682         6.33411         4.30379
LJ           0.48689        -6.38133        0.469713
LJ          -5.93846        -5.26973         -1.7213
LJ         0.0030865         5.69046         4.98528
LJ           1.97377         5.03599         3.80713
LJ          -3.58761         5.64578         0.90822
LJ           1.17394         1.34913        -5.96418
LJ          -3.89615        0.631608         4.52517
LJ           1.54619         3.83213         1.72726
LJ          -6.20779        -6.25322         2.37975
LJ          0.373519        -3.06712       -0.803652
LJ           -4.2994         3.65582        -3.98153
LJ           5.58572          3.1219         6.11236
LJ          -1.61343        -4.01548        -1.25443
LJ           1.25744          -3.162        -5.31747
