108
#Comment!
LJ          -4.67684        0.676525         4.23992
LJ           5.68895         2.29057         5.47949
LJ          -3.22176        -4.47543         5.16591
LJ          -5.75125         1.09481        -3.09775
LJ           2.50573         4.15934         2.43614
LJ           6.39954        -2.82007         6.45738
LJ         -0.810485        0.143237       -0.663616
LJ           1.15004        -1.60895        -3.16075
LJ           3.18429         5.76488         -5.0645
LJ          -5.08135        -5.88628         1.53326
LJ           5.82237        -2.91679        -2.26398
LJ           -6.0452        -1.13959         1.64492
LJ             -6.24        0.917916         5.23079
LJ           3.69477         2.79078         2.84057
LJ         -0.982079         5.16015        -1.21624
LJ            6.2545          1.0498         3.88939
LJ          0.368413        0.302466        -3.55543
LJ           6.21822        -4.07088        -3.69438
LJ           3.74573       -0.952388        -5.35304
LJ          -6.18635        -2.47854        -1.84338
LJ           3.46403         5.73269         3.73011
LJ          0.774583        -3.13926         2.91002
LJ          -3.17332         5.17937         5.91086
LJ           3.66228         5.04161        -3.77281
LJ          -3.81601        -6.36768       -0.202532
LJ           3.53162         -2.3339         3.71758
LJ         -0.122014       -0.670595       -0.926381
LJ           2.98328        -5.03007         1.66057
LJ           5.87905         6.08447        -5.85856
LJ           5.71889        -4.12793       -0.308504
LJ           3.61823         3.92877        -6.16294
LJ           4.78977         1.39544         6.24718
LJ            5.1487        -2.66343         5.13131
LJ          -4.52673         5.16837        0.267193
LJ           2.62515        -6.05784         5.00348
LJ           5.64491        -6.44736         4.40717
LJ          -2.78754        -2.31733         1.36081
LJ           2.62538        0.694622         1.33079
LJ          -4.80055         -1.7018       -0.628841
LJ          -4.38751         1.20658       -0.999828
LJ           2.20871         3.77761         1.24363
LJ          0.247749        0.535884       -0.795214
LJ        -0.0305056       -0.130601         1.90685
LJ          -5.46148         4.34216          4.5834
LJ           2.81787        -1.06014         3.65208
LJ           1.68389       -0.887744         1.43856
LJ           4.07813         3.10355        -6.35324
LJ           4.88954        -5.16206         2.68331
LJ           -3.8879         4.29341        -2.17495
LJ           3.09583         4.35406         3.27333
LJ          -1.07363         5.16312        -2.50059
LJ           2.42505         2.51859       0.0339484
LJ         -0.837366         1.97129         6.40292
LJ          -3.72302         4.42284        -3.52477
LJ           5.97815        -3.05368         3.01941
LJ          -3.55821        -1.37737         5.89618
LJ           5.89219        -1.07787         4.86742
LJ          -1.10924         2.11663         1.28859
LJ           -3.8895        0.299514        -1.44074
LJ           5.53235         4.33829        -2.66493
LJ          0.135091        -2.58343       -0.203935
LJ           1.08437        -4.12527          3.1651
LJ          -2.15755          3.3539        -1.83869
LJ          -5.14373         4.91239         -3.8898
LJ          -4.68752         1.07793        -2.48791
LJ           2.77553         2.50902        -5.68906
LJ          -2.85498        -4.81584         6.03296
LJ          -1.32527         2.78402         -3.2507
LJ           1.37762        -4.66417        -2.90479
LJ          -2.58679        -3.82834         1.43818
LJ           5.76033        -1.64817         5.85308
LJ           4.49804          1.9195         4.82423
LJ           1.27666         -4.1025         4.44412
LJ           4.85348         2.80208         5.80644
LJ          -3.01985         3.28594        -2.92057
LJ           4.83181         4.30145         2.33555
LJ          0.248456        -3.98247         6.32728
LJ          0.561918         3.34717         3.52246
LJ          0.456449         4.06023       -0.656411
LJ         -0.125613        -2.30863         4.40335
LJ          -1.98784         4.73519        -1.92185
LJ         -0.650982          3.0235         3.08303
LJ          -4.74987          -4.293        -6.06815
LJ         -0.308477         4.84818         4.16119
LJ           1.78347       -0.616672        -3.16706
LJ          0.641571        -1.84877       -0.675727
LJ           3.86236         3.84204        -2.00765
LJ         0.0957658         4.40319        -3.08429
LJ          -3.71132         1.03215        -5.89507
LJ          -2.24935        -6.01008         4.57796
LJ         -0.040423       0.0636876         3.28337
LJ           4.78733        -1.67378       -0.479079
LJ           4.66722         5.33208         5.53811
LJ          -0.74038        -2.06544         1.34322
LJ          -5.03507        -5.41935          4.5875
LJ           1.41457         1.10627        -1.31066
LJ          0.902936         5.15475        -4.90089
LJ          -1.58048         3.08583        -4.49042
LJ           4.75464         3.62389        -2.55577
LJ           2.22431        -1.55069         5.83605
LJ          -2.16192        -3.77457         5.16932
LJ         -0.333764         6.44245         3.64619
LJ           6.11686        -2.62189        -4.34482
LJ          -5.71377         1.35391          1.9738
LJ          -4.20025         1.49576         5.24908
LJ           2.00659       -0.181043         2.17873
LJ           5.98905         6.27136         -2.1123
LJ          -1.73954        -2.87437       -0.558291
