108
#Comment!
LJ          -3.20582        -5.53041        -4.90715
LJ           3.83358         3.88861        -3.32644
LJ           3.47319         1.66776        -2.17563
LJ           3.09455        -2.51065        -2.45728
LJ           1.64777         4.25499         4.47283
LJ          -2.84522         0.77721         5.92699
LJ        -0.0944027       -0.824964        -5.89721
LJ          -5.02324           3.273        0.552215
LJ           2.72998         2.36935         4.48072
LJ          -5.66354        -6.05564        -1.22285
LJ          -1.20467         1.89874         2.62793
LJ           2.86258         2.40444         3.28434
LJ           2.20275        -2.18501        -3.18195
LJ           1.28732         0.44069         5.10031
LJ          -1.31201        -2.24821        -4.67313
LJ           2.95189         4.07052        -2.83704
LJ           1.74211        -1.25199        -3.55497
LJ           2.75013       -0.620087        -4.99901
LJ          -1.63546         1.57573         1.29008
LJ          0.560464        -2.24124         3.17659
LJ         -0.581255        0.787939         3.40091
LJ          -5.67318        -1.09311         5.01987
LJ           6.32276         4.21725        -5.95069
LJ         -0.987577        -2.90253         3.22503
LJ         -0.278757      -0.0328881         4.30307
LJ          0.980069         2.11048         2.62858
LJ            2.4167        -2.09579         6.20504
LJ           1.69505        -1.34855        -1.81076
LJ           6.07773         1.12475         5.50794
LJ           6.20598        -1.30323         5.71237
LJ          -3.66185        0.132217         2.04297
LJ         -0.907822        -5.53963        -5.66782
LJ           1.07208         3.72602        0.728877
LJ           4.69477         3.39508         4.00484
LJ          -3.26382        0.929876         2.82833
LJ          -3.51552          2.5913         4.59922
LJ           6.41543         -4.7182        -2.07607
LJ            4.7724         3.39239        -3.04769
LJ           2.90337         2.41926        -2.81848
LJ         -0.705172         -6.0371         -4.3122
LJ           -2.4868        -4.80447         -2.0797
LJ           1.54067        -4.58544         4.40659
LJ          -1.81514        -4.51485         -3.4453
LJ          -3.10233         5.09756         6.39697
LJ          0.758283        -2.97645         4.16979
LJ           3.00338       0.0633805        -6.03623
LJ          0.692346        -1.68196        -3.33573
LJ            3.8788        0.610448        -1.91875
LJ         -0.577025          3.1853        -2.24281
LJ           4.15416         3.79213        -2.27014
LJ          -1.60797        -6.04112        -5.08694
LJ         -0.799884        -5.78469        -3.18429
LJ           4.51187        -4.03437         4.63668
LJ          -2.93359        -2.56861        -6.35741
LJ          -3.27407         -4.7901         5.51427
LJ             2.288        -3.88615         5.09854
LJ           1.74247        -2.55711         3.58542
LJ          0.924197        -1.07449        -4.61594
LJ          0.146113         4.63924        -6.20238
LJ         -0.259083         -3.8701         3.95631
LJ           4.30111         -4.2901        -4.13446
LJ           4.05651         2.70296        -2.40908
LJ          -4.25796        -3.48201        -3.01441
LJ             6.343       -0.945848         4.00904
LJ          -5.58618         1.08376         6.21977
LJ          -6.19123        -4.51245        -6.04942
LJ           4.14728         3.22113       -0.633873
LJ           5.28961       -0.592599         5.68089
LJ           -2.8088          3.4186       0.0137536
LJ          -3.99443        -5.47332         2.50861
LJ           6.13433          4.2911       -0.977901
LJ          -1.76537        -2.21724        -3.62956
LJ           5.99214        -3.27676        -1.85714
LJ          -3.92223        -5.76128        -2.21576
LJ           4.34889         4.84874        -3.52404
LJ          -2.37079        -5.64165        -5.87807
LJ          -1.39036        -3.21285        0.875628
LJ          -5.22811        -3.31902         2.82551
LJ            4.5109        -4.47656        -1.18921
LJ           1.99549        -2.36759        -1.71175
LJ          -6.37318        -4.81462         4.50925
LJ          0.161064        -5.45359        0.499121
LJ         -0.926696         4.73426         2.07698
LJ           2.67506       -0.260872         3.94613
LJ           5.62221         4.97679        -2.39697
LJ          -5.62826         3.74932         4.43181
LJ          0.138176         3.91978        -3.28452
LJ         -0.725639         5.98905        -3.14941
LJ           3.92271         -5.0328         4.36446
LJ          -5.43888        -3.74855         4.88679
LJ           -1.7072        0.790436        -5.75383
LJ           2.91666         1.11503        0.470751
LJ           4.31114        -4.78433         2.66544
LJ           -1.9839        -3.01556        -1.99911
LJ          -1.58795        -6.10675         4.65185
LJ           5.21793       -0.158906        -3.52664
LJ           6.40643         4.86706          -3.232
LJ          -4.11063         1.30079        -4.28429
LJ          -2.85805         5.72763         4.71159
LJ          -2.22334         4.06011       -0.959157
LJ           6.08751        -5.84916         5.00046
LJ           5.11764        -3.02591          4.7817
LJ           5.23355         5.55674         6.15194
LJ          -5.75858        -0.17122         5.44954
LJ           5.11487        -5.16942         3.49044
LJ           -2.7597        -3.65836       -0.469618
LJ           6.37397        -4.77799         2.88908
LJ           5.35794         1.02114         4.29459
