108
#Comment!
LJ        -0.0383995         6.22163         5.76108
LJ          -3.62244        -6.05107        -2.74433
LJ          -3.59165      -0.0120703        -2.40076
LJ           4.85756        -2.88788         -4.5671
LJ          0.448545         4.70736           4.725
LJ          -3.87829        -1.00985        -6.11549
LJ         -0.614509         -3.4139         4.44572
LJ          -4.44351         1.30119         4.49993
LJ         -0.230926        -5.19861         5.56662
LJ           1.84752        -2.47958         3.58506
LJ          -1.11054        -5.23568        -3.71372
LJ          0.321855        -2.57262         2.87118
LJ          -4.91526        -1.02702         4.89033
LJ          -1.04448         3.77945        -6.27703
LJ           -6.2421        -2.07878        0.349551
LJ           -2.2481         6.24002         4.23661
LJ           2.17643        -1.91046         1.96642
LJ          -4.51496        -1.03548        -5.00819
LJ          -5.46566        0.324811          1.2045
LJ          -2.20887        -4.07926        0.767107
LJ          -3.20512         5.40288         6.45231
LJ          -4.64591         5.52669        -2.23469
LJ           1.69368         4.21565         5.21995
LJ          -5.11968         -5.7891       -0.968898
LJ         -0.261741         1.98205        -2.47613
LJ          -3.63834        -5.80771       -0.888761
LJ             1.456        -4.75079         3.72943
LJ           -5.1059         1.18012           2.262
LJ          0.760051         -3.4539         4.55572
LJ           1.90666         3.62834        -1.21469
LJ          -2.33879        0.617596        -4.48375
LJ           1.86155         3.85346        -4.86106
LJ         -0.213158         2.97481         5.87394
LJ           1.46986        -3.27571         5.61225
LJ          -1.09491         4.75448        -5.30188
LJ           5.11802         5.40975         4.25752
LJ           2.27203        -4.36995        -2.02797
LJ         -0.197874        0.325358         2.02844
LJ          -3.57134         6.08342       -0.494098
LJ          -1.46525        -4.31253        -4.82908
LJ           4.91483         4.25992         4.20584
LJ          0.016661         4.23741         2.88126
LJ           -5.5499         5.42624        -3.90139
LJ           1.60342       -0.850078         2.88863
LJ          -3.23309        -6.34075        -3.61943
LJ           -3.7677         4.65325        -5.81849
LJ           4.69699       -0.186191         4.21908
LJ           5.63919       -0.123161         5.26786
LJ           3.19816        -1.01557        -3.58455
LJ            -3.733       0.0119133         2.17015
LJ           6.09983          6.2504         -4.1201
LJ           1.18215         1.20756          4.5699
LJ          -2.95427         1.52195        -4.45911
LJ          0.130053        -4.78519        -3.21898
LJ           1.04771        -3.51594        -6.09879
LJ          -3.49096        -5.28901       0.0536918
LJ           5.61286         4.51629        -1.86872
LJ          -4.38756        -2.32271        -5.88052
LJ          0.788585       -0.920968        0.784854
LJ          -5.70718        -4.77316         3.01933
LJ           6.03472         6.15472         2.98926
LJ           2.26611         5.33824         3.43858
LJ           5.01668       -0.838213        -3.64041
LJ          -1.90238         3.26147       -0.698108
LJ            1.4503         2.76682       -0.507586
LJ           3.36982        -5.53571         5.94732
LJ          -5.54927         4.95058         5.08054
LJ           2.08062        -3.97553        -3.11896
LJ           1.23181        -3.79331         3.17382
LJ           4.51946        -6.39547         5.45964
LJ           1.29888        0.065425         2.55197
LJ          -4.72883        -2.29289        0.301672
LJ         -0.299797         4.89347       -0.515943
LJ           5.43231         6.16697         -1.7518
LJ         -0.969011        0.278653        -3.75888
LJ          -2.22563         5.63939        -4.83197
LJ          -2.69931        -5.84316         0.56389
LJ          -5.63103       -0.177913        -5.21738
LJ          -4.36232         6.10178        -1.29282
LJ            4.7269        -4.64901        -5.55227
LJ          -5.77866        -3.23322         -2.2002
LJ           4.62737         3.97534         5.84324
LJ           3.46155          4.7611        -2.36341
LJ          -5.06338        -4.86719        -3.12911
LJ           5.13783         5.11813         5.25645
LJ           3.75247        -5.65986         -3.0329
LJ          -3.87273         3.46385         5.32699
LJ           3.00575       -0.575935        -2.48795
LJ           5.68139        -2.01505        0.892566
LJ            1.8629        -1.62669         5.05007
LJ          -2.57892         1.55734        0.687355
LJ          -1.18271        -6.03806         4.08202
LJ         -0.183169         -3.6049         2.17871
LJ          0.402929        -5.55553           4.021
LJ           -2.5059        0.673246         4.22194
LJ           1.85109       -0.293623        -4.53955
LJ           1.30657         4.49121         2.59681
LJ          -1.04126         3.33242        -3.92377
LJ           5.00054         2.53147          5.7141
LJ          -3.59605         2.97557         2.24643
LJ          -2.71198        -3.60543       -0.597093
LJ         -0.927521          2.7558        -6.36171
LJ           4.11803        -5.70916        -2.09072
LJ           5.95856       -0.637619        0.584086
LJ           4.73233         6.41302        -3.58484
LJ           3.16941          3.2757       -0.751592
LJ          -3.99109         5.42304         2.41363
LJ          -2.35413        0.209301         5.89987
