108
#Comment!
LJ           1.07548         6.22897         3.48428
LJ          -3.17771         4.72229        -3.71415
LJ          -2.57748         1.05915        -1.79641
LJ           5.59823        -1.99951        -2.74271
LJ           3.49349         3.72314         6.32228
LJ          -3.53541       -0.231019         5.49064
LJ          -3.96748         6.03799         3.07085
LJ          -5.55211         1.25966        -1.57386
LJ         -0.659587        -3.43899         5.05723
LJ           1.32597       -0.998382        -2.18268
LJ          0.872117        -3.46504         -3.9104
LJ          -4.48021        -2.97532         2.70213
LJ          -6.14523         2.22533           6.013
LJ          -3.07262         -2.9604         6.24183
LJ          -3.68955         5.04533         -1.3888
LJ         -0.589812         -3.0082        -4.23791
LJ            2.8563        -2.16538          3.3411
LJ           4.53099        -1.27087         6.15653
LJ           1.54145        -1.12927        0.707219
LJ            2.9405         4.25494         3.19412
LJ          -1.99029        -5.38129        -5.70431
LJ          -2.79551         5.78905         -3.4557
LJ          0.652194        -5.73243         4.11527
LJ           2.78614        -4.55861        -2.08922
LJ        0.00346559         4.19783         6.06352
LJ         -0.226765        -5.05986        0.467513
LJ         -0.846128          -3.599         3.63897
LJ           -2.2965         2.06752        0.443653
LJ          0.228309        -2.97255        -5.09187
LJ            5.1517         5.41743        -5.45032
LJ          -3.88853         1.04934        -1.64522
LJ            5.0235        -1.10449        -2.63381
LJ          0.292098        -0.59631         3.41411
LJ          0.948211        -4.15846        -5.65169
LJ           3.72244         2.20001        -5.45697
LJ            4.6905         2.90502        -6.35562
LJ         -0.978924        -4.99318        -3.64462
LJ           2.42389         1.70777         3.77979
LJ          -4.85745          3.6889         1.83487
LJ          -4.06303        -3.88304        -4.22032
LJ           3.81549        -6.04826         4.40821
LJ        -0.0529881         5.26218         2.37236
LJ          -1.75868         4.07265         4.76278
LJ           3.32272         -1.9283         4.40879
LJ          -2.05927        -5.06526        -3.99323
LJ           3.52901         4.97408          5.7594
LJ           2.98562        -2.22645         6.00724
LJ           3.96092         2.15035         3.61706
LJ           6.32369         3.37541        -4.12648
LJ          -2.97732         1.25854       -0.357644
LJ          -5.32067          2.5709        -5.60717
LJ           2.24254        -3.72743         6.37305
LJ          -2.95115          1.8818         5.01455
LJ          -1.24939        -3.99356        -3.91538
LJ          0.975142        -3.98517         6.01131
LJ         -0.763822        -5.75712       -0.615337
LJ           2.93153        -6.35263         3.90143
LJ          -6.36194         -1.4289         2.42522
LJ          -6.14081        -5.69914        -1.36737
LJ           6.11988        -5.18213         2.98759
LJ          -2.65524         -6.2373        -0.43042
LJ           2.03055         2.34337         5.65401
LJ           2.09146        -3.87698        -4.49563
LJ          -5.13404        -4.91788         1.15733
LJ           1.49432         5.80434         2.31925
LJ           2.07342        -3.45463         2.61429
LJ          -5.82471        -4.33492        0.342883
LJ         -0.999434        -3.66774        -2.70461
LJ           5.78207        -1.08533        0.957038
LJ           5.80489        -3.37826         4.62393
LJ           0.90888        -1.39086         4.71622
LJ          -5.14866        -1.85112         2.95497
LJ           2.30664         3.58549        -3.11225
LJ          -5.21589         4.75897         -1.5688
LJ          0.893127         6.06173        -0.18343
LJ          -5.63471          6.3605         4.48175
LJ          -1.81191        -2.74698         3.21995
LJ          -2.20674       -0.851239         5.24332
LJ           -1.5101         2.95602        -2.06314
LJ           4.08526         3.09491        -4.04629
LJ            2.0457        -2.17501        -1.68881
LJ           4.79261         4.48214         5.54059
LJ         -0.172961         2.26361        -1.79326
LJ           5.60598        -5.23078        -2.32381
LJ           4.66802         2.41858        -5.05372
LJ           1.86761        -5.93659         -3.9335
LJ          -2.99158        -6.04106        -3.21838
LJ           5.27275        -1.02875        -5.55753
LJ          -2.50586        0.716273         2.63749
LJ           5.60722        -1.69221         5.63433
LJ           4.26835        0.830003          2.6008
LJ          -3.35592         4.85192        0.460122
LJ          0.156411        -3.19378         5.77507
LJ          0.584995        -5.78686         3.11134
LJ          -5.80678        0.688487         2.08366
LJ           3.74216         2.19741         5.98427
LJ           1.77377         1.32949          5.0048
LJ          -4.53035         4.85085        -5.71092
LJ           5.56924         4.01507         4.06893
LJ          -3.49253         1.41133         3.38681
LJ          -3.68683        -3.27604        -1.89824
LJ          -3.15447        0.739947        -2.87316
LJ           3.48007         5.44423        -2.10449
LJ           5.50895        0.403736         1.16519
LJ          0.067979        -3.83838        -3.06173
LJ           2.82656        -1.70428        -3.56149
LJ          -4.78079        -0.30871         2.93102
LJ          -5.56327         2.03114         3.15196
