108
#Comment!
LJ           5.63252         -4.2034        -5.99687
LJ          -3.46681         2.97411        -4.78023
LJ          -1.29021        -2.53649        -6.35254
LJ          -3.58048          6.2008        -1.70297
LJ           3.24549         4.27088        0.121974
LJ          -2.94439        -4.36679        -5.53898
LJ          -2.14202        -1.25034         5.74544
LJ           -1.6236         6.03787         2.99258
LJ           3.45966         4.97165        -1.70194
LJ          -1.48728        -2.59164         5.47441
LJ            1.5522         0.39872         -3.2392
LJ          -4.53961         -1.4089         3.09612
LJ           4.43328        -3.81411        0.948892
LJ          -4.60302        -6.35748         1.97036
LJ          0.710416         4.40382        -3.22209
LJ           3.60649          6.1641         3.37687
LJ          -2.05023         4.30421         5.60597
LJ           5.11596        -2.83501         1.63132
LJ          -3.07381         1.85515       -0.281787
LJ          -1.97032        0.393651       -0.853354
LJ          0.809425         5.79296          2.5996
LJ           3.04643         6.24432          0.9362
LJ           -2.8753         4.53643          2.5747
LJ           5.45368        -1.11584        -3.21518
LJ          -5.31094       -0.207483        -1.84672
LJ            1.6286        -5.05142        -3.19457
LJ          -1.60516       -0.327839        -5.09246
LJ           4.94152         -2.3548         2.90054
LJ           4.28614        -3.18249         5.83608
LJ          -3.95493        -4.75233        -4.48743
LJ          0.778042        -5.14968        -1.30223
LJ          -5.76961        -4.73278         1.53838
LJ           6.04912        -1.48266         3.93466
LJ          -1.64714       -0.168551         1.18142
LJ           3.53341         -4.9794         1.42502
LJ           1.97662        -5.14509         1.34648
LJ          -2.61234        -2.36772         4.83004
LJ        -0.0663497         3.42058         4.06406
LJ          -1.74011        -1.66423        -4.37811
LJ          -6.34592         4.87743        -2.52404
LJ          -1.98285         1.74658         5.30392
LJ          -2.03636       -0.945649        -3.39759
LJ           2.53141        -1.92611          1.5555
LJ           6.29687         3.31785       -0.130238
LJ           1.59745        0.592096        -6.04874
LJ          -4.29851       -0.651596         4.91475
LJ             1.562         4.98695        -3.25977
LJ           4.85962        -5.62069         6.11032
LJ           4.19462        -2.52692       -0.921831
LJ          -1.11054          4.8501         2.40431
LJ          -1.98197         -5.6991        -2.24361
LJ            6.4102         4.58508        -1.44149
LJ           2.15016         5.05312         2.01165
LJ         -0.644708        -5.54205        -1.04596
LJ          -4.64543        -3.32169         5.07082
LJ          -3.47734       -0.364226         6.36872
LJ          -1.99589        -1.52842        -5.98422
LJ          -1.49889       -0.199608         5.85115
LJ           -5.2228         4.12017        -2.81142
LJ           6.45211       -0.227725        -3.55174
LJ         -0.238407          -3.437         -1.0892
LJ           2.96726        -5.31143        0.188619
LJ          0.836157       0.0308259         -3.7879
LJ          -4.73419         3.22296        -1.92043
LJ           5.90553        -1.63954        -4.66946
LJ           1.78162         1.06076        -4.13298
LJ           1.31467        -5.62111         -2.2458
LJ          -2.97312        -4.51776        -3.81033
LJ           3.80965          -6.275        -3.92172
LJ          -3.69076        0.066197       -0.706224
LJ          -4.59916        0.914283        -1.82189
LJ           3.54977        -1.41283         1.03543
LJ          -1.60676        0.541035        -5.46922
LJ           3.79404         2.52305       -0.333889
LJ         -0.974719        -1.07817        -3.77791
LJ           1.75669        -6.01447         4.58686
LJ          -5.18192        -3.98771         3.31146
LJ            1.3166          3.1022          5.1693
LJ            5.4431          1.9685        -2.23982
LJ           1.40055         6.18319        -5.19109
LJ          -3.46389         2.82442         6.25203
LJ           6.28128        -4.38911         3.90518
LJ          -2.90806       -0.295804         1.07525
LJ          0.414859        -1.22152        -6.38971
LJ          -2.07455        -2.77443        0.836443
LJ         -0.218751        -4.82807        -3.71281
LJ           -2.0511         5.04415        -6.15606
LJ           3.94956         3.69185        -4.57027
LJ           -2.9366         1.51154         5.80735
LJ           5.93699        -4.73584         6.05915
LJ          -1.11021          3.5232         4.33528
LJ           4.55567          3.6159        -2.03515
LJ           3.93298        -1.83013        -5.55927
LJ          -3.68235        -4.38155         5.51317
LJ          -3.21823        -5.59111          2.1712
LJ          -1.73065          3.1792       -0.416804
LJ         -0.142819         4.01029         5.96599
LJ          0.361196         2.99135        -5.14437
LJ          -4.33048        -2.43406        -1.79028
LJ          0.813203       -0.420618        -4.75028
LJ          -3.47198        -1.17842         5.24751
LJ          -1.34539         4.94598         1.10222
LJ         -0.567775        -3.14056         1.59933
LJ           4.98258        -4.81734        -5.58833
LJ          -5.81611         1.92855        -4.38124
LJ          -3.53575         2.15002        -3.42781
LJ          -5.08666       -0.283281        -2.89973
LJ          -2.59547        -5.22748         5.21332
