108
#Comment!
LJ          -4.47243        0.571457         3.87084
LJ           6.09812         1.75838         5.07571
LJ          -3.47541        -4.77497         4.62513
LJ          -5.50082        0.995569        -3.37303
LJ           1.81366         4.17382         2.06599
LJ           6.05716        -2.87513        -6.37913
LJ          -0.74398        0.125728       -0.440258
LJ           1.16416        -1.35788        -3.32565
LJ           3.00035         5.55885        -5.25195
LJ          -5.30733         -6.2908         2.18755
LJ           5.76052        -3.69738         -2.3398
LJ           6.39245        -1.26405         1.43932
LJ          -5.71799          0.8306         5.26812
LJ           3.49561         2.33627         2.97014
LJ           -1.1424         5.08948        -0.96219
LJ           5.57746         1.68922         3.99737
LJ          0.448307       0.0132669        -3.23597
LJ           6.36643        -4.23987        -4.08129
LJ           4.30038       -0.351529        -5.54454
LJ           -6.3994        -2.71035        -1.80163
LJ           3.77427         5.58264         3.81579
LJ           0.65833        -2.60571         3.07294
LJ          -3.18963         5.19845         6.07893
LJ           3.30852         5.48258         -3.9474
LJ            -3.598        -6.03248       -0.152676
LJ           3.85959         -2.5097         3.74579
LJ        -0.0391638       -0.833093        -0.44444
LJ           3.08642        -5.65653         1.39566
LJ           5.88777         5.81458        -5.83923
LJ           5.45794        -4.06742      -0.0677716
LJ           3.39235         4.22932        -5.87249
LJ           4.61167         1.36329         6.38415
LJ            4.9287        -2.55974         5.23393
LJ           -4.9058         5.07164        0.582337
LJ           2.55932        -5.71712         4.76306
LJ           5.68079         6.24065          4.5582
LJ          -2.69939        -2.35743         1.15955
LJ           3.37378        0.621577         1.63059
LJ          -5.12259        -1.61465       -0.475002
LJ          -4.07198        0.966305       -0.918902
LJ           2.54516          4.1184         1.08899
LJ          0.446527        0.919505       -0.264252
LJ         -0.138635      -0.0645576         1.85896
LJ          -5.41621         4.41663         4.92683
LJ           2.60058       -0.936776         3.49143
LJ           2.01577       -0.851198        0.998373
LJ           4.06434         2.59356        -5.90471
LJ           5.09562        -5.04232         2.54854
LJ          -4.08243         3.83686        -2.41715
LJ           2.72519         4.33941         3.44017
LJ         -0.512219         4.91311        -2.87343
LJ           2.13616         2.40825         0.17602
LJ           -1.1511         1.69835        -6.36353
LJ          -3.81896         4.17333        -3.42032
LJ           5.74196        -3.03006          2.9234
LJ          -3.55661        -1.41552         6.00706
LJ            5.5708        -1.02055         4.59655
LJ         -0.944852         2.34395         1.99141
LJ          -3.83388       0.0537004        -1.60001
LJ           5.18591         5.00378        -2.63167
LJ         0.0955493        -3.00594       -0.380877
LJ          0.995631        -4.19327         2.96735
LJ          -2.42422         3.81079        -1.88434
LJ          -5.22127         4.80454        -4.11326
LJ          -4.63085         1.54125        -2.31817
LJ           2.95823         2.58855        -5.81377
LJ          -2.70829        -5.05629         5.81571
LJ           -1.1534         3.29227        -3.49599
LJ          0.969634        -4.10577        -2.86879
LJ          -2.26516        -4.08895         1.64494
LJ           5.86028        -1.87176         5.54543
LJ           4.71522          2.2809         5.26254
LJ           1.40139        -3.66152         4.57396
LJ           4.85713         3.03796         5.99916
LJ          -3.11429         3.67216        -2.69423
LJ             4.984         3.76608         2.36814
LJ         -0.179017        -4.11061        -6.34031
LJ          0.483437         3.51708         3.51273
LJ          0.109205         4.15083       -0.634275
LJ         -0.490773        -2.12993         3.72845
LJ           -1.6358         4.73113        -1.91295
LJ         -0.171935         2.72902         2.99289
LJ          -5.31756        -4.48492        -6.39951
LJ         -0.239076         4.81665         4.21777
LJ           2.14489       -0.159678        -3.37206
LJ          0.859939        -2.13956        -1.27943
LJ           3.46245         3.69046        -1.59166
LJ          0.625204         4.47514        -2.85916
LJ          -3.83739         1.00757        -5.87493
LJ          -1.94731        -6.05437         4.65745
LJ        -0.0874397      -0.0056601         3.88791
LJ           4.74199        -2.10901       -0.344314
LJ           4.75533         4.90397          5.4134
LJ         -0.816501        -1.94996         1.43177
LJ          -4.93112        -5.41211         4.80068
LJ           1.65354         1.47134          -1.387
LJ           1.05658         5.27427        -4.65821
LJ          -1.82576         3.07179         -4.3449
LJ           4.80735         3.73407        -2.50606
LJ            2.4792        -1.41258         5.64729
LJ          -2.34709        -3.89719         5.13698
LJ         -0.283283        -5.71017         3.55855
LJ          -6.38123        -2.53886        -4.75972
LJ          -5.65328        0.951109         1.59166
LJ          -4.13933         1.48674         5.06222
LJ           2.27736       -0.331145         2.12179
LJ           5.98412        -6.16547        -2.03826
LJ          -1.64747        -2.55011       -0.863899
