108
#Comment!
LJ          -2.69104        0.541339          1.5779
LJ          -2.09031        -6.05749        -1.14848
LJ          -3.68413         5.63224         5.02692
LJ          -3.68895         2.46876         -6.1829
LJ          -4.40455          4.1106         3.95137
LJ           0.53395        -2.31198          6.2359
LJ           3.87546        -4.30196         5.05355
LJ           2.13772       -0.321127        -5.55911
LJ         -0.512514         5.48508        -3.92661
LJ          -6.35113         1.20826          6.4031
LJ           3.29581        -2.11961         5.59786
LJ           1.08157        -1.86373        -1.11465
LJ          -3.13732        -1.02603        -4.29923
LJ          -1.35946        -5.15766        -6.03644
LJ          -4.71415         2.09764        -2.19943
LJ          -3.25149      -0.0302067        -2.70317
LJ            2.4513        -3.59895         1.83335
LJ          -5.97623        -4.80707         2.56056
LJ          -3.50186        -5.96464         1.16949
LJ           1.90544        -5.03235        -1.45177
LJ           -5.4403        0.536762         3.93083
LJ           -3.3021         1.70363         1.48159
LJ          -3.09348         3.85042         -4.5379
LJ          -1.76866         1.44988        -5.63225
LJ          -0.73531        -1.67974         1.46684
LJ           5.10096        -2.71601          3.0163
LJ          -2.51496       -0.383018         5.67161
LJ           3.65468        -3.58706         -5.7259
LJ           5.11788       -0.294202        -3.18731
LJ           3.65432         5.50138         4.91899
LJ           5.51053         3.17805         6.28567
LJ             6.087        0.960431        -5.57091
LJ           2.30509       -0.361072         2.05847
LJ           1.81992         3.85275        -5.67836
LJ           0.38434        -1.08614         1.38255
LJ           5.67485        -6.26345        -3.58211
LJ           1.16175        0.043321        -2.09348
LJ           1.18322        -3.46087         4.72157
LJ           6.38628          -1.324         1.97831
LJ          -1.56262        -1.48359        -2.99105
LJ           3.80988        -0.42387         1.19447
LJ          -1.52922         1.75854        -3.41999
LJ          -2.68324        -1.78785         3.52187
LJ          -6.24829         2.37383          6.3764
LJ           2.24038         -1.0691        -3.74989
LJ           5.38046        -3.84594         1.22594
LJ          -5.49946        -3.98293        -2.48861
LJ           5.80106        -2.78963        -0.96227
LJ          -3.47067         6.14685        -2.94038
LJ           5.19171         5.73888        -6.29183
LJ           5.44069      -0.0748731        -2.18119
LJ         -0.639692         2.24295         2.16142
LJ          -2.80861        -0.96998        -6.41956
LJ           6.44721         2.88498        -4.24559
LJ           5.33966         4.86077         4.25652
LJ          -5.77172        -5.81729         5.41691
LJ           5.77543        -2.89695         4.06727
LJ           -1.8173         6.43125        -2.92745
LJ          -1.61502        -1.39122         -1.8823
LJ          0.208681        0.604296        -2.52824
LJ          -1.07921         5.01785        -4.90025
LJ          -2.69016        -6.28451         2.35347
LJ           1.94617        -1.93067        -4.23402
LJ          -3.87982         2.95259        0.825866
LJ         -0.471631         3.43932       -0.502214
LJ           1.17092         4.57829        -5.49793
LJ          -1.74357         5.44587        0.509082
LJ            -1.675         -2.1638        -4.30344
LJ          -5.52157       -0.549169         -4.2937
LJ            4.5808         5.89833         4.38098
LJ         -0.991631      -0.0604071         3.80858
LJ          -6.06465         3.86144         4.94897
LJ            3.8012         3.20552         5.90458
LJ          -5.34164        -6.17235       -0.818137
LJ          -4.28478         5.43742        -2.69511
LJ          -4.91115        -6.45524         3.89998
LJ           6.24123        -3.77016        -2.43116
LJ          -1.73497         4.96909         4.04009
LJ          -5.89374            2.41         -2.6495
LJ          -3.04378          1.4978         2.76558
LJ          -2.44966        -4.39245        -3.02721
LJ           5.35126        0.487212        0.411276
LJ         -0.407522        -6.31746         1.78651
LJ          -3.88381         5.63158          3.9579
LJ           1.09999         4.75399         6.02356
LJ           2.17484         5.17367         5.01965
LJ           3.72814         4.46436       -0.846497
LJ           6.05977        -5.63415       -0.406249
LJ           -2.3538       -0.184641        -4.91597
LJ         -0.595144        -6.44628         5.33044
LJ           2.38331       -0.065086        -2.06362
LJ        -0.0976718       -0.777535        -1.59603
LJ          -5.81706        -1.40246        -6.24989
LJ           1.65825        0.572185        -3.29545
LJ          -4.54812        -6.24799        -5.40147
LJ           3.53412        -5.63493         1.30133
LJ           2.88961         5.36205        -5.54725
LJ          -4.43484         5.78552       -0.057082
LJ          -5.44275        -4.91272        -2.10181
LJ           4.85455        -3.33412         3.95715
LJ           -1.6629         6.33721         1.28359
LJ           4.99689         5.41193         2.37442
LJ          -1.10554        0.303159         1.85259
LJ          -5.13903        -6.24875        -4.49911
LJ          -3.61414         1.72562       -0.595424
LJ            2.9845         -2.9758        -3.08987
LJ           4.51506         1.80022         1.30465
LJ          -5.57469        -6.40615        -2.29694
