108
#Comment!
LJ          -5.39425         5.58107        -4.30886
LJ           2.00503         3.81968        -3.03246
LJ           1.39248         4.74688        -2.71653
LJ           5.81723        -5.26908        0.749753
LJ           4.20927         1.17035         5.53006
LJ          -5.29458         1.58771        -6.45796
LJ          0.506382        -2.21979         6.06503
LJ          -2.34111         4.85464         0.16405
LJ           2.94914         3.65276         5.23374
LJ          -6.11794         -4.0351        0.703795
LJ          -3.30829         2.99683         3.35649
LJ           3.51463        0.184748         1.17826
LJ           1.58763        -3.12716       -0.689579
LJ           3.68563       -0.688042        -5.51646
LJ         0.0420827        0.486407        -5.12985
LJ         -0.566394         4.68282        -4.90706
LJ          -2.02185         1.29409        -1.10449
LJ           4.73866         -2.4839        -2.91888
LJ          0.931456         5.21013        -3.56005
LJ          0.870788        -1.64568         4.58228
LJ          -3.72576         2.45456         2.06633
LJ          -2.30229       -0.732084         4.54991
LJ           3.33513        -5.82998         4.11224
LJ          0.940352        -3.23752        -5.62599
LJ          0.782798        -3.55042         3.39604
LJ          -2.96108      0.00628232        -6.40472
LJ          -5.49991        -2.23292         5.38572
LJ           1.05686        -3.18721        0.686955
LJ           4.51468        -1.27831        -3.44763
LJ          -5.99485       -0.484106         5.42731
LJ          -5.55905        0.590407         2.33749
LJ           2.38388        -5.81776        -5.19272
LJ          0.799393         4.90605         3.15633
LJ           1.69111         2.97761         2.41863
LJ          -4.42294        0.819376         2.07758
LJ          -5.64912         2.96336         2.82429
LJ           6.31004           5.612         5.96977
LJ           2.81368         4.86026        -3.45829
LJ           1.14403         3.66048        -2.28231
LJ          -2.11379        -5.90586        -3.97115
LJ         -0.800087         -5.3332        -4.08713
LJ           1.53994         6.22435        -3.44068
LJ          -2.44297        -5.17266         5.79229
LJ           1.02948         2.46025        -4.76447
LJ         -0.348112        -2.53309         4.13628
LJ          -1.68297       0.0286717        -3.51236
LJ         -0.413346        0.512338        -1.46759
LJ           2.36118         5.15226        -2.17745
LJ           2.14817         1.93012        -3.84129
LJ            2.5971         6.39247        -3.80657
LJ          -2.14475         -6.3945         -2.8837
LJ          -1.10083        -6.33877         -4.8837
LJ           5.05221         5.49531         4.09526
LJ          -3.79405         -3.4197         4.00128
LJ          -1.47418        -5.92262        -6.01587
LJ           5.18583        -3.10208          5.2665
LJ          -1.10515        -3.21536         4.88334
LJ          0.828472        0.494788       -0.583038
LJ          -2.54714          5.6346        -5.05692
LJ        -0.0656985        -3.12972        -6.09094
LJ           3.21578       -0.984139         3.91157
LJ           3.40399         5.38604        -2.54404
LJ          -2.95451         -1.3563        -4.77041
LJ          -3.93827        -4.36036         5.77035
LJ           4.93562      -0.0234595        -3.68509
LJ          -3.04061        -1.33288         5.30351
LJ         0.0154206        -5.71368        -1.29155
LJ          -4.40397        -2.31196         4.20049
LJ           2.10455        -1.57982       -0.018147
LJ           4.85206       -0.531655        0.320911
LJ           6.00219        -2.85087        -4.96048
LJ          -2.70042        -5.49071        -2.94619
LJ          -5.76584        -1.35079         5.99394
LJ          -5.28206        -3.91854        -1.88891
LJ           3.72437         5.91733        -3.71647
LJ          -2.33663        -5.38373        -5.84664
LJ           -1.7027         5.65447         5.76488
LJ           1.84671        -2.35025         2.89322
LJ           3.07942         5.92195       -0.896877
LJ          0.651357        -1.42299       -0.059874
LJ         -0.773376        -2.82214         1.19053
LJ        -0.0147883        -3.23249        0.855456
LJ           3.67682        -2.81487        -1.66503
LJ           4.83166        0.357383         5.79677
LJ           4.28386         5.70454        -4.79639
LJ          -3.85072         1.84446        -2.54237
LJ          0.657543        0.647045        -3.53863
LJ          -1.72609         5.82215         -4.4284
LJ           5.78958          5.3584         4.88944
LJ          -5.58501        -5.34965        -4.44026
LJ          -1.49482        -4.08095         -5.5272
LJ            6.0988         3.91731         2.70352
LJ            4.2491        -5.60849         5.31253
LJ          -3.41239        -4.37028      -0.0560099
LJ          -2.44992         3.43789         1.93069
LJ            2.7181        -2.05936        0.733356
LJ            3.1868         6.29567        -5.40742
LJ           4.18948       -0.474366        -2.24004
LJ          -1.12111         3.27003         1.64214
LJ         -0.622676         3.69624        -4.39515
LJ          -6.40826         5.97532         4.37397
LJ           6.34322         4.54454         4.37597
LJ            5.1997         6.34926        -2.52497
LJ           5.76335       -0.772971         5.77818
LJ          -4.22803        -6.08541         5.01564
LJ         -0.926687        -1.14838        -2.32879
LJ           2.31699        -1.62554         1.44769
LJ           6.34668        0.613285        0.110414
