108
#Comment!
LJ           3.17545         4.29984       0.0994855
LJ           5.69654        0.038888        -3.67748
LJ             -4.75         5.51255         1.20559
LJ           3.25185         1.79329         6.44101
LJ          -3.68181         3.03359         4.35723
LJ          -6.01744        -1.67485         5.96717
LJ          -1.63891          -4.759         5.94258
LJ         -0.338875         3.15372         5.94858
LJ          0.254423         3.77121        -5.86672
LJ           5.90147        -2.07982         6.45587
LJ         -0.565841          1.3685        0.602079
LJ          -1.84565         4.46147        -4.51971
LJ           5.26784         3.58375         1.07304
LJ           6.37752         4.45533        -3.61889
LJ          0.112447        -2.01117         5.30514
LJ          -6.09127         2.85798        -5.10885
LJ          -4.87421        -3.93406        -5.32828
LJ          -2.70643         4.45539          1.1209
LJ          -1.01297         3.09054         3.59344
LJ          -3.29247        -2.94411        -2.13482
LJ          -1.02712         6.07464          3.3171
LJ           6.27068         3.37301        0.185019
LJ           0.40346       -0.409632        -2.71954
LJ           5.36096        -5.70038        -4.97302
LJ          -2.74709         5.64978         5.44516
LJ           2.55513        -1.53024        -2.41948
LJ           5.74796       -0.876484        -1.02465
LJ          -1.91743         3.05641         2.22641
LJ           2.58313        -4.37164         6.15191
LJ          -5.62609         1.10026        -5.38213
LJ          -2.11401         -6.0045         6.15893
LJ           4.29404        -3.14272         -3.4321
LJ           1.27694         3.04791       -0.750735
LJ          -1.52529         3.49306        -6.36231
LJ           2.38981         5.00486         6.28329
LJ          -5.01237       -0.923364         3.97667
LJ           2.75975         3.51145         2.29925
LJ          -3.16116        0.955789         2.60733
LJ          -4.94782        -5.13038         5.48304
LJ          -2.15647         4.52896        -5.49833
LJ           3.37116        -1.67149         1.20258
LJ           -3.5229         2.09896         2.00837
LJ          -4.40098        -5.86946         -4.3358
LJ           2.99844       -0.294471         4.32079
LJ         -0.713312         3.02632         4.58305
LJ          -1.40792         3.10868        0.257191
LJ          -1.77701        -3.78679        0.342116
LJ            6.0177        -1.00362         3.11202
LJ           2.37714         6.04458         3.29208
LJ          -5.22825        -3.42545          4.7956
LJ          0.416978        -4.02223        -4.76781
LJ          -3.37887         4.35319          3.6121
LJ         -0.203073       -0.927009        -3.78549
LJ          -2.69558         1.64972         3.57146
LJ           3.79949         2.76952         2.49818
LJ           6.20215         4.30153        0.844449
LJ          -6.18971        -6.33756        -1.80578
LJ          -1.19024        -2.06479        -5.15933
LJ           1.78517        0.956381         1.38673
LJ          0.271852        -5.47685         -5.5559
LJ          -4.62475         2.83471       -0.700319
LJ          -0.43867        -4.71952        -2.93826
LJ          -5.99333         5.70567        -3.43574
LJ          0.988025         4.31726        -1.46817
LJ           2.91055         4.95868        -2.46577
LJ          -4.24085       -0.928075         6.38329
LJ          -4.26949         5.25005         -4.3899
LJ           1.89743        -2.58876        0.210406
LJ           2.23738         4.06287         5.67696
LJ           1.45065         0.79157         5.61544
LJ          -4.28518        -2.01368        -4.85726
LJ          -6.04647         3.16596        -3.61372
LJ          -5.05842        -4.82802        -3.71108
LJ        -0.0825238        -5.58948        -1.85057
LJ          -4.54303        -5.36831         2.69866
LJ          -3.19674        -1.62543         1.01257
LJ          -6.29982        -4.08878        -2.94766
LJ           4.02041         5.63041        0.645349
LJ           3.54549         5.80497        -2.57042
LJ           5.74068       -0.232705         3.69114
LJ          -4.47841        -4.90902        -5.58796
LJ           3.81236        0.590038         1.65939
LJ         -0.800988        -3.83796         1.04898
LJ            4.5217       -0.356879         1.12682
LJ          -4.63528         4.66784        -5.45031
LJ           5.20199         5.68774       -0.385249
LJ           5.21798         1.44699        0.484115
LJ          -5.04189       -0.853363         2.78491
LJ         -0.743596        -1.98366        -2.72821
LJ         -0.579634        -5.44827        -6.28363
LJ           6.38926        0.905138        -1.43807
LJ         -0.273465         4.30513         5.79575
LJ          -3.27831        -1.46143        -2.16492
LJ           4.91943         4.11006         -5.8972
LJ           6.39764        -1.35082        -5.68073
LJ          -2.17395         4.88894         2.78167
LJ           1.71388         1.63935         0.44238
LJ          -5.80241         5.42823        -1.85049
LJ           3.48619          1.4044         1.18196
LJ          -4.34919         3.19497        0.825507
LJ          -5.92133         3.37048       -0.972985
LJ          -1.51727         5.99286         5.08638
LJ          -6.13743         2.54496        -2.07831
LJ           5.78623        -1.74732        -2.26228
LJ           3.41037         2.17696        -1.39443
LJ          -2.77897         0.45223        -1.69526
LJ          -1.61546        -4.68113         1.17295
LJ         0.0817866        0.771497        -2.88821
