108
#Comment!
LJ           2.50639          5.5373        -1.17222
LJ          -4.80124        -1.35791        -4.63355
LJ           -5.0202         5.14818         4.42882
LJ           2.35736          4.9751        -5.28677
LJ           -2.4561         3.70411         4.45277
LJ          -4.99616       -0.807798         6.11338
LJ          0.468713        -3.65736         4.31182
LJ          -1.32729         2.53377        -5.86093
LJ         -0.359607         4.20281         5.78724
LJ           5.91959        -2.52727        -5.12913
LJ          -1.19343         2.54863       -0.377574
LJ          -1.95824         6.35995        -3.68688
LJ          -6.07806         5.14541       -0.710094
LJ           5.01616          4.5663        -3.69309
LJ          -1.58582        -3.10024         3.83136
LJ           3.55026         2.33148        -3.31066
LJ          -3.32902        -3.22268        -4.51617
LJ          -3.51483         -4.6304        0.877001
LJ          -1.61401          2.6291         3.08346
LJ          -4.83478        -3.19655        -3.54113
LJ         -0.341857         3.72748         3.34765
LJ           4.69734         3.33534       0.0157185
LJ           1.07603        0.946339        -1.03282
LJ           3.33631          -4.875         5.85653
LJ          -1.45381         4.72077         4.40072
LJ           1.88077        -1.21299       -0.436865
LJ           5.46311         -1.0511        -3.31826
LJ          -2.06035          2.7571         4.34031
LJ           1.69359         -5.0992         5.58442
LJ          -4.01625         0.57501         5.23888
LJ          -2.30405        -3.24395        -5.44548
LJ           3.50863        -4.07533        -2.85918
LJ           0.89839         4.53167        -2.77991
LJ         -0.948343         5.39967         5.76156
LJ           3.71672         6.02215         6.23961
LJ          -5.23725        0.771117         4.80307
LJ         -0.424705         4.03856         4.63727
LJ          -3.15797        0.643746         1.90699
LJ           -4.9203        -5.68852        -5.63797
LJ          -1.47841          5.9164        -5.82052
LJ           2.77318        -1.91931         2.11126
LJ          -1.95108      -0.0676139         2.38786
LJ          -4.49055         5.86189        -4.35245
LJ             2.249       -0.879145         4.02254
LJ          -1.33325         2.63692         5.70121
LJ          -3.02514          1.9987         3.52613
LJ         -0.856442        -5.47739        -2.42613
LJ           5.55047        -2.14311         4.10721
LJ           4.97453        -5.51675         2.59564
LJ          -5.04206        -3.26799         3.56161
LJ           3.01806        -4.48884         -5.3146
LJ          -3.52589         4.91727         4.27984
LJ         0.0381541        0.645871        -2.98863
LJ         -0.847578         2.87257         1.46153
LJ           1.65024         2.52034         3.14294
LJ          -5.81811         3.07306       -0.234932
LJ          -5.57285        -6.35597         1.15468
LJ         -0.463885        -1.26368        -4.94569
LJ           1.32778         1.00354         1.28284
LJ         -0.239653        -4.67829          5.5859
LJ          -4.89495        0.740751       -0.745731
LJ          0.813665        -4.17431        -3.15253
LJ          -5.54891         5.52321        -2.42594
LJ        -0.0915806         3.13563        -1.83258
LJ           1.91932         6.09453        -1.83967
LJ          -6.31588        0.629634        -6.45008
LJ          -5.26536        -6.27058         5.86754
LJ           4.27073        -3.59239         -2.1281
LJ           1.00797         6.16577         5.63605
LJ           2.59727       -0.147727         5.79916
LJ          -2.24815        -2.27142        -4.48139
LJ          -5.52366        0.736037          -3.254
LJ          -5.01962        -5.98039        -2.34735
LJ           2.24721        -5.75769        -1.96389
LJ          -4.52598        -5.24806         4.05967
LJ          -5.02241        -2.91222       -0.328615
LJ          -5.35139        -4.03205          -3.269
LJ           3.96153        -5.96902       -0.935376
LJ           2.96686         6.46326        -2.02154
LJ           4.25062       -0.269202         4.58133
LJ          -3.87363          6.2193        -5.34823
LJ           4.47007      -0.0438564         3.60798
LJ           -2.0879        -3.50736         1.06806
LJ           2.44409        -2.20629       -0.125659
LJ          -5.24096         4.83239        -4.76958
LJ           6.00652        -6.08541        -1.36598
LJ          -5.57877        0.222164        0.721365
LJ           6.41331        -3.45512         1.49675
LJ          -0.31157        -2.39374        -2.83056
LJ          -1.21609        -4.01901        -6.43808
LJ            -5.864         1.35527        -2.12263
LJ          -1.06999         4.87253        -5.41478
LJ          -2.96204       -0.242836       -0.380545
LJ           5.13131         1.46535         6.40784
LJ           4.55688       -0.497426        -6.08579
LJ          -1.32834         5.72389          1.7518
LJ           1.71646        0.910074        0.283747
LJ           5.97275         3.88883        -1.39176
LJ           3.62909         1.34374       -0.987149
LJ          -3.42006         1.90235         1.09488
LJ          -5.82912         2.77587        -1.47059
LJ         -0.798233        -5.81852         6.13422
LJ           5.78285         1.63267       -0.920181
LJ           5.85737        -4.26859        -1.48718
LJ           5.08931         2.40263       -0.828347
LJ          -1.34776        -1.19473       -0.663272
LJ          -1.86291        -4.49616         1.53783
LJ            1.1587        0.414835        -4.20692
