108
#Comment!
LJ          0.105559        -6.42242         5.36883
LJ          -3.75414        -6.15918        -2.13804
LJ          -3.62178        0.332638        -2.94325
LJ           5.00807        -2.75101        -4.33979
LJ          0.912465         4.85584         4.59319
LJ          -3.68678        -1.04003        -6.01072
LJ          -1.22931         -3.8317         4.27468
LJ          -4.63728         1.42213          5.4793
LJ         -0.211168        -5.26147         5.06884
LJ           1.97971        -2.34702         3.94792
LJ         -0.917894        -4.86839        -4.15504
LJ         -0.068639        -2.64314         2.93291
LJ          -5.23194       -0.636942         5.33471
LJ          -1.49729         4.38056        -6.45281
LJ          -5.60135        -3.08311       0.0142469
LJ          -2.22488        -6.17997         4.86835
LJ           2.15831        -2.07069         2.67337
LJ          -5.00089        -1.21847        -5.65012
LJ          -4.40527        0.230311        0.981418
LJ          -1.47932        -4.43412        0.223637
LJ          -3.14567          5.8923         6.44607
LJ          -4.32238         5.41939        -2.41151
LJ           1.60332         4.59651         5.60736
LJ          -5.87059        -5.60389        -1.07298
LJ         -0.165534         2.51923        -2.90695
LJ          -3.52253        -5.89322        -1.19637
LJ          0.839684        -4.66277         4.19887
LJ          -4.08515         1.11754         1.77409
LJ          0.690278        -3.98175         4.91487
LJ           2.41623         3.98221         -1.6735
LJ          -2.28849        0.564257        -3.79438
LJ           2.33407         3.18744        -4.57521
LJ        -0.0801344         2.48863         5.35889
LJ           1.12031        -3.10014         5.61586
LJ         -0.334822          4.4604        -5.28143
LJ           4.62517         5.30924         4.49283
LJ           1.49479        -4.70916        -1.54416
LJ        -0.0723606        0.625171         2.30417
LJ          -3.67258         5.94103       0.0127863
LJ          -1.73515        -4.32976         -4.6407
LJ            4.8027         4.22479         4.11547
LJ          0.238395         4.08973         2.85815
LJ          -5.01992         5.17535        -4.29719
LJ            1.7971       -0.947362         3.11143
LJ          -3.09434        -6.09684        -3.74969
LJ          -4.62454         4.73354        -5.99617
LJ           4.52259       -0.306493         4.54275
LJ           5.30734        0.258714         4.97437
LJ           4.02749       -0.481743        -3.93379
LJ          -3.69313       0.0867007         2.06612
LJ           6.25996         5.84103        -3.92763
LJ           1.50406        0.488139         4.85108
LJ            -3.103         1.41569        -4.58539
LJ         0.0277335        -4.64044         -3.1192
LJ           1.31823        -3.51643        -5.99154
LJ          -3.38553        -5.93937       -0.128165
LJ           5.08879         4.69185        -1.14256
LJ          -4.82612        -2.01527        -6.25904
LJ         -0.241817        -1.44532        0.538386
LJ          -5.86183        -4.76646         3.02854
LJ           -6.2872        -6.45232         2.34688
LJ           2.16985         4.52678         3.50725
LJ           4.68086          -1.284        -3.61897
LJ          -2.24126         3.91564       -0.422891
LJ           1.73968         3.37581         -0.2839
LJ            3.2237        -5.11557         5.51778
LJ          -5.59432         5.44294         4.45936
LJ           1.71348        -3.80177        -3.04743
LJ            1.5527        -3.35293         2.70021
LJ           4.82599        -6.45049         5.66991
LJ           1.46176        0.538862         2.86516
LJ          -4.64909        -2.23744        0.694526
LJ         0.0807217         4.76597       -0.864317
LJ           5.88888         5.90813        -2.18439
LJ         -0.737624        0.963003        -3.12373
LJ          -3.15896         5.35218        -5.33451
LJ          -2.48219        -5.65468         1.11456
LJ          -5.17648       -0.157715        -5.74918
LJ          -3.74041          5.8479        -1.60391
LJ           4.62619        -5.40989        -5.38044
LJ           6.34576        -3.08918        -2.21843
LJ           5.21902         4.23267          5.8682
LJ           2.48051         4.37526        -2.76118
LJ          -5.36994        -4.88845        -3.06451
LJ           5.01804         5.35597         5.74674
LJ           3.66183        -5.42932        -3.10232
LJ          -3.03477         3.82433         6.06004
LJ            3.1353       -0.946297        -3.09508
LJ           6.35804        -1.60528         1.22821
LJ            2.3429        -1.58085         5.20484
LJ          -2.28038         1.45599         1.04088
LJ          -1.18892        -6.03214         3.56302
LJ        -0.0921116        -3.72548         2.48168
LJ         0.0872515        -5.51903         3.95949
LJ          -3.02463        0.633592         4.05763
LJ           2.09413       0.0379275        -4.90496
LJ           1.40453         3.80446         2.96315
LJ          -1.25307         3.47884        -4.11109
LJ           5.06225         2.92842         5.44854
LJ           -3.7974         2.87406         2.12673
LJ          -2.59585        -3.79421       -0.436991
LJ          -1.37407         2.90599        -5.98796
LJ           3.81768        -6.15753        -1.65107
LJ           5.89656       -0.322221        0.645999
LJ           3.85897        -6.43966        -3.65899
LJ           3.16852         2.50556        -1.10444
LJ          -3.88341         4.64612         2.72554
LJ          -2.81174        0.487257         5.37468
