108
#Comment!
LJ          -3.35762        0.243771         2.42736
LJ          -4.94954        -1.26156         2.62111
LJ          -4.67547        -6.41346         2.93811
LJ          -3.70737        0.674144        -4.62827
LJ         -0.978935         4.21261         1.11649
LJ           4.14347        -2.66429        -6.35259
LJ          0.739009       -0.750375         1.30837
LJ            1.7903        0.315225        -4.44034
LJ           1.01053         5.93101        -5.06576
LJ          -5.94195         4.25642         5.80637
LJ           5.13026         -4.0009        -4.03054
LJ           3.60631        -2.09993        0.160937
LJ          -3.66711        0.431243          5.6343
LJ            2.6761       -0.649248         3.87911
LJ          -2.25296         4.41486       -0.557946
LJ            2.4327         5.25966         6.36382
LJ           0.84359        -1.57668        -1.19977
LJ          -5.74837        -4.99377        -6.26301
LJ          -5.90476         2.19085         4.68163
LJ           4.77123        -4.95403        -2.18433
LJ           5.40047         4.19479         4.27946
LJ          -1.28032      -0.0866881         3.59118
LJ          -3.33567         5.32841        -5.94113
LJ          0.905808        -5.02423         -4.8846
LJ          -2.37398        -4.16922         0.14867
LJ           5.59295        -3.18716         3.99419
LJ         -0.350578        -1.05965         2.23048
LJ           4.26944        -6.31935       -0.583101
LJ           5.46892         4.01981        -5.54688
LJ           4.63247         -4.9615         2.19556
LJ           3.14022         3.42509        -5.34806
LJ           4.54977         1.54665        -6.26726
LJ           2.95399        -3.06736         3.81957
LJ           5.90346         4.58892         2.38406
LJ           2.22475        -3.70658         3.40262
LJ           5.23378         4.74699         5.95712
LJ          -1.82157        -2.56119       0.0969402
LJ          -5.73525      0.00536462         3.49924
LJ           5.85197         -1.0621         0.47309
LJ          -2.46433       -0.859069        -1.39492
LJ           3.32117         3.06735         1.21605
LJ          0.173923         1.71075          3.0577
LJ         -0.958025        0.139027         1.46525
LJ          -5.28218         4.86014        -6.05802
LJ           2.17074       -0.279576         1.08757
LJ            4.0584        -0.47123        0.525988
LJ          -6.34223         1.57861        -4.01689
LJ           5.94103        -4.18062         1.65785
LJ          -5.85973         3.30496        -3.83386
LJ           2.51277         4.52843         4.44497
LJ           2.52555         3.29877        -4.06144
LJ          0.846426         1.81723        0.819501
LJ          -3.02275        0.181603        -5.44985
LJ          -4.92271          3.0297        -3.40808
LJ           4.11342        -2.92461         3.55552
LJ          -3.73173        -1.67975        -6.29084
LJ           3.96236        -2.00067         3.85193
LJ          -1.50602         3.61584          4.9306
LJ          -3.51237       -0.610708        -1.91738
LJ           3.21208        -4.74444        -2.36601
LJ        0.00736383         -4.9124        -1.77918
LJ         -0.041155        -4.30197         2.37194
LJ          -1.74819        -5.68016        -1.88689
LJ           -5.2969         3.94012        -5.10082
LJ          -4.12631         2.79077        -0.75567
LJ           1.63972          3.0575        -5.87111
LJ          -2.32499        -5.94185         3.73829
LJ         -0.203178         6.18272        -4.70192
LJ         -0.902482        -1.47236        -3.26887
LJ         -0.284399        -5.27007         2.81266
LJ          -5.62692        -1.52132         4.32348
LJ           5.51998         2.67652         5.95456
LJ           2.11662        -1.18036         4.94922
LJ           5.21393         5.40421         -4.3141
LJ          -3.02702         5.01981        -2.71752
LJ           5.80096         0.55957          2.6974
LJ          -2.59883        -4.84245        -4.94656
LJ         -0.567153          4.6651         3.42962
LJ          -1.35458         3.74995       -0.927315
LJ         -0.998149        -1.28874         3.01196
LJ          -1.40274          4.9836        -1.86271
LJ           2.94662         1.01866         2.70238
LJ            4.5291        -5.59344         4.55795
LJ         -0.139539         4.69376         4.58721
LJ           3.56433         2.00138        -4.48196
LJ           1.74665         -3.8906        -4.31124
LJ           2.07231         3.36472       -0.275367
LJ           2.52004         5.00814        -2.33177
LJ          -4.51836        0.815827         -5.9572
LJ         -0.399019        -6.00134         5.29677
LJ         -0.343248        -0.46979        -5.81681
LJ           4.25015        -3.05124       -0.228232
LJ           5.17987         2.33217         4.92372
LJ         -0.936162       -0.503918       -0.928695
LJ          -4.51605         -5.4674         5.98306
LJ            2.8256         3.74246        -1.11099
LJ           2.42602         5.88503        -3.51706
LJ          -2.88678         3.59508        -3.00006
LJ           4.88245         5.02209        -2.11109
LJ           3.97091       -0.681939         4.46125
LJ           -2.9281        -5.24494         4.42142
LJ          0.489666        -1.30112         2.82038
LJ          -4.02597        -2.19847         5.60964
LJ          -5.27741        -1.41642       -0.611779
LJ          -3.75786         1.41483          3.2828
LJ           3.20449        -1.07026         1.29658
LJ          -6.24267         6.27873         0.26229
LJ          -1.46852       -0.108571        -1.74819
