108
#Comment!
LJ           5.98937        -3.06847        -6.26203
LJ           -4.1769         2.90157        -5.29638
LJ          -1.20206        -1.69003        -6.03241
LJ          -3.29548         4.88575        -1.68514
LJ           3.40709         4.15864       -0.543155
LJ          -3.47633        -3.64436        -6.44031
LJ          -2.25215       -0.516835        -6.08038
LJ          -1.10349        -6.06668         1.58396
LJ           3.53662         4.75906         -1.2813
LJ          -2.45171        -2.90989         6.36004
LJ           2.58329        0.606154        -2.13018
LJ          -4.05197        -1.65736         3.54772
LJ           4.40375        -2.65533         1.07639
LJ          -4.23897         6.17183         2.50973
LJ          0.594189          4.4735        -2.63909
LJ           2.14248        -5.43241         3.50558
LJ          -1.61507         3.89788         6.09394
LJ           5.15634        -2.40437         1.84032
LJ          -2.48459         3.57691        -1.18373
LJ          -2.85892        0.485043        -1.43746
LJ          0.963034         5.90843         2.67232
LJ           2.60639        -6.11795         1.06594
LJ          -3.45805         4.93754         2.98378
LJ           6.29843       -0.798715        -2.68334
LJ          -5.38781        -1.56542        -1.46183
LJ           1.29975        -3.70396        -4.68395
LJ          -1.88667        -1.29816        -5.00944
LJ           4.22119        -2.34177         3.12176
LJ           4.58408        -3.78331         5.96616
LJ           -4.3837        -4.65327        -3.79971
LJ          0.823742        -5.87972        -1.93788
LJ          -6.31078        -5.34085         2.46426
LJ           5.69615        -2.45302         2.88027
LJ          -2.01752        0.786618        0.950778
LJ           3.58752        -6.00839         2.03909
LJ           2.59681        -4.78093         1.92364
LJ          -2.51748        -2.36205         4.07445
LJ        -0.0969006         2.95148         4.23974
LJ          -1.95656        -2.21676         -3.3911
LJ          -6.15093         4.53503        -2.37862
LJ          -1.30338         1.62627         4.39139
LJ          -2.16791       -0.807959        -3.88539
LJ           2.26899        -1.55109         1.36104
LJ          -6.40484         3.42339        0.595566
LJ           2.12591        0.484335         6.28815
LJ          -3.09981       -0.252988         4.39886
LJ           1.84737         5.53856         -4.2563
LJ           4.64529        -5.70987         5.62003
LJ           5.10537        -3.49435        -1.10118
LJ          -2.16773         5.69239         2.77567
LJ          -2.48949        -5.03999        -2.75483
LJ           5.72972         4.38124         -1.0579
LJ           1.94643         4.60597         2.81112
LJ         -0.873066         -5.9369        -1.32094
LJ          -5.03212        -3.50959         4.84813
LJ           -3.4302       -0.497985         6.16258
LJ          -2.99118        -1.42729        -5.55952
LJ          -1.39826      -0.0171784         6.33361
LJ          -5.56882         3.43945         -2.3508
LJ          -6.06621       -0.539375        -3.92356
LJ        -0.0152481        -2.96089       -0.970704
LJ           2.87002        -5.11464        0.874862
LJ          0.111913        0.121475        -3.23227
LJ          -4.34349         3.77078        -2.11026
LJ           5.95634        -1.29457        -3.83992
LJ           1.59541         1.44204        -4.30858
LJ          0.523573        -5.17967        -3.05454
LJ          -2.91809        -4.14512         -3.1845
LJ           3.60299         6.29665        -3.90375
LJ           -4.4114       -0.247899       -0.808722
LJ          -4.87268        0.970351        -2.82276
LJ           4.40637        -1.81173         1.88125
LJ         -0.950829         2.03461        -5.52457
LJ           3.64402          2.3551       -0.202354
LJ         -0.888194       -0.634197        -4.57295
LJ           1.96842        -6.22709         4.52847
LJ          -6.40867        -4.30621         3.07871
LJ          0.930108         2.98285         4.66424
LJ           4.46996         2.15245        -1.75367
LJ           1.57871          6.2818           -4.83
LJ          -3.11039         3.09811        -5.64005
LJ           -5.9686        -5.77745         4.04643
LJ          -2.32131        -0.35999       -0.175014
LJ          0.299823        -1.14922        -6.00011
LJ          -1.69102        -2.48738        0.227918
LJ           -0.3225         6.33176        -3.59595
LJ          -3.48531         5.04974        -5.73046
LJ           5.30913         3.72213        -4.48015
LJ          -3.02111         1.47386         5.95426
LJ          -6.24865        -4.73095         5.39819
LJ          -1.23403         2.41039         3.71474
LJ           4.92713         3.21398        -2.09345
LJ           3.91312        -2.56276        -5.71969
LJ          -2.84237        -3.27809         5.37898
LJ          -4.19202        -5.40407         2.49474
LJ          -0.87552         2.14017       -0.122772
LJ          -0.28939         4.06805         5.97881
LJ           0.30752          3.0975        -4.60282
LJ          -4.37917        -1.30396        -2.40192
LJ          0.837527        -0.78197        -5.22987
LJ            -2.281        -1.90544        -6.35913
LJ          -1.15632         4.99208         1.39447
LJ          0.555329        -3.14848        0.787008
LJ           5.48161        -6.08015        -6.31055
LJ          -5.62181         1.70329        -4.93752
LJ          -2.71934         1.41209        -2.35046
LJ          -5.95511        0.761296        -2.94103
LJ          -2.72746        -5.39963         4.24611
