108
#Comment!
LJ            2.9083         3.10746        0.439523
LJ           3.30148         1.37727        -2.72902
LJ          -4.72421         5.42075        -2.86499
LJ           5.93657         1.37544        -6.24815
LJ          -4.43844          2.9154         4.13479
LJ          -5.34678        -1.91479         6.15912
LJ          -2.48792        -4.91278        -4.95115
LJ          0.304623         2.47298        -6.28408
LJ         -0.602588          3.8469        -5.18185
LJ           4.88703        -1.53516        -6.05516
LJ          0.155845        0.451075         1.67617
LJ          -1.16792          2.4481        -3.04438
LJ          -6.30705         1.79505         0.69345
LJ          -4.99059         4.13073        -4.01611
LJ           1.82371       -0.952167        -6.12571
LJ          -2.50212         3.52079        -6.23082
LJ           5.85084        -3.14691        -5.85414
LJ          -3.64537         1.43936        0.507682
LJ         -0.561352         1.12028         1.95717
LJ          -2.09693        -1.78167        -1.44485
LJ          -2.13413        -4.77004         3.16584
LJ          -5.03911         4.33598        0.585712
LJ         -0.644062        0.163072        -3.73792
LJ          -5.52645        -6.06888         -4.6797
LJ          -2.52447        -5.79421          4.4631
LJ           3.31365        -1.90358        -4.33067
LJ           6.12675        0.488568         1.70703
LJ          0.200196         1.80129         1.91556
LJ           3.38822        -3.65351        -6.10795
LJ           5.83144         1.73959        -3.02188
LJ          -2.77993         4.68646         4.97981
LJ           5.14304         -2.1215        -3.88972
LJ          0.922174         2.32123         1.11974
LJ         -0.578191         2.77787        -5.63784
LJ           1.14931         3.33124         5.57591
LJ          -5.10122        -2.64637         3.16294
LJ            6.3102         2.91717        0.275553
LJ          -3.74799         3.58899         3.19324
LJ          -4.91122        -3.63755          4.2452
LJ           -2.6977         2.63555        -5.11609
LJ           4.04818        -1.32283        0.417594
LJ          -4.18397         2.48299         2.95363
LJ          -4.06088        -3.33124        -5.46109
LJ           3.78129        0.349987         4.62935
LJ          0.416359         2.22984         5.40246
LJ          0.554122         4.41896        -2.73163
LJ           -2.9994        -3.17674         2.55557
LJ          -5.98662       -0.494726          1.4231
LJ          0.147708           5.101         3.35268
LJ          -5.42751        -4.16101         6.06645
LJ          -1.99439         -3.3505        -3.17496
LJ          -2.30229         4.21758         2.61309
LJ          -0.94602        -2.12138        -4.24173
LJ          -5.18163         1.94487         5.55775
LJ           5.20935         2.94524         2.85867
LJ           5.87222         4.86631         3.03454
LJ           6.28334        -5.03298         -4.4431
LJ          -1.58517        -2.82166        -4.85686
LJ          0.967058        0.141952         0.82802
LJ        -0.0815247         5.86639        -4.61105
LJ          -4.88402         4.44131        -2.29215
LJ          -2.05705         -4.6571        -3.67584
LJ           5.83395        -6.13098        -1.36273
LJ           3.24775         4.66435       -0.785775
LJ            3.7864         3.88899        -2.84362
LJ          -2.61483        -2.54058         6.38806
LJ          -4.03128         2.63439        -2.00623
LJ          -1.19025        -1.37671         2.50752
LJ           3.36259         2.77081         6.31003
LJ           -1.4717        -1.03862         3.92719
LJ           6.35383        -1.96936        -5.92705
LJ          -6.20637         3.82428         -3.8391
LJ          -5.27355        -3.63127        -5.32701
LJ          -1.93751        -6.18494        -1.02892
LJ          -4.54787        -5.53772         1.37198
LJ          -1.32047       -0.366409         2.35509
LJ           6.17712         -3.9469        -2.43078
LJ           3.47756         5.32581         1.81738
LJ            3.8852         4.91475        -3.40451
LJ          -5.98545         0.64431         3.14478
LJ          -4.50916        -4.51652         -5.2817
LJ           3.75858      -0.0952271        0.278929
LJ         -0.118122        -4.66055         1.68586
LJ           6.39717         1.37552          2.6099
LJ          -3.80214          5.2205        -5.38773
LJ           3.51574         4.04131        0.759314
LJ           5.18128         1.98944      0.00978805
LJ          -4.16561        -0.15644         2.76338
LJ         -0.644601         -1.3032        -3.61817
LJ          -1.20012        -6.16926         5.95882
LJ           5.45093         1.12406       -0.482573
LJ          -0.35662         4.18101         4.90523
LJ          -3.16412        -3.43353        -3.31682
LJ           4.76397        -6.21431        -5.14368
LJ          -4.61543         -2.9375         6.26097
LJ          -4.24149         6.09566         2.81443
LJ           2.04837         2.36203          1.6496
LJ          -5.12814         5.59404        -4.07404
LJ          0.784727         3.37541         1.85696
LJ          -4.73805         4.83479         1.91792
LJ            -6.139         3.53006       -0.481688
LJ           -2.5552         2.37672         3.48297
LJ          -4.69056         3.38372        -2.62695
LJ           6.32127       -0.191221        -3.44531
LJ           1.90362         1.86698        -1.62505
LJ          -4.26316         1.95333        -2.77984
LJ         -0.483555        -3.26588        0.677045
LJ         -0.685605       -0.967725        -2.08682
