108
#Comment!
LJ           1.11783         6.09858         3.46851
LJ          -2.78239         4.67159        -3.92722
LJ          -2.70523         1.09569        -1.46405
LJ           5.83189        -2.25699        -2.64273
LJ           3.60284         3.60623        -6.41958
LJ          -3.36192       -0.111766         5.19959
LJ          -4.20326         5.75151         2.94412
LJ          -5.58575          1.2199        -1.03394
LJ         -0.619074        -3.20999         5.00884
LJ           1.34051       -0.881312        -1.57802
LJ          0.756985        -3.47606        -3.86496
LJ          -4.93963        -2.93927         2.69132
LJ          -6.05648         2.46422         5.80961
LJ           -3.2399        -2.47933         6.28226
LJ           -3.7612         4.69374        -1.48407
LJ          -0.14051        -2.88356        -3.79675
LJ             2.989        -2.15866         3.53896
LJ           4.26731        -1.45482         6.06315
LJ           2.07486         -1.2328        0.719742
LJ           3.29206         3.87436         3.48563
LJ          -1.80474        -5.17598        -5.62388
LJ          -2.77055         5.84306        -3.52519
LJ          0.600834        -5.46249         4.06557
LJ            2.3928        -4.45985        -2.20347
LJ          0.103206         4.28264         5.67107
LJ         0.0705895        -5.14332        0.502107
LJ          -0.82051        -3.51166         3.73976
LJ          -2.13399         2.28567         0.14476
LJ          0.254198        -2.82482        -4.95053
LJ            5.3775         5.43885        -5.90694
LJ          -3.80939         1.12745        -1.66197
LJ           5.00939        -1.21762         -2.3866
LJ           0.32638       -0.902012         3.35193
LJ           1.08644        -4.29731        -5.56229
LJ           4.01874         1.99244        -5.71575
LJ           4.65502         2.59862        -6.20142
LJ         -0.780656        -4.83933        -3.80543
LJ           2.41864         1.74205          3.8141
LJ           -5.1298         3.37874         1.99079
LJ          -4.24183        -3.84547        -4.18958
LJ            3.9877        -5.66648         4.51459
LJ         -0.541988         5.42711         2.44102
LJ          -1.44583         3.97854         4.40138
LJ           3.46211         -1.8289         4.54282
LJ           -1.8393        -5.10604        -3.91487
LJ           3.14546         4.74755         5.61228
LJ           2.87471         -2.5782         6.07058
LJ           4.24642         2.34162         3.50619
LJ           6.40038         3.83176        -3.91098
LJ           -2.8916         1.39639       -0.567375
LJ          -5.26174          2.2298        -5.84115
LJ           2.09144        -4.13376        -6.43536
LJ          -2.92341         1.94938         4.61154
LJ          -1.68256        -3.58929        -3.98018
LJ          0.937726        -3.94825          6.0977
LJ         -0.386964         -5.5456       -0.527463
LJ           2.60117        -6.24005         4.32745
LJ           6.41956        -1.33858         2.00713
LJ           6.31052        -6.18763        -1.59544
LJ           6.03992        -5.21508         2.97016
LJ          -2.37783         6.34083       -0.479383
LJ           2.02447         2.09902         5.76107
LJ           1.68452        -4.05941         -4.6674
LJ          -5.33898         -4.5811         1.30311
LJ           1.73202         6.13042         2.60268
LJ           1.92214         -3.5123         2.30843
LJ          -5.89469        -4.01242      -0.0890892
LJ          -1.14982        -3.82071        -2.98603
LJ           6.15046       -0.799003        0.860272
LJ           5.99294        -3.41522         4.12897
LJ          0.808987        -1.69238         4.82363
LJ          -5.11331        -1.84791         3.15982
LJ           2.49352         3.45317          -3.325
LJ          -5.09013         4.65763         -1.4115
LJ           1.06465        -6.36634       0.0378031
LJ          -5.52428         -6.2307          4.3129
LJ          -1.94269        -2.30994         3.31597
LJ          -2.10802       -0.934788         5.22564
LJ          -1.67715         2.86824        -2.10865
LJ           4.09084         2.70956         -3.9752
LJ           1.66385        -2.03364        -1.63395
LJ           4.52456         4.53263         5.45166
LJ         0.0443537         1.94889        -1.59068
LJ           5.44813        -5.27884          -2.217
LJ           4.71941         2.18752        -4.57744
LJ           1.62172        -5.99022        -4.01964
LJ          -3.51689        -5.96342         -3.1254
LJ           5.34102         -0.5884        -5.52651
LJ          -2.30475        0.797615         2.85839
LJ           5.84618        -1.62826         5.84668
LJ            4.9498        0.800851          2.7553
LJ          -3.40804         4.74198        0.153589
LJ         0.0698291        -3.22168         6.14124
LJ          0.685512        -5.80502         2.80298
LJ          -5.69781        0.767503         2.16146
LJ           3.91484         2.55289          5.9328
LJ            1.8402         1.11577          5.4635
LJ          -5.02089         5.01901        -5.87276
LJ           5.41055         3.92704         3.97072
LJ          -3.22315          1.0887         3.51148
LJ          -3.77914        -2.97343        -2.19695
LJ          -3.34094        0.464672        -2.46179
LJ           3.54344         5.42143        -2.32878
LJ           5.19063        0.363466         1.02541
LJ         -0.032021        -3.42257        -2.99891
LJ           2.77954        -2.09871        -3.79059
LJ          -5.06469        -0.65252         2.91917
LJ           -5.8803         2.08177         2.91364
