108
#Comment!
LJ           1.12832          6.1447         3.43187
LJ          -2.98166          4.6866        -3.82392
LJ          -2.62929         1.08537        -1.60634
LJ           5.66855        -2.06114        -2.68162
LJ           3.54066         3.66961         6.42116
LJ          -3.45389       -0.169025         5.34603
LJ          -4.08494         5.89465         3.00723
LJ          -5.57131            1.24        -1.30351
LJ         -0.645992         -3.3237         5.03305
LJ             1.329        -0.93023        -1.88191
LJ          0.827013        -3.47187        -3.88262
LJ          -4.70566        -2.96785         2.69345
LJ          -6.10302         2.34445         5.90703
LJ          -3.15654        -2.72011          6.2622
LJ          -3.71916         4.86998        -1.43793
LJ          -0.37234        -2.93344        -4.01341
LJ           2.91943        -2.16352         3.43148
LJ           4.39226        -1.36076         6.11043
LJ           1.80816        -1.18093        0.713635
LJ           3.11585         4.06516         3.33931
LJ           -1.8978        -5.27933        -5.66725
LJ           -2.7772         5.81595        -3.49037
LJ          0.622548        -5.59344         4.07151
LJ           2.58977        -4.50937        -2.14596
LJ         0.0536982         4.24033         5.86774
LJ        -0.0746503        -5.09599        0.493857
LJ         -0.831239        -3.56032         3.68195
LJ           -2.2102         2.18263        0.300047
LJ          0.241519        -2.89088        -5.03524
LJ           5.26498         5.42885        -5.67791
LJ          -3.86627          1.0914        -1.65043
LJ           5.06313        -1.22811         -2.5212
LJ          0.308359       -0.747738          3.3807
LJ           1.01067        -4.23702        -5.60128
LJ           3.89421         2.09612        -5.55862
LJ           4.68603         2.75464        -6.28265
LJ         -0.896474        -4.93472        -3.73118
LJ           2.42054         1.72495         3.79329
LJ          -4.99338          3.5345         1.91232
LJ          -4.15293        -3.86411         -4.2053
LJ           3.90982        -5.85401          4.4638
LJ         -0.299625         5.34319         2.40583
LJ          -1.60268         4.02565         4.58176
LJ           3.39675         -1.8756         4.48156
LJ          -1.93127        -5.08978        -3.94937
LJ           3.32797          4.8695         5.68341
LJ           2.92927         -2.4021         6.04079
LJ           4.10517         2.24733         3.56202
LJ           6.36247         3.60389        -4.01826
LJ          -2.93251         1.31745       -0.478643
LJ          -5.28835         2.40024        -5.72007
LJ           2.18139        -3.93163         6.43118
LJ          -2.93612         1.91796         4.81689
LJ           -1.4793        -3.78121        -3.95961
LJ           0.90784        -3.92975         6.03793
LJ         -0.579955        -5.65507       -0.580528
LJ            2.7604        -6.29881         4.11306
LJ          -6.43668        -1.38562          2.2194
LJ          -6.37423        -5.94647         -1.4782
LJ           6.07958        -5.19874         2.97854
LJ          -2.51669        -6.41094       -0.454835
LJ           2.02185         2.20472         5.70167
LJ           1.90133        -3.96997        -4.57885
LJ          -5.23264        -4.75309         1.23625
LJ           1.59075         5.96916         2.50413
LJ           1.99722        -3.48441         2.46049
LJ          -5.86343        -4.17008        0.120642
LJ          -1.07039        -3.74039        -2.82868
LJ           5.96646       -0.945784        0.902017
LJ           5.89891        -3.39697         4.37649
LJ          0.859826        -1.54202         4.77187
LJ          -5.13288        -1.84856          3.0637
LJ           2.39904         3.51951        -3.21823
LJ          -5.16013         4.70742        -1.49041
LJ          0.980644         6.30938      -0.0730111
LJ           -5.5796        -6.39842         4.39794
LJ          -1.88112        -2.52497         3.26605
LJ           -2.1522       -0.895526         5.23415
LJ          -1.59493         2.91367        -2.08669
LJ           4.08946         2.90286        -4.00808
LJ            1.8588        -2.11359         -1.6593
LJ           4.66757         4.50786         5.49419
LJ        -0.0622811         2.10532        -1.69154
LJ           5.52271        -5.25177        -2.27381
LJ           4.66594         2.29437        -4.82883
LJ           1.74475        -5.96451        -3.97642
LJ          -3.26007        -5.99351        -3.16809
LJ           5.30845       -0.807065        -5.53848
LJ          -2.39707        0.752817         2.74182
LJ           5.73429        -1.66214         5.73768
LJ           4.60882        0.814124         2.67848
LJ          -3.38171         4.79643        0.309101
LJ          0.157497        -3.24188         5.96799
LJ          0.629709        -5.78223         2.97705
LJ          -5.75299        0.727726         2.11938
LJ           3.82666         2.36631         5.94581
LJ           1.80864         1.23765         5.24336
LJ          -4.77555         4.93512        -5.79198
LJ           5.49131         3.97087         4.01809
LJ          -3.36661         1.25253         3.45122
LJ          -3.73305        -3.12452        -2.04722
LJ          -3.24756        0.594284        -2.68442
LJ           3.51186         5.43293        -2.21647
LJ           5.34726        0.388631         1.09403
LJ         0.0117203        -3.63099        -3.01786
LJ           2.80349        -1.90114        -3.67646
LJ          -4.91929       -0.474017         2.92601
LJ          -5.72218         2.05898         3.03532
