108
#Comment!
LJ           5.87266        -3.45633        -6.13961
LJ          -3.93605         2.92964        -5.07052
LJ          -1.30658        -1.98729        -6.20775
LJ          -3.39747         5.36832        -1.69053
LJ           3.41853          3.8589       -0.298168
LJ          -3.29691        -3.92612        -6.06959
LJ          -2.35158       -0.703046         6.43942
LJ          -1.28518        -6.30851         2.08999
LJ            3.5038          4.8524        -1.44481
LJ           -2.1751        -2.76458         5.97346
LJ           2.18411        0.506732        -2.53918
LJ          -4.23517        -1.57144         3.37287
LJ           4.37546         -3.1317        0.978027
LJ          -4.32633         6.42447         2.31692
LJ          0.618836         4.43447        -2.83799
LJ           2.69678        -5.90832         3.43925
LJ          -1.82724         4.12423         6.01668
LJ           5.20052         -2.5408          1.7501
LJ          -2.71439         2.95187       -0.856773
LJ          -2.52183        0.455145        -1.23653
LJ          0.888449         5.88076         2.64811
LJ           2.85381        -6.29717         1.09201
LJ          -3.26807         4.77682         2.83974
LJ           6.00608       -0.945795        -3.05234
LJ          -5.39925        -1.07654        -1.56603
LJ            1.4275        -4.18199        -4.15577
LJ          -1.86831       -0.976087        -4.95572
LJ           4.64784        -2.30263          3.1289
LJ           4.45926        -3.56349         5.90421
LJ          -4.18393        -4.67897        -4.01443
LJ          0.613332        -5.66748        -1.63733
LJ          -6.11549        -5.01678         2.19508
LJ           5.65758        -2.13393         3.25265
LJ          -1.89162        0.449106         1.04839
LJ           3.48093        -5.70488         1.63608
LJ           2.29253        -4.86036         1.77094
LJ          -2.44344        -2.39174         4.42352
LJ         0.0219531         3.13564         4.19974
LJ          -1.88578        -2.12821        -3.72976
LJ          -6.16537         4.61263        -2.47635
LJ          -1.54263          1.6449         4.72812
LJ          -2.07943       -0.843963        -3.87415
LJ           2.42884        -1.66092         1.40913
LJ           6.44254          3.3794         0.34071
LJ           1.93832        0.526384        -6.43033
LJ          -3.54656       -0.381266         4.56602
LJ            1.7603         5.34242        -3.89341
LJ           4.75322         -5.6823         5.88039
LJ           4.77491        -3.14241        -1.04165
LJ          -1.77628         5.35171         2.68149
LJ          -2.33794        -5.21743        -2.60117
LJ           5.96151         4.46289        -1.15733
LJ            2.0377         4.74823         2.51795
LJ         -0.584961        -5.76424        -1.27076
LJ          -4.90239        -3.43398         4.92647
LJ          -3.31499        -0.43335         6.29989
LJ          -2.38363        -1.42846        -5.65787
LJ          -1.45403      -0.0990282         6.15177
LJ          -5.54494         3.76283        -2.55573
LJ          -6.25351       -0.469237        -3.70519
LJ        -0.0957018        -3.13158        -1.01784
LJ           2.98512        -5.19269        0.661994
LJ           0.39859       0.0712393        -3.46163
LJ          -4.42118         3.55003        -2.00321
LJ           5.99006         -1.3372        -4.02424
LJ           1.67342         1.32401        -4.25984
LJ          0.813718        -5.31843        -2.74717
LJ          -2.95655        -4.35495        -3.41021
LJ           3.68197         6.42736        -3.90945
LJ          -4.15519       -0.131969       -0.758554
LJ          -4.73844        0.985074        -2.43649
LJ           4.01289        -1.65982         1.59006
LJ          -1.18669         1.50169        -5.49968
LJ            3.6223           2.745       -0.233515
LJ          -1.02923       -0.786205         -4.3524
LJ            1.8707        -6.15748         4.58392
LJ          -5.94842        -4.26191         3.05433
LJ           1.03073         3.02098         4.82626
LJ           4.82602         2.03228        -1.92707
LJ           1.51348          6.2512         -4.9769
LJ          -3.22941           3.006        -6.04623
LJ          -6.23034        -5.30986         4.01895
LJ          -2.51983       -0.353319        0.286633
LJ          0.345166        -1.18951         -6.1731
LJ          -1.83592        -2.59228          0.4489
LJ         -0.304276        -5.96123        -3.65538
LJ          -2.92975         4.98252        -5.98537
LJ           4.81444         3.71105        -4.51537
LJ          -3.00689         1.48247         5.90171
LJ            6.4303        -4.73667         5.62791
LJ          -1.24082         2.82776         3.90582
LJ           4.78841         3.40005        -2.08742
LJ           3.91608        -2.29086        -5.65644
LJ          -3.09419        -3.63003         5.47896
LJ          -3.88364         -5.5776         2.36985
LJ          -1.16658         2.51969       -0.224927
LJ         -0.216282         4.05407         5.98198
LJ          0.327296         3.06048        -4.79896
LJ          -4.33007        -1.73654        -2.19955
LJ           0.84762       -0.614052         -4.9674
LJ          -2.77763         -1.7181         6.09976
LJ          -1.21632         4.96236         1.24869
LJ          0.151126        -3.14667         1.08781
LJ           5.24972        -5.64262        -6.11974
LJ          -5.69599         1.78579        -4.73855
LJ          -3.00874         1.68647        -2.75049
LJ          -5.71609        0.350638        -2.99754
LJ          -2.67248        -5.34893         4.59334
