108
#Comment!
LJ          0.450247        -6.28702         4.37482
LJ         -0.964743         5.89283        -4.62187
LJ          -3.60311        0.264646        -2.09261
LJ          -5.04013        -5.10044        -2.78763
LJ           4.80972         3.08807        -5.00656
LJ          -3.03546       -0.560953         5.60158
LJ          -5.89954         3.81002          2.0969
LJ          -5.86481         2.85597         1.98979
LJ          -1.02276        -2.94412         5.66454
LJ           1.42784        -1.05036         2.15315
LJ         -0.467362        -2.25723        -3.13095
LJ           5.25953        -4.06092         3.28432
LJ          -5.28213         3.94997          4.8117
LJ          -4.35673         0.98604         6.27905
LJ          -4.17169         2.00767        -1.86966
LJ           1.57667       -0.185127        -2.90126
LJ           3.93834         -2.0796          5.0245
LJ           2.47761        -3.29857         6.35119
LJ           5.84681        -1.73988        0.655047
LJ           6.24422         1.94868         6.09609
LJ          -1.38034        -4.29582        -5.17607
LJ          -1.92047         5.22744        -4.59889
LJ          0.574445        -4.25985         3.28729
LJ         -0.456973        -3.84294        -3.14379
LJ          0.579259         4.69013         2.48517
LJ           0.68942         -4.0746         2.04037
LJ          -0.60846        -2.79721         4.33284
LJ          -1.83759          3.3025        -1.81987
LJ           0.76187        -2.76116        -3.85562
LJ           6.43213          5.4668         3.07083
LJ          -3.13723         1.20968        -1.38126
LJ           4.59464        -1.30346       -0.437599
LJ          0.479645        -3.29386         3.33401
LJ         -0.891005         -5.0139        -5.84126
LJ           4.11981       -0.908654        -6.42425
LJ           4.98422         3.25734         6.17995
LJ          0.574576        -3.79072        -4.28425
LJ           2.47492         2.16544         4.35677
LJ          -6.41678         1.53615         2.73948
LJ          -5.42814        -3.55329        -3.74874
LJ           4.80146        -3.08131         5.17112
LJ          -3.84656          -6.299          2.9808
LJ           1.04478         3.65929         2.27474
LJ           4.31165        -1.08916         4.71382
LJ          0.167896        -4.97978        -3.61677
LJ           1.70274         2.80178         4.66369
LJ           1.61619         -4.9494        -6.39662
LJ           5.92883         2.05159          1.9834
LJ          -6.32564         5.96655        -2.40964
LJ          -2.44999         3.92226        0.615839
LJ          -5.17044      -0.0701499         5.29322
LJ           2.98546        -6.34802        -6.12888
LJ          -2.50047          1.2979         1.21923
LJ          -3.40747        -2.19963        -3.80358
LJ           1.16567        -3.64931        -6.35447
LJ            2.4082        -4.19152        0.170395
LJ         -0.205076        -5.53541        -6.29952
LJ           5.56269       -0.571531       -0.764055
LJ           4.04366         4.47341        -2.24319
LJ           5.56912        -5.27973         2.93394
LJ         -0.569237         3.74465       -0.844726
LJ           2.33456        0.595404        -5.95011
LJ          0.784819        -5.34478        -4.51585
LJ          -6.20801        -1.27516        0.363602
LJ           2.54939        -4.54082         2.82059
LJ          0.749012        -4.43395        0.195236
LJ          -6.27541         -1.5221         -2.2079
LJ          -2.34056        -2.78173        -5.56671
LJ          -4.73447       -0.573904        0.702654
LJ           6.37375        -4.23053         3.01121
LJ           1.94198        -3.50408         5.50995
LJ           -5.7213        -3.32874         3.62508
LJ           4.50567         1.82667        -4.67589
LJ          -4.48211         3.98099       -0.165489
LJ           3.72765        -3.96644        0.516798
LJ          -4.98869        -3.74604         2.99064
LJ           -2.4955        0.794879         4.41836
LJ          -1.85969        -1.13792         4.52083
LJ          -2.96414         1.95984        -2.66596
LJ           2.82499         1.57452        -3.05123
LJ         -0.941891       -0.101924        -0.83448
LJ           1.79007         4.13831         5.02143
LJ           1.44988       -0.315408       -0.186568
LJ           4.76511         6.30622         -1.2724
LJ           6.03529       -0.102349        -2.63451
LJ         -0.316528        -5.88531        -4.80698
LJ           6.42437        -4.67124        -2.65274
LJ           5.72803         2.29539        -5.65523
LJ         -0.298446         1.71467         3.94543
LJ          -5.73776        -1.06316        -5.48958
LJ          -4.16345        0.532231         4.51021
LJ          -3.51169         4.08698        -2.34056
LJ         -0.598149        -3.87147        -4.23707
LJ           2.91301         6.39356         1.87632
LJ          -3.73737         2.70621         2.43117
LJ           5.43267         3.78196         5.22454
LJ           2.33868       -0.472211        -4.90927
LJ           4.89021         6.16061        -6.32694
LJ           3.93636         4.03754         4.65095
LJ          -1.84499         1.08552         3.09525
LJ          -4.24347        -1.10169        -4.42637
LJ          -3.72023       -0.431988        0.458086
LJ           2.57473         5.07818        -5.10555
LJ           3.35261       -0.410733        0.157743
LJ         -0.216796         -2.9987        -1.20136
LJ           2.11948        -4.99527        -5.52606
LJ           6.29286       -0.383982         2.16807
LJ           4.53806         1.02563         1.48137
