108
#Comment!
LJ           2.27051         6.33951        -2.01962
LJ          -3.45567        -2.29137        -5.14663
LJ          -5.07215         3.37569         3.21117
LJ           2.17153        -5.57766        -4.34407
LJ          -2.43556          3.9783         4.18482
LJ           -4.3821       -0.191105          6.1072
LJ            1.7505        -2.69479         3.63837
LJ          -1.68554         2.31034        -4.53694
LJ          -1.27284         5.41534         6.28067
LJ           5.84215        -2.58672        -4.23101
LJ          -1.46532         3.28218       -0.890843
LJ          -1.69468        -5.42657        -2.59706
LJ          -4.98275         5.87616       -0.519991
LJ           4.26138         4.62549         -3.6975
LJ          -2.50979        -3.83596         2.97087
LJ           1.69551         1.99834        -2.18604
LJ          -2.14382        -2.52306         -3.8605
LJ           -3.6183        -2.30962        0.847454
LJ          -2.75699         1.28551         2.72307
LJ          -5.21909        -2.68585        -4.72048
LJ         -0.136177         3.25151         3.89453
LJ           4.74068         3.96685       -0.285863
LJ           1.42349         1.87107       -0.115851
LJ            1.8028        -4.52832         4.70957
LJ         -0.570112          5.6317         3.04058
LJ            1.7454        -1.52253        0.846108
LJ           5.33911        -1.10214        -4.60819
LJ          -1.23172            2.02         5.01002
LJ           1.48048        -5.39699         5.27033
LJ          -2.75024          0.4901         4.33049
LJ          -2.53896        -2.15968        -5.59237
LJ           2.68265        -4.91397         -2.5445
LJ          0.220732          5.4683          -3.853
LJ         -0.402598        -6.41208         5.57559
LJ           4.35579        -6.32964         6.16531
LJ          -5.85391         1.63948         5.02159
LJ          -2.27444         2.91905         5.11938
LJ          -2.15079        0.195115         1.66443
LJ          -4.67209        -5.92061        -4.47695
LJ         -0.416715         6.00113        -6.18661
LJ           2.35517        -2.07637         2.61875
LJ          -1.75551        -1.54318          2.7704
LJ          -4.81104         5.43247        -3.84595
LJ           1.91858        -1.19452         3.89941
LJ          -1.65449         2.59916         6.43919
LJ          -3.40607         1.37997          5.2505
LJ         -0.607342         6.39873        -4.09195
LJ           5.24635        -2.68073         4.71507
LJ          -6.42542        -4.66893         2.07256
LJ          -4.93429        -3.22877         2.83037
LJ           4.65332        -4.61429        -5.57668
LJ          -3.06098         4.91238         4.84829
LJ          0.395079         1.62338        -2.56752
LJ         -0.373953         3.85296          0.2686
LJ           0.63437         2.03403         3.38199
LJ          -5.36013         1.96894       -0.385234
LJ           -5.0599        -6.25015         2.84494
LJ        -0.0685039       -0.816766        -4.75504
LJ           1.13552         1.05878        0.950431
LJ          -1.37538        -4.62192         4.64524
LJ          -5.30362       -0.504549       -0.944584
LJ           1.49409        -3.76732        -3.33903
LJ          -5.69964         5.29104        -2.70606
LJ         -0.253385          2.3866        -2.06113
LJ          0.817946        -5.68883         -1.6999
LJ           6.00323         1.64039        -6.40217
LJ           -5.9781         -4.1798        -5.38217
LJ           4.39843         -3.7259        -3.37707
LJ          0.377665        -5.58795          5.4861
LJ           2.61363        -1.42718         5.83304
LJ          -1.04585         -2.3108        -3.45595
LJ          -5.43982       -0.413173        -2.45492
LJ          -5.13784         6.33659        -1.44677
LJ           2.40625        -5.48816        -1.74796
LJ          -4.54133         -5.1695          4.8767
LJ          -6.09669        -3.69798        -1.10353
LJ          -5.10423        -4.73389        -3.26104
LJ           4.47985         -4.9243         -1.0133
LJ           3.78806         5.61604        -2.56909
LJ           3.72211       -0.250943         5.33004
LJ          -3.39984         5.77775        -6.20998
LJ           4.96674       -0.364905         4.34994
LJ          -3.01301        -3.55935         1.15514
LJ          0.996689        -2.63626       -0.891241
LJ          -5.51666          4.9274        -4.43876
LJ           5.98722          -6.332        -2.13233
LJ          -3.84619       -0.466129        0.584892
LJ           5.56437        -5.02023         0.89245
LJ        -0.0722994        -2.62699        -2.96825
LJ          -1.25858        -3.06936         6.34094
LJ          -5.49145         1.85665        -2.68266
LJ          -1.83667         5.55842        -5.26098
LJ           -2.7162        0.446911        0.787341
LJ           4.64757       -0.344483         5.99769
LJ           3.61112      -0.0611907         6.31206
LJ         -0.952165        -6.17903        0.993136
LJ           1.67963        0.314252        0.345542
LJ           4.78759         3.43572        -1.87236
LJ           2.79323        0.789783        -2.39269
LJ          -2.96018         1.65066         1.30737
LJ          -5.87927         1.70031        -1.53373
LJ         -0.613379        -5.84958         -6.2996
LJ           6.09358        0.696027       -0.497039
LJ          -5.09607        -5.41084       -0.978336
LJ           5.51162         3.21954       -0.360913
LJ         -0.620955        -2.08455      -0.0436467
LJ          -2.16228        -4.20514         1.61128
LJ            1.5896       0.0954476        -4.72409
