108
#Comment!
LJ           6.14262         -1.7366        -1.93824
LJ          0.235156         2.93977        -2.32672
LJ           1.31278        -5.64911        -4.03979
LJ          -3.38542         1.52937         6.29916
LJ           2.57701        0.229238         3.44311
LJ          -6.13889         4.48065         5.93947
LJ          -0.66483        -5.24641         4.51066
LJ          -1.81929         6.19481        -3.97378
LJ           2.70155         4.58386        -5.05045
LJ           5.25733        -2.07977         3.25013
LJ          -6.24039          2.2912         1.50447
LJ           5.98625       -0.610697       -0.165882
LJ           4.19412        -5.13794         1.11721
LJ          -6.07433        -3.56992        -2.02256
LJ         -0.683482         4.01614         -4.6918
LJ          -4.00806         2.69748        0.470792
LJ          -4.42631         6.41898        0.520898
LJ           5.04486        -5.78478        0.806032
LJ          -6.29811         -5.0334         5.70084
LJ            0.4455        -1.08319         3.44183
LJ           2.73005         4.37753         2.47455
LJ           2.59388        0.715188         2.04476
LJ          0.768941        0.195694         2.32547
LJ           2.49973         -1.1571        -3.34023
LJ            5.8746         5.89072        -6.35085
LJ           5.48239         4.21589        -1.01704
LJ         -0.873819        -5.63124         5.89538
LJ           3.80052        -5.39881      -0.0765003
LJ           3.49519         0.31124         6.09234
LJ          -5.06327         3.75784         6.12429
LJ           4.34021        -1.54046        0.355245
LJ          -6.00187        -2.84003         2.11814
LJ          0.793903         5.38092          3.8062
LJ          -0.34996        -6.09959         2.56272
LJ           4.76035       -0.691238         2.14413
LJ           3.75036        -5.95747         1.39006
LJ          -5.26563            2.31         4.63204
LJ          0.592944         5.38227         -5.4634
LJ         -0.632374        -4.98759        -2.21638
LJ          -2.92223         5.08301        -3.16563
LJ          -1.86391         3.84056         -5.8851
LJ         -0.156977        -4.22622        -2.77033
LJ          0.141682        -6.04392         3.67093
LJ           3.33093          2.3781        -3.66947
LJ          -2.37364       -0.417819         5.94037
LJ          -4.78326        -1.59601       -0.607646
LJ           1.00667         3.52968       0.0942959
LJ           2.24428         5.75281        -2.29414
LJ          -3.39156        0.256891        -3.06045
LJ           0.20761         5.95171        -1.64407
LJ          0.504113         4.84793        -1.27294
LJ          -4.10834         4.44267        -3.06091
LJ           4.19601       -0.276344         2.87512
LJ          -3.27442        -4.15331         0.86589
LJ          -2.38192         -5.2924         6.43291
LJ          -5.09877        -1.97789         5.41043
LJ          -1.26737       -0.125393         5.99145
LJ         -0.443465         -1.5575         2.98799
LJ          -4.27881        -6.22189        -4.09731
LJ           2.99528        -1.47291        -4.48675
LJ         0.0117319         3.75873        -1.19102
LJ           1.00479         5.98235        -3.41503
LJ         -0.412516        -0.93581          5.8161
LJ          -3.95028         4.32458        -5.29523
LJ            3.9514        -2.47744         2.89092
LJ          0.966829        -1.21774         5.81776
LJ          -5.65268        0.232279        -1.65285
LJ          -2.18631        -4.38585        0.870648
LJ           3.64121        -2.84602        -3.37865
LJ         -0.707531         2.28414       -0.641045
LJ           1.39633        0.459839         4.69422
LJ           6.06093         3.66966        -1.98654
LJ           6.46314        0.994169         4.51099
LJ           4.99352        -1.56365        -1.34154
LJ          0.408571        -4.69622         -3.9784
LJ          0.491261        -4.58585         4.07652
LJ          -2.38202         -4.4678         5.69209
LJ           2.60543         5.19799         5.90758
LJ            3.4787         4.57113       -0.930298
LJ           2.44016         3.54833         3.94952
LJ          -3.48846        -5.14619         2.52403
LJ           2.63255         5.65356         1.54159
LJ          -5.36575         1.52837         1.53508
LJ           5.26373       -0.385414         4.06828
LJ           5.89232        -4.13458         4.95177
LJ          -3.03675        0.156817         1.67638
LJ           1.23724        -3.31096         -3.4966
LJ          -1.42291         3.01176        -4.48669
LJ          -4.30175         2.39798         4.16219
LJ           5.71832        -4.94523         1.50841
LJ          0.222264         5.74941         5.49958
LJ         0.0407614         3.79268         1.22683
LJ             4.148         2.89611        -5.72317
LJ          -5.54516        -5.77215         3.03073
LJ          0.554082          5.9341       -0.588181
LJ           5.49045        -4.80842        -1.44788
LJ           1.36019          6.3159         5.86643
LJ           2.44305        -6.31148         1.79417
LJ          -3.23734         3.57937         2.12926
LJ           1.69345         2.00588        -6.13961
LJ           -4.7059         1.75498         5.26775
LJ           3.08625         2.68111         3.20395
LJ           4.28362         3.91255         2.08537
LJ          -1.65769        -2.45822         1.23974
LJ          -4.16857         4.48526        -4.24555
LJ           3.40122           1.233         6.39076
LJ         -0.517179        -6.30455       -0.232656
LJ           3.93774        -2.37372        -4.28568
