108
#Comment!
LJ          0.871006        -6.41467          3.7312
LJ          -4.27561         5.19885        -2.96539
LJ          -2.68377        0.875378        -2.77153
LJ           5.56531        -2.21512        -3.24658
LJ           3.32595         4.28257         5.51581
LJ          -3.76492       -0.701287         6.30442
LJ          -3.21524        -5.95807         3.48392
LJ          -5.31646         1.37086        -3.31867
LJ         -0.787585         -4.1626          4.9214
LJ           1.49003        -1.56328        -4.10335
LJ          0.699696        -3.67918          -4.216
LJ          -3.18559        -2.79657          2.7863
LJ          -6.38937         1.51174        -6.10931
LJ          -2.50578        -4.52961         6.11931
LJ           -3.5845         6.19045        -1.06549
LJ          -1.49244        -3.94331        -5.53387
LJ           2.43666        -2.16581         2.79937
LJ           5.61286       -0.922436        -6.45176
LJ          -0.19066       -0.795387        0.666599
LJ           1.73364         5.59447         2.16011
LJ          -2.58942        -5.99843        -5.83775
LJ          -3.00889         5.56047        -3.25665
LJ          0.890717         6.36137         5.14531
LJ           4.05571         -4.8756        -1.73642
LJ         -0.331013         3.91999        -5.60162
LJ          -1.34064        -5.02692       0.0645796
LJ         -0.424678        -4.07228         3.88006
LJ          -2.91326         1.23689          1.4405
LJ        -0.0138554        -3.72787        -5.04934
LJ           4.38685         5.26666         -4.0007
LJ          -3.56918        0.800748        -1.78961
LJ           4.30184        0.300516        -3.26827
LJ          0.323973        0.258399         3.81133
LJ          0.621132        -3.44204        -6.24158
LJ           2.41982         2.88929        -5.34186
LJ           4.37307         3.79628         6.07978
LJ          -0.92421         -5.5268         -2.6453
LJ           2.00513         1.45146         3.26575
LJ          -4.04722         4.63542         1.31126
LJ          -3.40713        -4.05599        -4.30571
LJ            3.7885         5.78327         4.44669
LJ          0.556064         4.29594         2.66638
LJ          -2.76628         4.37243         5.95264
LJ           2.76615        -2.25795         3.94065
LJ          -2.56018         -5.0686        -4.02428
LJ           4.93632         5.23917         6.31483
LJ           3.37396        -1.18007         5.69201
LJ           3.86522         1.57169         3.99235
LJ           6.09664         1.90354        -4.94883
LJ          -3.27216        0.892666        0.202333
LJ          -5.67406         3.63434        -4.90715
LJ           2.25432         -2.4851         5.95408
LJ          -3.06559         1.62162         6.25805
LJ         -0.375172        -4.01531        -4.04512
LJ            1.5662        -4.05035         6.14109
LJ          -1.88988        -6.23923       -0.609032
LJ           3.35925          5.9578         2.12578
LJ          -5.90774        -1.66009         3.76096
LJ          -4.65743        -4.06641       -0.672483
LJ           6.39509        -5.07414         3.03681
LJ          -3.52971        -5.13188       -0.298612
LJ           2.12832         2.94757         5.11271
LJ           3.03146         -3.2353        -3.93166
LJ          -4.25597        -6.15676        0.759988
LJ           1.93367         5.31021        0.964499
LJ           2.62863        -3.27689         3.72637
LJ           -5.7981         -5.2459         1.64043
LJ         -0.309166        -3.53202        -2.54017
LJ           4.61077        -1.87374         1.38631
LJ           5.15806        -3.11678         6.25312
LJ           1.11528       -0.301923         4.18015
LJ          -5.02779        -2.01056         2.17271
LJ           1.72552         4.01836        -2.42876
LJ          -5.44032         5.12735        -2.07052
LJ           0.30563         4.47037       -0.892167
LJ          -6.00733          5.2548         5.00981
LJ          -1.80177         -3.9478          2.6808
LJ          -2.85903        -0.47998         5.41544
LJ          -1.82977         3.62115        -1.87451
LJ           4.16506         4.21836        -4.58399
LJ           3.19649        -2.44671        -1.98735
LJ           5.46938         4.22245         5.82878
LJ        -0.0397842         2.88808        -2.48819
LJ           6.21468        -5.11327        -2.58711
LJ           4.98891         3.43477        -6.03345
LJ           2.66202        -5.71959        -3.65085
LJ          -1.90988           6.217        -3.97964
LJ           4.95431        -2.44183        -5.99486
LJ          -3.40671        0.614437          2.0257
LJ           4.61459        -1.84231         5.21519
LJ           2.03016         1.05569         2.26085
LJ          -3.12021         5.28522         1.42473
LJ          0.301488        -3.07755         4.70709
LJ          0.205888        -5.76645         3.09882
LJ          -5.55867        0.486509         2.29765
LJ           3.25179         1.43606        -6.38697
LJ           1.27547         2.19931         3.99557
LJ          -2.93729         4.29527        -5.16316
LJ           6.01195          4.3402         4.54382
LJ          -4.07069         2.31702         2.74494
LJ           -3.4042        -4.30105       -0.917529
LJ          -2.62667         1.75069        -3.96742
LJ           3.26517         5.51425        -1.38611
LJ           6.05222        0.298891         1.28711
LJ          0.838938        -4.97255         -3.3142
LJ           2.88772       -0.453455        -2.75456
LJ          -3.93707        0.835126         2.91842
LJ          -4.63135         1.71807         3.98923
