108
#Comment!
LJ          0.966532         6.12373        -4.26667
LJ          -3.51307         -4.6291        -4.80177
LJ          -4.85463       -0.746775        0.739303
LJ           3.01213         -3.6161         -4.0456
LJ           -1.6972         3.29131          3.6022
LJ          -4.72757        -1.07708         6.03778
LJ           1.93589        -2.64015         5.09811
LJ          -2.56377         1.90657        -1.76655
LJ          -3.05887        -5.34962         6.14867
LJ           4.36221        -2.34043        -1.43185
LJ          -0.91634         5.26907        -1.78478
LJ         -0.361424        -2.60918       -0.181911
LJ          -3.21542        -5.14811         1.65464
LJ           2.35709         4.17149        -4.43785
LJ          -4.95678        -5.12194         1.57665
LJ        -0.0937412         2.93763        0.474427
LJ         -0.179055       -0.972281        -2.80104
LJ          -3.37502       -0.473519       -0.229627
LJ          -5.86196       -0.215464         3.07463
LJ          -5.99947        -2.35492         6.07446
LJ          -1.79544         3.99375          5.5644
LJ           5.48419         4.92717        -1.31091
LJ           1.60611         2.56497         1.91705
LJ          -1.72303        -3.66173         1.68331
LJ           0.68099        -4.74007     -0.00369669
LJ         -0.109272         -2.5425         1.64696
LJ           5.21556        -2.35568         6.08254
LJ          0.634853         1.03653         5.44535
LJ           1.12573        -4.95849         4.22444
LJ         -0.274777         1.33423         2.34342
LJ          -1.07158        0.215154          6.3015
LJ           1.08462         -5.2274        -3.01423
LJ           0.84748         6.09881        -5.32029
LJ          0.623972        -4.41332         5.98309
LJ           5.93078        -4.89805         6.19229
LJ           5.85584         3.41647         5.32002
LJ          -5.18719       -0.300404        -5.66834
LJ           -1.1057       -0.644774        0.989402
LJ          -3.94458         -6.0488        -2.07202
LJ          0.386919         -5.8751         -6.1216
LJ           3.64187       -0.146869         2.87604
LJ          -1.32003        -4.87464         3.32064
LJ          -4.85418         4.11898        -2.96641
LJ           1.63528        -2.06369         2.70315
LJ            -2.447         3.26829        -5.37608
LJ          -1.99543         1.52953        -4.74169
LJ          -3.25719         3.45301         5.57352
LJ           5.65717        -3.84934         6.24393
LJ          -3.14183        -3.42287       -0.445958
LJ          -4.56545        -2.16798         2.39693
LJ          -5.59419        -5.01665        -5.72648
LJ          -2.43931         4.81832         4.10483
LJ         -0.779272          2.6851        -3.73804
LJ         -0.304049         5.50017        -2.71999
LJ        -0.0864115       -0.806091         3.30046
LJ           -4.6975       -0.782298       -0.934617
LJ          -3.98277        -6.38861        -6.37665
LJ         -0.346484       -0.689767         -4.5232
LJ           1.41579         1.39683         1.37089
LJ          -3.82157        -4.53217         2.62223
LJ          -6.44121        -3.15062        0.428154
LJ           1.99766        0.656304        -1.69798
LJ           6.03422         3.38642         -3.3303
LJ           -1.0426         1.62004        -2.34865
LJ        -0.0218936         -2.9147         -1.8082
LJ           5.24021         3.92752        -5.99592
LJ           -5.5091        0.803452        -3.19097
LJ            4.5789         -4.0307        -5.62147
LJ          0.787687        -3.94633         4.91404
LJ           1.69557        -4.51965        -6.41986
LJ          0.225979        -1.77537        -1.07305
LJ          -5.29604        -2.21234        -2.13713
LJ          -4.08984        -6.21475        0.766329
LJ            1.8609        -5.52819       -0.412303
LJ          -3.85141        -4.72724         6.27072
LJ           4.01138        -5.37996         -2.5073
LJ          -4.62836        -5.94128        -3.10224
LJ           5.99386        -2.83479        -1.73159
LJ           5.90953          4.6375        -2.52345
LJ           5.05517       -0.471807         4.42288
LJ          -2.23571         6.25155        -4.67097
LJ           3.61896       -0.576562         6.24236
LJ            -4.059        -4.22923         1.62068
LJ          -2.07655        -3.21052        -2.33227
LJ          -6.15165         5.00547        -5.43545
LJ           5.26374         5.62794         -4.0716
LJ           1.44816        0.341309        0.785795
LJ           4.09605         4.27509       0.0415213
LJ           2.18839         -3.4367        -2.08439
LJ         -0.988372         -2.0459         5.52425
LJ          -5.12627         2.11222        -2.83404
LJ          -3.34501        -6.09001         -5.3652
LJ          -1.32093        -1.04777         2.56719
LJ            3.5205        -3.50079         4.93951
LJ           1.61698        0.712197        -6.41252
LJ       -0.00942695        -3.69813       -0.775156
LJ           1.66267        -2.03618         1.29229
LJ           2.31074         2.44595        -2.00117
LJ           2.10476        0.929931        -5.53235
LJ          -2.23331         3.01109         2.80672
LJ          -5.69109       -0.591864        -1.66198
LJ          -1.01752        -3.46982        -5.96201
LJ          -5.61416         -1.0208      -0.0534369
LJ          -1.08748         4.73345       -0.347538
LJ           5.79719         5.42743       -0.183427
LJ           1.16938         -4.0983        0.940415
LJ           -4.0194        -2.91646        0.654836
LJ           2.18215       -0.666241        -5.86311
