108
#Comment!
LJ           2.48406         5.59189        -1.25029
LJ          -4.70127        -1.41738        -4.67516
LJ           -5.0316           5.021         4.34085
LJ           2.34391         5.14418        -5.21942
LJ          -2.46054         3.72638         4.44437
LJ          -4.95296       -0.766653         6.11425
LJ          0.560352         -3.5882         4.26258
LJ          -1.35303         2.51613        -5.75483
LJ         -0.436088         4.25023         5.72031
LJ           5.91399        -2.53534        -5.06721
LJ          -1.21886         2.59981       -0.415603
LJ          -1.95889         6.43867        -3.60976
LJ          -5.99591          5.1971       -0.772223
LJ           4.96229         4.57016        -3.69499
LJ           -1.6524        -3.15155         3.77213
LJ            3.4164         2.31183        -3.23371
LJ          -3.24557        -3.18209        -4.48229
LJ          -3.54204        -4.46706        0.870003
LJ          -1.68876         2.53392         3.04797
LJ           -4.8648        -3.15572        -3.62609
LJ          -0.29538         3.66403         3.36685
LJ           4.68601         3.40246       0.0147954
LJ           1.10592         1.00516       -0.962906
LJ           3.24382        -4.84247         5.77141
LJ          -1.33776         4.72739         4.34203
LJ            1.8674        -1.21529       -0.339374
LJ            5.4525         -1.0508        -3.40852
LJ          -1.99577         2.70099         4.42766
LJ            1.6536        -5.13081         5.56659
LJ          -3.91767        0.553824         5.17663
LJ          -2.31219        -3.12694        -5.37354
LJ           3.48769        -4.10755        -2.81723
LJ           0.85039         4.59649        -2.85762
LJ         -0.917198         5.47031         5.74407
LJ           3.76353          6.0619         6.23372
LJ          -5.28725         0.83601         4.81415
LJ          -0.58754         4.06264         4.71823
LJ          -3.10521         0.65749         1.87198
LJ          -4.90399        -5.69427        -5.54503
LJ           -1.4095         5.93314        -5.84475
LJ           2.74491        -1.93194         2.14515
LJ          -1.93182       -0.178267         2.41849
LJ          -4.49957         5.84304        -4.29485
LJ           2.22165       -0.900828         4.01195
LJ          -1.35801         2.62017         5.72964
LJ          -3.06664          1.9611         3.64736
LJ         -0.820879         -5.5482        -2.54316
LJ           5.52923        -2.18274         4.15069
LJ            5.0829         -5.4599         2.56654
LJ           -5.0345        -3.26396         3.50934
LJ           3.13519        -4.49697         -5.3315
LJ          -3.48822         4.91728         4.31451
LJ         0.0619209        0.712583        -2.95888
LJ         -0.811083         2.94454         1.37978
LJ            1.5563         2.51114         3.16932
LJ          -5.78375         2.99712       -0.237749
LJ          -5.53551        -6.34916         1.27542
LJ          -0.43497        -1.23081        -4.93365
LJ            1.3091         1.00973         1.27478
LJ         -0.317184        -4.66542         5.50185
LJ          -4.92179        0.650731       -0.766666
LJ          0.862479        -4.14555        -3.16731
LJ          -5.55387         5.51399         -2.3542
LJ          -0.10187         3.08563        -1.85103
LJ           1.81888         6.14506        -1.80659
LJ          -6.39607        0.696411        -6.45099
LJ           -5.3236        -6.12055         5.97441
LJ           4.24613        -3.62223        -2.24128
LJ          0.959191         6.25747         5.64091
LJ           2.62295       -0.223451           5.784
LJ          -2.17562        -2.30556        -4.47427
LJ          -5.51345        0.639247        -3.21144
LJ          -5.02853        -6.03773        -2.29703
LJ           2.32125         -5.7619        -1.95602
LJ          -4.52648        -5.24297         4.11781
LJ           -5.0988        -2.96572        -0.38402
LJ          -5.33506        -4.08921        -3.26395
LJ           4.00228        -5.89179       -0.934308
LJ           2.98059         6.45142         -2.0562
LJ           4.17752       -0.283102         4.63825
LJ          -3.82744         6.18384        -5.42048
LJ           4.50951      -0.0677718         3.66505
LJ          -2.14219        -3.49488         1.07029
LJ            2.3449        -2.26026       -0.187058
LJ          -5.27879         4.81826        -4.75795
LJ           6.02504        -6.04657        -1.40551
LJ          -5.45862        0.169058        0.722513
LJ           6.35171        -3.56282          1.4461
LJ         -0.292646        -2.40951        -2.83729
LJ          -1.22116        -3.94628        -6.44451
LJ          -5.84095         1.39775        -2.15743
LJ           -1.1312         4.90409        -5.38503
LJ          -2.94272       -0.196872       -0.306938
LJ           5.14258         1.35181         6.38444
LJ           4.48682        -0.47204        -6.10839
LJ           -1.3013         5.79688         1.69711
LJ           1.71302        0.875025        0.269944
LJ           5.88749         3.86809        -1.44118
LJ           3.57167         1.29947        -1.08577
LJ          -3.37352         1.84557         1.12907
LJ          -5.82097         2.70845        -1.48177
LJ         -0.755902        -5.80422         6.15819
LJ           5.80364         1.54782       -0.886885
LJ           5.97225        -4.40087        -1.46361
LJ           5.11907         2.44313       -0.798468
LJ          -1.29518        -1.25886       -0.619222
LJ          -1.87567        -4.49018         1.54915
LJ           1.19258        0.392036         -4.2462
