108
#Comment!
LJ          -4.77239        -6.28167         -4.8668
LJ           2.05858         3.79284        -3.70905
LJ             2.649         4.14496        -2.30849
LJ           4.88138        -4.01195       -0.161771
LJ           3.28704         1.90508         5.55559
LJ          -4.61936         1.38012         6.32949
LJ          0.398538        -1.58037         6.30297
LJ          -2.62954         4.45957        0.871734
LJ           3.01006         3.43227         4.83083
LJ          -5.94432        -4.58074        0.206954
LJ          -2.69849         2.84526         2.92884
LJ           3.39272         0.79838         1.65699
LJ           1.45079        -2.65044        -1.26524
LJ           2.94038       -0.386927        -6.12626
LJ         -0.129447       -0.276019        -5.08991
LJ          0.414911         4.67464        -4.48691
LJ          -1.07429        0.837673        -1.44142
LJ           4.18563        -1.71474         -3.5789
LJ          0.171242          4.3113        -2.21602
LJ          0.891983        -1.57297         4.55394
LJ            -2.881         1.73834         2.32179
LJ          -3.02889        -1.06178         4.83354
LJ           3.72465         6.05851         4.99943
LJ          0.280414        -3.10063        -6.30726
LJ          0.475276        -2.74735         3.13592
LJ          -1.87699       -0.247448         4.85239
LJ           5.78755        -2.29507         5.46977
LJ           1.69664        -2.19692      -0.0628835
LJ           4.85978       -0.627309        -4.24472
LJ          -5.94327        -1.19661         5.69709
LJ          -4.71058        0.219209         2.55107
LJ           1.29133        -5.52922        -5.53397
LJ          0.804306          5.0661         2.36389
LJ           2.54898          3.1782          2.7128
LJ          -4.25523         1.26148         1.98791
LJ          -5.08188         2.89065         3.35367
LJ           6.27956         6.44743        -5.93601
LJ           3.12221         4.41384        -3.51337
LJ           1.55041          3.3868        -2.81061
LJ          -1.85601        -6.23916         -3.8213
LJ          -1.45649        -4.79768        -4.19388
LJ           1.75521        -6.23608        -4.67107
LJ           -2.2429        -4.72266        -6.06754
LJ         -0.151889         3.04736        -5.32997
LJ          0.564041        -2.72156         4.33486
LJ         -0.444615       0.0580369        -3.88944
LJ         -0.185683       -0.275121         -1.9726
LJ            3.0974         4.81646        -1.45228
LJ           1.66782         1.92278        -3.23908
LJ           2.76359         5.12244        -2.75028
LJ          -2.86671        -6.40583        -3.31929
LJ         -0.863346        -5.80141        -4.49655
LJ           5.14426        -6.24445         4.00153
LJ          -3.78745        -3.14233          4.8286
LJ          -1.91642        -5.75365         6.37018
LJ           4.74137        -3.17735         5.25468
LJ         -0.577746         -3.5059         4.39677
LJ          0.844145       0.0177545        -2.03828
LJ          -1.71737         5.41713        -5.24197
LJ         -0.275518        -3.56223         5.71781
LJ           3.44357        -2.00067         5.04821
LJ           3.70344         4.53759        -2.36803
LJ          -3.35956        -1.89821        -4.28912
LJ          -4.44183         -3.7785         5.30879
LJ           5.07648        0.190371        -5.26767
LJ          -4.18816        -2.07124         5.45006
LJ           1.09848          6.0939        -1.09905
LJ          -5.02492        -1.87289         4.63982
LJ          0.794132       -0.681607        0.433353
LJ           5.96671         -1.8827        0.891247
LJ           6.05696        -4.39666        -3.79975
LJ          -2.18128        -4.31509        -3.32942
LJ          -6.04634        -1.95026        -5.39465
LJ          -4.80005        -4.37341        -2.01493
LJ           4.01876         5.59202        -3.23954
LJ          -2.58567        -5.57872        -5.49233
LJ          -1.80438          6.2246         4.26999
LJ          0.053828        -1.42242         2.98422
LJ           3.31885         6.21526         -1.2074
LJ          0.761394        -2.08705        -0.75321
LJ          -2.30488        -3.38386         2.07908
LJ          0.119241        -4.19172        0.855767
LJ           2.51667        -4.43723        -0.63014
LJ           4.67678        0.343117         6.19368
LJ           4.69965         5.37903        -4.36612
LJ          -4.38411         2.36902       -0.660428
LJ          0.211713         1.59599         -3.6469
LJ          -1.13592         6.06002        -4.36903
LJ           5.09063         6.09446         5.01965
LJ          -5.33293        -5.17219        -5.53957
LJ          -1.48095        -3.67041        -4.88171
LJ           5.15883         3.11459         2.17881
LJ           4.17404        -4.77189         4.84979
LJ          -3.02469        -4.10632       -0.645139
LJ          -2.20551         4.01956         2.90992
LJ           3.45908        -1.83916       -0.336791
LJ           3.91277         5.88739        -5.10175
LJ           5.51644      -0.0861713        -2.91432
LJ          -2.03934          4.6537         1.76295
LJ          -1.19146         3.73016        -3.43636
LJ           6.40174         6.04202         3.96323
LJ          -6.44649         5.71703         5.20023
LJ           5.59675         6.18413         -3.6677
LJ           5.98899       -0.233486         5.52475
LJ          -5.04535        -5.72467         4.41618
LJ          -1.45194        -1.75052        -1.68099
LJ           3.07267         -2.5567         2.17392
LJ           6.08692        0.725458         1.23715
