108
#Comment!
LJ           2.49713         5.77269        -1.51237
LJ          -4.30124        -1.66147        -4.83993
LJ          -5.05668         4.51283         3.99032
LJ           2.29072         5.82152        -4.95098
LJ          -2.45261         3.82375         4.41306
LJ          -4.77942        -0.59516         6.11543
LJ          0.923693        -3.31566         4.07009
LJ          -1.45567         2.44964        -5.35954
LJ         -0.683175         4.58867         5.82671
LJ            5.8922        -2.56552         -4.8172
LJ          -1.31399         2.80691       -0.565831
LJ          -1.94845        -6.16627        -3.29554
LJ          -5.66635         5.40714        -1.04904
LJ           4.74724         4.58542        -3.70125
LJ          -1.91747        -3.35798         3.53484
LJ           2.88138         2.23235        -2.92358
LJ          -2.87522        -2.99316        -4.33915
LJ          -3.62667        -3.80443        0.847711
LJ          -2.00225         2.15789         2.94204
LJ          -4.97707        -2.99496        -3.96668
LJ         -0.127582         3.41753         3.47362
LJ           4.66399         3.63282      -0.0250338
LJ           1.24424         1.23409       -0.645192
LJ           2.85349        -4.71879         5.43568
LJ          -1.05945         4.97771         3.95519
LJ           1.82679        -1.25925       0.0505871
LJ           5.41144        -1.05105        -3.77152
LJ          -1.73572         2.49234         4.77476
LJ            1.4987        -5.27116         5.49845
LJ          -3.54771         0.47426         4.92223
LJ          -2.41005         -2.7626        -5.25962
LJ            3.2561        -4.33453        -2.73149
LJ          0.659226         4.85665        -3.16534
LJ         -0.783865          5.7097         5.69599
LJ           3.94825         6.22319         6.21099
LJ          -5.46595         1.08803         4.86905
LJ          -1.15803         3.80434         4.81288
LJ           -2.8867        0.731116         1.72076
LJ          -4.82916        -5.74425        -5.19401
LJ          -1.11155         5.97908        -5.97173
LJ            2.6309         -1.9808         2.28184
LJ          -1.86932       -0.608621         2.53349
LJ          -4.54648          5.7494           -4.11
LJ           2.11774       -0.985976         3.97345
LJ          -1.47107         2.56659         5.82295
LJ          -3.20106         1.82629         4.13761
LJ         -0.690287        -5.83823        -3.01989
LJ           5.44347        -2.33924         4.32454
LJ           5.51781        -5.23125         2.44893
LJ          -5.00427        -3.25026         3.30058
LJ           3.60328        -4.53104        -5.40462
LJ          -3.33699         4.89675          4.4541
LJ          0.163333        0.978304        -2.84467
LJ         -0.668539          3.2301         1.05129
LJ           1.17596         2.47617         3.27436
LJ          -5.65738         2.67886       -0.311703
LJ          -5.38667        -6.32138         1.75792
LJ         -0.321324        -1.10107        -4.88322
LJ           1.22989         1.03528         1.25129
LJ         -0.643348        -4.63422         5.20002
LJ          -5.03681        0.291233       -0.839651
LJ           1.05631        -4.02983        -3.22489
LJ           -5.5669         5.51101        -2.04324
LJ         -0.145672         2.88473        -1.92045
LJ           1.39069        -6.46292        -1.76677
LJ           6.19131        0.972245        -6.45981
LJ          -5.54465         -5.5165         6.42705
LJ           4.29494        -3.64988        -2.60875
LJ           0.76203        -6.28102         5.66168
LJ           2.73756       -0.528002         5.71322
LJ           -1.8561        -2.36637          -4.283
LJ          -5.48393        0.281923        -3.00612
LJ          -5.08432        -6.30345        -2.09588
LJ           2.37306        -5.58319        -1.88298
LJ          -4.52984        -5.22158         4.35128
LJ          -5.40496        -3.18136       -0.604923
LJ          -5.27104        -4.31286        -3.24796
LJ            4.1546        -5.58913       -0.944807
LJ           3.21878         6.13913        -2.18697
LJ           3.85869        -0.35522         4.94026
LJ          -3.67851         6.04996        -5.68091
LJ           4.68297       -0.150107         3.82957
LJ          -2.36925        -3.47832         1.08863
LJ            1.9349        -2.43692       -0.430986
LJ          -5.40293         4.79695        -4.69586
LJ           6.10356        -5.87299        -1.56491
LJ           -4.9725      -0.0374506        0.710004
LJ            6.1058        -3.99495         1.24384
LJ         -0.216252        -2.47435         -2.8662
LJ          -1.23313        -3.66702         6.44577
LJ          -5.74074         1.57151        -2.29602
LJ          -1.37874         5.05594        -5.28724
LJ          -2.86531      -0.0122824      -0.0101215
LJ           5.20605        0.879291         6.29268
LJ           4.20711       -0.363734        -6.20585
LJ          -1.19331         6.08874         1.47908
LJ           1.68611        0.737911        0.165182
LJ           5.55166         3.76691        -1.62395
LJ           3.34397          1.1259        -1.47997
LJ          -3.17979         1.58834         1.28402
LJ          -5.80104         2.41733        -1.48727
LJ         -0.580019        -5.74239         6.23726
LJ           5.88607         1.24007       -0.758917
LJ           6.43078        -4.95311        -1.37066
LJ            5.2421         2.62991       -0.659193
LJ          -1.08751        -1.51355       -0.442534
LJ          -1.94209         -4.4414         1.58037
LJ           1.32152        0.301873        -4.39686
