108
#Comment!
LJ          -2.94142         -5.3507        -4.57185
LJ             4.453         3.54007        -3.14644
LJ            3.8475         1.20144        -2.20454
LJ           3.39167        -2.54365        -3.86305
LJ           1.33949         4.95614         3.84057
LJ          -2.16079        0.602041         5.87471
LJ         -0.188343       -0.633026        -5.41225
LJ          -5.86852         2.85783        0.445117
LJ           2.40335         2.22898          5.3087
LJ          -5.51678         6.40934        -1.81743
LJ         -0.699799         1.24115         3.16675
LJ           2.60365         2.84623         3.06889
LJ           2.45783        -1.68678        -3.02781
LJ          0.703738        0.612599          4.6046
LJ          -2.14238        -3.01356        -4.61869
LJ           3.50182         3.58021        -2.07006
LJ           2.35147        -2.17346        -5.05838
LJ           2.11781       -0.619207        -5.15343
LJ          -2.05558        0.971645         2.70541
LJ           1.10257        -2.28287          2.8796
LJ          0.440367        0.991077         3.55741
LJ          -6.24988        -1.30522         4.92373
LJ          -5.69328         3.67385        -5.36555
LJ         -0.420833        -3.33908         2.13213
LJ         -0.344241        0.926547          4.8509
LJ           1.93915          3.1528         2.10755
LJ           1.30137        -2.05589        -6.44469
LJ           1.30346        -1.33071        -1.82606
LJ           -5.9992         1.46073         4.41054
LJ           5.27287        -0.93723         5.27683
LJ          -3.61278        0.366154         2.04187
LJ         -0.588536        -4.90325        -6.41718
LJ           1.22551          2.5442        0.428676
LJ           5.29776          3.3099         4.57379
LJ           -3.1567        0.191459         3.12578
LJ          -2.99116         2.45577         4.98644
LJ          -6.31671        -4.45682       -0.699082
LJ           5.47218         3.01767        -2.87693
LJ           3.39746         2.27748         -2.4721
LJ         -0.309555         -5.7967        -4.30677
LJ           -1.9385        -4.43162        -1.64822
LJ           0.80815        -4.23971         2.88732
LJ          -1.70161        -4.91298        -2.58538
LJ          -4.17151         5.92887         6.04534
LJ          0.186283        -3.00756         3.04136
LJ           4.06116        0.198012         5.79516
LJ           1.64701        -1.89032        -3.93135
LJ           4.04531        -0.93222          -2.317
LJ           -1.1625         3.96085        -2.30778
LJ           4.74415         3.16439        -2.02371
LJ          -2.06946         -6.4326        -4.66597
LJ          -1.19874        -5.65651        -3.29402
LJ           4.40613        -3.29551         4.53831
LJ          -2.64896        -2.64187        -5.65933
LJ          -3.25203        -4.28889         4.73661
LJ           1.92222        -3.57014         5.18702
LJ           1.74323        -2.03572         3.76757
LJ           1.02516        -1.13788        -5.24406
LJ          0.679645         4.31391         6.38695
LJ         -0.382872        -3.85816         3.58218
LJ           4.55031        -4.94087        -2.79674
LJ           4.16098         2.45837        -3.41315
LJ          -4.48508        -4.08544        -2.55599
LJ           5.36351        0.415381         3.54045
LJ          -5.17081         1.30694         5.46764
LJ           6.05582        -5.39456         -5.9491
LJ           5.10227          2.5398       -0.473975
LJ           5.29533       -0.195261         6.35096
LJ          -4.33488         4.39404       -0.583003
LJ          -2.98494         6.23103         3.14492
LJ           6.01235         2.83575       -0.248896
LJ          -1.50675        -1.56731        -3.73513
LJ           5.81238        -3.40492       -0.523036
LJ          -4.44089         6.42854        -2.09212
LJ           4.82147         4.50486        -3.27532
LJ          -2.26134        -5.79418        -5.53647
LJ          -1.14614        -1.69733       -0.206856
LJ           5.87711        -4.43824         2.66394
LJ           4.63114         -3.8532        -1.31839
LJ           1.92695        -2.28989        -2.21511
LJ           5.32904        -4.07146         4.91619
LJ         0.0680927        -5.14841        0.196236
LJ          -2.07322         3.40923          2.9534
LJ           1.81698       -0.478262         3.11895
LJ           6.14172         4.74831        -1.79566
LJ          -6.00159         4.19943         6.22384
LJ        -0.0318274         4.50391        -2.73443
LJ         -0.664081         6.16016        -2.88475
LJ           3.99587         -4.4867         4.60377
LJ          -5.77845        -3.78357         4.26569
LJ          -1.75127         2.23607        -6.11129
LJ           2.25394        0.527674       -0.216658
LJ           3.86915        -4.49566         1.37239
LJ          -1.68718        -2.56677        -2.25871
LJ          -1.75522        -5.18496          5.0907
LJ           5.79038         0.70301        -4.70108
LJ           -5.7453         4.44391        -2.19444
LJ           -2.9799         1.77136        -4.78514
LJ          -2.76959         5.81885         5.77511
LJ          -2.00023         4.39535       -0.456947
LJ           5.62557        -6.14328         5.70414
LJ            4.3719        -2.01978         4.27401
LJ           4.98876          5.3401         5.26366
LJ          -6.00122       0.0906981          5.6529
LJ           4.75561        -4.97411         4.10885
LJ          -3.11973        -4.54226       -0.538898
LJ          -5.47012        -5.54525         3.34358
LJ           5.37645         1.10087         5.56436
