108
#Comment!
LJ          0.327388        -6.16313         4.83724
LJ          -4.05688        -6.38347        -2.27222
LJ          -3.49877        0.761632        -3.64869
LJ           5.16483         -2.5125        -4.03217
LJ           1.64395          4.9366         4.61399
LJ          -3.54745         -1.1238        -6.05108
LJ          -1.83929        -4.35692          4.0748
LJ          -4.84096         1.51094        -6.32594
LJ         -0.350846         -5.0286         4.95183
LJ           1.92357        -2.36841         5.33411
LJ         -0.377465        -4.57539        -4.29732
LJ         -0.993656        -2.54812         2.89597
LJ          -5.56473        -0.19816         5.96366
LJ          -1.79312         5.26574         6.33181
LJ           -4.7699        -4.12522       -0.275283
LJ          -2.10267        -5.57969         5.53735
LJ           2.14439        -2.07453         2.61242
LJ          -5.69813        -1.03797        -5.88446
LJ          -3.19483       -0.171056        0.658493
LJ         -0.366195        -5.08812       0.0102137
LJ          -3.12668         6.25853        -6.25802
LJ          -4.02335         5.27805         -2.8296
LJ           1.33738         5.09335         5.77883
LJ           6.23654        -5.41059        -1.21954
LJ         -0.106593         3.07676        -3.42486
LJ          -3.11372         -5.5557        -1.03907
LJ          0.519257        -4.90097         4.17798
LJ          -2.91863         1.34385         1.55596
LJ          0.352965        -4.07117         5.80965
LJ           2.98998         4.33076        -2.23315
LJ          -2.36622        0.547404        -3.02463
LJ           2.87006         2.43397        -4.23709
LJ          0.039469         1.95108         4.80753
LJ          0.826517        -2.98594         5.85196
LJ          0.433776         4.05128        -5.32305
LJ           4.21371         5.12847         4.97379
LJ          0.602394        -5.06026        -1.07539
LJ          0.174026        0.957269         2.65655
LJ          -3.92223         5.56481         0.45478
LJ          -2.20778        -4.19213        -4.58358
LJ           4.65795         4.26863          4.2202
LJ          0.335534         3.90969         2.89575
LJ           -4.4181         4.91414        -4.81084
LJ           2.06354        -1.20328         3.36724
LJ          -2.97388        -5.83319        -3.82062
LJ          -5.45702         4.89638         -6.1471
LJ           4.23476       -0.496595         4.86271
LJ           5.01222        0.744898         4.69234
LJ           4.64261         0.19086        -4.29861
LJ          -3.77987        0.224566         1.71843
LJ           -6.4579         5.35752        -3.65965
LJ           1.88044       -0.357813          5.1418
LJ          -3.23249         1.22798        -4.61064
LJ         -0.204804        -4.49851        -3.19295
LJ           1.57431        -3.44688        -6.13855
LJ          -3.08568         -6.2635      -0.0786163
LJ           4.49938         4.94897       -0.344727
LJ          -5.10824        -2.00489         5.83906
LJ          -1.41872        -2.04487        0.267077
LJ          -6.04426        -4.79565         3.02199
LJ          -5.58827        -6.05755         1.63732
LJ           2.20819         3.90065         3.82397
LJ            4.3998        -1.97512        -3.55785
LJ          -2.63729         4.67971       -0.112661
LJ           2.13871         4.11724       -0.136576
LJ           3.07362         -4.6505         5.03065
LJ          -5.65391         6.00568         3.74696
LJ           1.25536        -3.66556        -2.89757
LJ           2.45516        -3.06938         2.27408
LJ           4.92502        -5.52219         5.83592
LJ           1.56539        0.992959         3.22054
LJ          -4.71113        -2.24102         1.07991
LJ          0.525766         4.60828        -1.26184
LJ           6.39952         5.58323        -2.70274
LJ         -0.505808         1.81908        -2.42847
LJ           -4.2923         5.11258        -6.13196
LJ          -2.22018        -5.46914         1.67493
LJ          -4.66826      -0.0693191        -6.43585
LJ          -3.11656         5.15347        -1.61259
LJ           4.50339        -6.29184        -5.18785
LJ           5.42996         -2.9304        -2.24726
LJ           5.84445         4.03041         5.90455
LJ           1.37054         3.88101        -3.07162
LJ          -5.71583        -4.92954        -2.96607
LJ           5.05607         4.93961         5.99505
LJ           3.62159         -5.3535        -3.17444
LJ          -2.24018         4.03977        -5.91474
LJ           3.51617        -1.33366        -3.91448
LJ           -5.7861        -1.01996         1.50949
LJ           2.81473        -1.62016         5.24889
LJ          -1.81201         1.33251          1.4365
LJ          -1.38831        -6.07186         2.98918
LJ         0.0836173        -3.59497         2.99423
LJ         -0.262282        -5.72647         3.52632
LJ          -3.67776        0.550268         3.71766
LJ           2.38955        0.409402        -5.30929
LJ           1.46662         2.78119         3.20086
LJ          -1.45561         3.63749        -4.38323
LJ           5.10671         3.58412         5.11793
LJ          -4.01876         2.75102         2.00111
LJ          -2.78139        -3.82672       -0.642428
LJ          -1.87363         3.18451        -5.59646
LJ           3.47709         6.28202        -1.26619
LJ           5.88342       -0.114279        0.783874
LJ           2.82913        -6.20598          -3.646
LJ            3.0864         1.69864        -1.52301
LJ          -3.76351         3.71063         3.05749
LJ          -3.31328        0.846574         4.92563
