108
#Comment!
LJ        -0.0161457          6.2523         5.70972
LJ          -3.63406        -6.06608        -2.66943
LJ           -3.5969       0.0367104        -2.47698
LJ           4.87929        -2.86923        -4.53514
LJ            0.5039         4.73211         4.70035
LJ          -3.87528        -1.00883        -6.07296
LJ          -0.71018        -3.47194          4.4213
LJ          -4.47236         1.31938         4.64006
LJ         -0.233346        -5.19773         5.50409
LJ             1.885        -2.44367          3.5839
LJ          -1.09591        -5.18533        -3.78193
LJ          0.359499        -2.64849         2.88915
LJ          -4.96103       -0.971734         4.95237
LJ          -1.10983         3.81843        -6.31141
LJ          -6.15358        -2.22896        0.292986
LJ          -2.25707         6.30704         4.33233
LJ           2.17234        -1.95469         2.11685
LJ          -4.54656        -1.05345         -5.1199
LJ          -5.30834        0.337691          1.1942
LJ          -2.14022        -4.10133        0.645987
LJ          -3.19232         5.48137         6.44086
LJ          -4.58688         5.52781        -2.22562
LJ           1.69193         4.26557          5.2838
LJ          -5.23481        -5.75855       -0.981802
LJ         -0.246907         2.05929        -2.53626
LJ          -3.63671        -5.85336       -0.947187
LJ           1.38342        -4.73423         3.80186
LJ          -4.97554         1.15207         2.16637
LJ          0.761996        -3.52108          4.6222
LJ           1.97485         3.68931        -1.28899
LJ          -2.35379        0.636328        -4.39092
LJ           1.92915          3.7582        -4.82031
LJ         -0.187467         2.90207         5.79326
LJ            1.4134        -3.25769         5.58965
LJ         -0.980095         4.72061        -5.28996
LJ            5.0494         5.37706         4.31946
LJ           2.16143        -4.42288        -1.94728
LJ         -0.185185        0.369561         2.06638
LJ          -3.58144         6.03829       -0.402043
LJ          -1.50005        -4.31518        -4.80298
LJ           4.89781          4.2584         4.18444
LJ         0.0666988         4.21295          2.8761
LJ          -5.47067         5.38743        -3.95879
LJ           1.61964       -0.826609         2.91519
LJ          -3.21454        -6.30264        -3.63521
LJ          -3.89842         4.65767        -5.83863
LJ            4.6637       -0.205112         4.25687
LJ           5.59997      -0.0669143          5.2343
LJ           3.31574       -0.942478        -3.63087
LJ          -3.71813       0.0146215         2.15952
LJ           6.12121         6.19384        -4.09455
LJ           1.22818         1.10527         4.61108
LJ          -2.95726         1.48123        -4.47453
LJ          0.123426        -4.76226        -3.19903
LJ            1.0847        -3.51876        -6.06931
LJ          -3.44094        -5.39257       0.0492656
LJ           5.53763         4.53517        -1.76345
LJ          -4.45501        -2.29907        -5.94053
LJ          0.641212       -0.996255        0.748301
LJ           -5.7289        -4.77126         3.02085
LJ            6.1211         6.20006         2.89642
LJ           2.26055         5.22839         3.45181
LJ           4.97155       -0.897461         -3.6386
LJ          -1.95108         3.35478       -0.658918
LJ           1.48338         2.84575       -0.465338
LJ           3.34597        -5.47359         5.88627
LJ          -5.55507         5.02102         4.99176
LJ           2.02837        -3.94499        -3.11961
LJ           1.18666        -3.65418         3.09343
LJ            4.5698        -6.42764         5.49434
LJ           1.33419        0.110324         2.60589
LJ          -4.70525        -2.28301        0.360141
LJ         -0.245388         4.87585        -0.56567
LJ           5.50009         6.13434        -1.81315
LJ         -0.931669        0.374542        -3.66641
LJ          -2.35698         5.59829        -4.89798
LJ          -2.70248        -5.79883        0.618261
LJ           -5.5749       -0.169395        -5.29319
LJ          -4.27575         6.08752        -1.36216
LJ           4.71295        -4.75744        -5.52771
LJ          -5.89364        -3.21189        -2.20267
LJ           4.71498         4.06194         5.84104
LJ           3.32321         4.70827        -2.42438
LJ          -5.10791        -4.86929        -3.12124
LJ           5.11118         5.14672         5.30807
LJ           3.73426        -5.61471        -3.03222
LJ          -3.75291         3.51373         5.43004
LJ            3.0236       -0.629233         -2.5751
LJ           5.76909        -1.96293        0.950081
LJ           1.93306        -1.61616          5.0757
LJ          -2.53559         1.54275        0.737302
LJ          -1.18008        -6.03474         3.99941
LJ         -0.183351        -3.63547         2.20915
LJ          0.355288        -5.56156         4.00463
LJ          -2.57951        0.668554         4.19274
LJ           1.88432       -0.245572        -4.59296
LJ             1.295         4.38984         2.64314
LJ          -1.07238          3.3527        -3.94877
LJ           5.01018         2.57991          5.6757
LJ          -3.62459         2.96163         2.22953
LJ          -2.65705        -3.65564        -0.53143
LJ          -1.00085         2.81862        -6.30314
LJ           4.07067        -5.77249        -2.03005
LJ           5.94846       -0.581799        0.589663
LJ           4.61243          6.4123        -3.60381
LJ           3.18021         3.16021       -0.799098
LJ          -3.97577         5.31255         2.45827
LJ          -2.41792        0.247919         5.83028
