108
#Comment!
LJ          -5.64808         4.90156        -3.96563
LJ           2.01001         4.12111        -2.60914
LJ           1.02879         5.03528        -2.96461
LJ           6.35593        -5.84028           1.206
LJ           4.45219         1.10095         5.43131
LJ          -5.63446         1.68268        -6.39267
LJ          0.499932        -2.72084         6.02364
LJ          -2.21562         5.02969       -0.209255
LJ           2.92235          3.7583         5.43502
LJ          -6.27392        -3.81881        0.947272
LJ          -3.62522         3.04058         3.42391
LJ           3.61349       -0.153841        0.899231
LJ           1.68001        -3.36643       -0.516614
LJ           4.07982       -0.830694         -5.2115
LJ            0.1343        0.882442        -5.07656
LJ          -1.14453         4.74937        -5.05997
LJ          -2.44651         1.48775       -0.957278
LJ           4.88254        -3.03278        -2.47073
LJ            1.4041         5.59377        -4.31728
LJ          0.744133        -1.83282         4.60406
LJ          -4.54825         2.29044         2.00584
LJ          -1.75127       -0.412304         4.24111
LJ            3.2405        -5.26684         3.75078
LJ           1.19073        -3.25032        -5.38897
LJ          0.912053        -3.80774         3.55043
LJ          -3.47648        0.103448        -5.59177
LJ          -4.70963        -2.48888         5.14547
LJ           1.45864        -3.66587         1.00948
LJ            4.3401        -1.73607        -3.18066
LJ          -6.25532        0.200499         5.33227
LJ          -5.77409          0.8835         2.15081
LJ           2.76028        -5.46402        -5.14565
LJ            0.8001         4.81702         3.54991
LJ           1.25754         2.88529         2.27526
LJ          -4.68859        0.552743         2.20554
LJ          -5.98681         3.06561          2.5566
LJ          -6.32476         5.24167         5.87919
LJ           2.44744         5.11677        -3.49687
LJ           1.02887         3.94567        -2.15181
LJ          -2.21555        -6.09929        -3.92827
LJ         -0.321491        -5.73294        -4.24556
LJ           1.63481         5.91167        -2.79318
LJ          -2.55329        -5.45282         5.60658
LJ           1.47491         2.21446        -4.51887
LJ          -0.79194        -2.51434         4.15279
LJ          -2.25933      0.00428138        -3.32105
LJ         -0.430988        0.916771        -1.14399
LJ           2.05816         5.10054        -2.51245
LJ           2.47417         1.91462        -4.06874
LJ           2.10584        -6.11537        -4.10543
LJ          -1.55427         6.28234        -2.95041
LJ          -1.03517         6.39409        -4.46882
LJ           4.65577         4.93176         3.77683
LJ          -3.84339         -3.5359         3.63113
LJ           -1.3351        -5.99068        -6.35129
LJ           5.42044        -3.05432         5.27583
LJ          -1.18789        -2.93252         5.05296
LJ          0.663352         0.69746       0.0687883
LJ          -3.03983         5.80898        -5.04316
LJ          0.140751        -2.78855        -5.62727
LJ            3.0952       -0.482135         3.34051
LJ           3.06887         5.99753        -2.68366
LJ          -2.74972        -1.06843        -5.02182
LJ          -3.62669        -4.68033         5.94878
LJ           4.88952       0.0246624        -3.02542
LJ          -2.65545        -1.15629         5.46182
LJ          -0.52304        -5.15855        -1.39538
LJ          -4.15339        -2.52348          4.0416
LJ           2.36371        -1.68073       -0.374831
LJ           4.25656        0.174045       0.0697267
LJ           5.97288        -2.07382        -5.54195
LJ          -3.22273        -5.79813        -2.76019
LJ          -5.67517         -1.0649         5.37002
LJ          -5.52145        -3.69297         -1.8223
LJ           3.59221         5.82221        -3.82268
LJ          -2.27935        -5.06451        -6.21023
LJ          -1.65122         5.41964         -6.3669
LJ           2.18184        -2.96104          3.4402
LJ           2.96758         5.82899       -0.795056
LJ          0.819268        -1.15596        0.359739
LJ          -1.13907        -1.86293         1.25509
LJ          0.376284        -3.55706        0.492833
LJ           4.29261        -1.98325        -2.23462
LJ           5.26914      -0.0898868         5.67549
LJ           3.95395         5.91003        -4.96812
LJ          -3.57839          1.5795        -3.48086
LJ          0.879932        0.182389        -3.52803
LJ          -2.03201         5.71076        -4.09655
LJ           5.89656         4.69792         5.02632
LJ          -5.76929        -5.28826        -3.95775
LJ          -1.54894        -4.22926        -6.00039
LJ          -6.26524         4.26335         2.97008
LJ           4.22564        -6.08858          5.4606
LJ          -3.60977        -4.50174        0.235598
LJ          -2.09164         3.61812         1.53431
LJ            2.9798        -2.80267        0.553051
LJ           3.17509         6.07852        -5.58448
LJ           3.57513       -0.539584        -1.71198
LJ         -0.765449         2.63519         1.58773
LJ          -0.26823         3.69329        -4.89407
LJ          -5.97225          5.9312         4.43618
LJ           6.17083         4.18999         3.85924
LJ           4.93201         6.40444        -1.98743
LJ           5.87978       -0.948937         5.86356
LJ          -3.80873        -6.23462         5.33366
LJ         -0.657709       -0.794237        -2.65956
LJ           1.95271       -0.585827         1.33321
LJ           6.46081        0.538444       -0.444171
